    1C
    1UUSER                                                              
    1UDATE              11.april.2018                                   
    1UTIME              11:07:52                                        
    1UHOST                                                              
    1UPGM               CalculiX                                        
    1UVERSION           Version 2.12                             
    1UCOMPILETIME       So 2. Apr 15:03:04 CEST 2017                    
    1UDIR                                                               
    1UDBN                                                               
    1UMAT    1MECHANICALMATERIAL                                        
    2C                          3542                                     1
 -1         1 9.50000E+01 0.00000E+00 1.00000E+01
 -1         2 2.00000E+01 0.00000E+00 1.00000E+01
 -1         3 7.12523E+01-6.00000E+00 1.00000E+01
 -1         4 7.12523E+01 6.00000E+00 1.00000E+01
 -1         5 2.52270E+01-7.45638E+00 1.00000E+01
 -1         6 2.52270E+01 7.45638E+00 1.00000E+01
 -1         7 9.50000E+01 0.00000E+00 0.00000E+00
 -1         8 2.00000E+01 0.00000E+00 0.00000E+00
 -1         9 7.12523E+01-6.00000E+00 0.00000E+00
 -1        10 7.12523E+01 6.00000E+00 0.00000E+00
 -1        11 2.52270E+01-7.45638E+00 0.00000E+00
 -1        12 2.52270E+01 7.45638E+00 0.00000E+00
 -1        13 2.34169E+01-8.75498E+00 1.00000E+01
 -1        14 2.34169E+01 8.75498E+00 1.00000E+01
 -1        15 2.34169E+01-8.75498E+00 0.00000E+00
 -1        16 2.34169E+01 8.75498E+00 0.00000E+00
 -1        17 9.50000E+01 0.00000E+00 5.01000E+00
 -1        18 9.36392E+01 5.03623E+00 0.00000E+00
 -1        19 9.00362E+01 8.63923E+00 0.00000E+00
 -1        20 8.50628E+01 9.99980E+00 0.00000E+00
 -1        21 8.01275E+01 8.73262E+00 0.00000E+00
 -1        22 7.64247E+01 5.14440E+00 0.00000E+00
 -1        23 7.50002E+01 6.28314E-02 0.00000E+00
 -1        24 7.64901E+01-5.25175E+00 0.00000E+00
 -1        25 8.01825E+01-8.76307E+00 0.00000E+00
 -1        26 8.51885E+01-9.99822E+00 0.00000E+00
 -1        27 9.00904E+01-8.60742E+00 0.00000E+00
 -1        28 9.37018E+01-4.92727E+00 0.00000E+00
 -1        29 9.36707E+01 4.98185E+00 1.00000E+01
 -1        30 9.00362E+01 8.63923E+00 1.00000E+01
 -1        31 8.51257E+01 9.99921E+00 1.00000E+01
 -1        32 8.01275E+01 8.73262E+00 1.00000E+01
 -1        33 7.64247E+01 5.14440E+00 1.00000E+01
 -1        34 7.50002E+01 6.28314E-02 1.00000E+01
 -1        35 7.64901E+01-5.25175E+00 1.00000E+01
 -1        36 8.01825E+01-8.76307E+00 1.00000E+01
 -1        37 8.51885E+01-9.99822E+00 1.00000E+01
 -1        38 9.01444E+01-8.57527E+00 1.00000E+01
 -1        39 9.37018E+01-4.92727E+00 1.00000E+01
 -1        40 2.00000E+01 0.00000E+00 4.67000E+00
 -1        41 1.95454E+01 4.24014E+00 0.00000E+00
 -1        42 1.85489E+01 7.47918E+00 0.00000E+00
 -1        43 1.70855E+01 1.03963E+01 0.00000E+00
 -1        44 1.44062E+01 1.38731E+01 0.00000E+00
 -1        45 1.02888E+01 1.71505E+01 0.00000E+00
 -1        46 5.45904E+00 1.92406E+01 0.00000E+00
 -1        47 3.76969E-01 1.99964E+01 0.00000E+00
 -1        48-4.60779E+00 1.94620E+01 0.00000E+00
 -1        49-9.74500E+00 1.74652E+01 0.00000E+00
 -1        50-1.40530E+01 1.42307E+01 0.00000E+00
 -1        51-1.73414E+01 9.96370E+00 0.00000E+00
 -1        52-1.93076E+01 5.21683E+00 0.00000E+00
 -1        53-1.99984E+01-2.51321E-01 0.00000E+00
 -1        54-1.91342E+01-5.82072E+00 0.00000E+00
 -1        55-1.68189E+01-1.08224E+01 0.00000E+00
 -1        56-1.35067E+01-1.47503E+01 0.00000E+00
 -1        57-9.30302E+00-1.77046E+01 0.00000E+00
 -1        58-4.36286E+00-1.95183E+01 0.00000E+00
 -1        59 8.79362E-01-1.99807E+01 0.00000E+00
 -1        60 6.29973E+00-1.89819E+01 0.00000E+00
 -1        61 1.10329E+01-1.66816E+01 0.00000E+00
 -1        62 1.46651E+01-1.35991E+01 0.00000E+00
 -1        63 1.74037E+01-9.85455E+00 0.00000E+00
 -1        64 1.86866E+01-7.12824E+00 0.00000E+00
 -1        65 1.96218E+01-3.87099E+00 0.00000E+00
 -1        66 1.95716E+01 4.11725E+00 1.00000E+01
 -1        67 1.85955E+01 7.36249E+00 1.00000E+01
 -1        68 1.74037E+01 9.85455E+00 1.00000E+01
 -1        69 1.50850E+01 1.31317E+01 1.00000E+01
 -1        70 1.13454E+01 1.64707E+01 1.00000E+01
 -1        71 6.77476E+00 1.88176E+01 1.00000E+01
 -1        72 2.00723E+00 1.98990E+01 1.00000E+01
 -1        73-2.88022E+00 1.97915E+01 1.00000E+01
 -1        74-7.71168E+00 1.84535E+01 1.00000E+01
 -1        75-1.23572E+01 1.57258E+01 1.00000E+01
 -1        76-1.59559E+01 1.20586E+01 1.00000E+01
 -1        77-1.85015E+01 7.59558E+00 1.00000E+01
 -1        78-1.98262E+01 2.63129E+00 1.00000E+01
 -1        79-1.97730E+01-3.00451E+00 1.00000E+01
 -1        80-1.83048E+01-8.05813E+00 1.00000E+01
 -1        81-1.56478E+01-1.24558E+01 1.00000E+01
 -1        82-1.20586E+01-1.59559E+01 1.00000E+01
 -1        83-7.82747E+00-1.84046E+01 1.00000E+01
 -1        84-3.00451E+00-1.97730E+01 1.00000E+01
 -1        85 2.25713E+00-1.98722E+01 1.00000E+01
 -1        86 7.36249E+00-1.85955E+01 1.00000E+01
 -1        87 1.16538E+01-1.62539E+01 1.00000E+01
 -1        88 1.50850E+01-1.31317E+01 1.00000E+01
 -1        89 1.75863E+01-9.52476E+00 1.00000E+01
 -1        90 1.88176E+01-6.77476E+00 1.00000E+01
 -1        91 1.96913E+01-3.50046E+00 1.00000E+01
 -1        92 7.12523E+01-6.00000E+00 4.90000E+00
 -1        93 7.40811E+01-1.02849E+01 0.00000E+00
 -1        94 7.81164E+01-1.33273E+01 0.00000E+00
 -1        95 8.29331E+01-1.48569E+01 0.00000E+00
 -1        96 8.79844E+01-1.47001E+01 0.00000E+00
 -1        97 9.26970E+01-1.28747E+01 0.00000E+00
 -1        98 9.65880E+01-9.52466E+00 0.00000E+00
 -1        99 9.91213E+01-5.05868E+00 0.00000E+00
 -1       100 9.99998E+01-8.19019E-02 0.00000E+00
 -1       101 9.91756E+01 4.90418E+00 0.00000E+00
 -1       102 9.66398E+01 9.46125E+00 0.00000E+00
 -1       103 9.28371E+01 1.27898E+01 0.00000E+00
 -1       104 8.79844E+01 1.47001E+01 0.00000E+00
 -1       105 8.29331E+01 1.48569E+01 0.00000E+00
 -1       106 7.81164E+01 1.33273E+01 0.00000E+00
 -1       107 7.40251E+01 1.02251E+01 0.00000E+00
 -1       108 7.40811E+01-1.02849E+01 1.00000E+01
 -1       109 7.81164E+01-1.33273E+01 1.00000E+01
 -1       110 8.29331E+01-1.48569E+01 1.00000E+01
 -1       111 8.79844E+01-1.47001E+01 1.00000E+01
 -1       112 9.26970E+01-1.28747E+01 1.00000E+01
 -1       113 9.65880E+01-9.52466E+00 1.00000E+01
 -1       114 9.91213E+01-5.05868E+00 1.00000E+01
 -1       115 9.99998E+01-8.19019E-02 1.00000E+01
 -1       116 9.91756E+01 4.90418E+00 1.00000E+01
 -1       117 9.66398E+01 9.46125E+00 1.00000E+01
 -1       118 9.28371E+01 1.27898E+01 1.00000E+01
 -1       119 8.79844E+01 1.47001E+01 1.00000E+01
 -1       120 8.29331E+01 1.48569E+01 1.00000E+01
 -1       121 7.81164E+01 1.33273E+01 1.00000E+01
 -1       122 7.40251E+01 1.02251E+01 1.00000E+01
 -1       123 2.63316E+01-7.42143E+00 0.00000E+00
 -1       124 2.79885E+01-7.36900E+00 0.00000E+00
 -1       125 3.03818E+01-7.29327E+00 0.00000E+00
 -1       126 3.36036E+01-7.19132E+00 0.00000E+00
 -1       127 3.75618E+01-7.06607E+00 0.00000E+00
 -1       128 4.29007E+01-6.89713E+00 0.00000E+00
 -1       129 5.04949E+01-6.65683E+00 0.00000E+00
 -1       130 5.96539E+01-6.36701E+00 0.00000E+00
 -1       131 6.61435E+01-6.16166E+00 0.00000E+00
 -1       132 2.52270E+01-7.45638E+00 1.01000E+00
 -1       133 2.52270E+01-7.45638E+00 2.01000E+00
 -1       134 2.52270E+01-7.45638E+00 3.01000E+00
 -1       135 2.52270E+01-7.45638E+00 4.01000E+00
 -1       136 2.52270E+01-7.45638E+00 5.01000E+00
 -1       137 2.52270E+01-7.45638E+00 6.01000E+00
 -1       138 2.52270E+01-7.45638E+00 7.00000E+00
 -1       139 2.52270E+01-7.45638E+00 8.00000E+00
 -1       140 2.52270E+01-7.45638E+00 9.00000E+00
 -1       141 2.63316E+01-7.42143E+00 1.00000E+01
 -1       142 2.79885E+01-7.36900E+00 1.00000E+01
 -1       143 3.03818E+01-7.29327E+00 1.00000E+01
 -1       144 3.36036E+01-7.19132E+00 1.00000E+01
 -1       145 3.75618E+01-7.06607E+00 1.00000E+01
 -1       146 4.29007E+01-6.89713E+00 1.00000E+01
 -1       147 5.04949E+01-6.65683E+00 1.00000E+01
 -1       148 5.96539E+01-6.36701E+00 1.00000E+01
 -1       149 6.61435E+01-6.16166E+00 1.00000E+01
 -1       150 2.63776E+01 7.41997E+00 0.00000E+00
 -1       151 2.81266E+01 7.36463E+00 0.00000E+00
 -1       152 3.05199E+01 7.28890E+00 0.00000E+00
 -1       153 3.44781E+01 7.16365E+00 0.00000E+00
 -1       154 3.97710E+01 6.99616E+00 0.00000E+00
 -1       155 4.63066E+01 6.78936E+00 0.00000E+00
 -1       156 5.54196E+01 6.50099E+00 0.00000E+00
 -1       157 6.49468E+01 6.19952E+00 0.00000E+00
 -1       158 2.52270E+01 7.45638E+00 1.01000E+00
 -1       159 2.52270E+01 7.45638E+00 2.01000E+00
 -1       160 2.52270E+01 7.45638E+00 3.01000E+00
 -1       161 2.52270E+01 7.45638E+00 4.01000E+00
 -1       162 2.52270E+01 7.45638E+00 5.01000E+00
 -1       163 2.52270E+01 7.45638E+00 6.01000E+00
 -1       164 2.52270E+01 7.45638E+00 7.00000E+00
 -1       165 2.52270E+01 7.45638E+00 8.00000E+00
 -1       166 2.52270E+01 7.45638E+00 9.00000E+00
 -1       167 2.65157E+01 7.41560E+00 1.00000E+01
 -1       168 2.85868E+01 7.35006E+00 1.00000E+01
 -1       169 3.21308E+01 7.23792E+00 1.00000E+01
 -1       170 3.73777E+01 7.07190E+00 1.00000E+01
 -1       171 4.40973E+01 6.85926E+00 1.00000E+01
 -1       172 5.31183E+01 6.57381E+00 1.00000E+01
 -1       173 6.40263E+01 6.22865E+00 1.00000E+01
 -1       174 2.28371E+01 1.01718E+01 1.00000E+01
 -1       175 2.19090E+01 1.20414E+01 1.00000E+01
 -1       176 2.02736E+01 1.46280E+01 1.00000E+01
 -1       177 1.74602E+01 1.78925E+01 1.00000E+01
 -1       178 1.33136E+01 2.11601E+01 1.00000E+01
 -1       179 8.83415E+00 2.33871E+01 1.00000E+01
 -1       180 3.45051E+00 2.47607E+01 1.00000E+01
 -1       181-1.54831E+00 2.49520E+01 1.00000E+01
 -1       182-6.48513E+00 2.41442E+01 1.00000E+01
 -1       183-1.14107E+01 2.22440E+01 1.00000E+01
 -1       184-1.56109E+01 1.95269E+01 1.00000E+01
 -1       185-1.90966E+01 1.61345E+01 1.00000E+01
 -1       186-2.18593E+01 1.21313E+01 1.00000E+01
 -1       187-2.38370E+01 7.53639E+00 1.00000E+01
 -1       188-2.48603E+01 2.63969E+00 1.00000E+01
 -1       189-2.48881E+01-2.36271E+00 1.00000E+01
 -1       190-2.39596E+01-7.13721E+00 1.00000E+01
 -1       191-2.19265E+01-1.20094E+01 1.00000E+01
 -1       192-1.91861E+01-1.60279E+01 1.00000E+01
 -1       193-1.56109E+01-1.95269E+01 1.00000E+01
 -1       194-1.11623E+01-2.23697E+01 1.00000E+01
 -1       195-6.48513E+00-2.41442E+01 1.00000E+01
 -1       196-1.68721E+00-2.49430E+01 1.00000E+01
 -1       197 3.31260E+00-2.47796E+01 1.00000E+01
 -1       198 8.04811E+00-2.36691E+01 1.00000E+01
 -1       199 1.27194E+01-2.15225E+01 1.00000E+01
 -1       200 1.68529E+01-1.84657E+01 1.00000E+01
 -1       201 2.00265E+01-1.49646E+01 1.00000E+01
 -1       202 2.19090E+01-1.20414E+01 1.00000E+01
 -1       203 2.28934E+01-1.00445E+01 1.00000E+01
 -1       204 2.41244E+01 7.83033E+00 1.00000E+01
 -1       205 2.41244E+01-7.83033E+00 1.00000E+01
 -1       206 2.41244E+01-7.83033E+00 0.00000E+00
 -1       207 2.34169E+01-8.75498E+00 1.01000E+00
 -1       208 2.34169E+01-8.75498E+00 2.01000E+00
 -1       209 2.34169E+01-8.75498E+00 3.01000E+00
 -1       210 2.34169E+01-8.75498E+00 4.01000E+00
 -1       211 2.34169E+01-8.75498E+00 5.01000E+00
 -1       212 2.34169E+01-8.75498E+00 6.01000E+00
 -1       213 2.34169E+01-8.75498E+00 7.00000E+00
 -1       214 2.34169E+01-8.75498E+00 8.00000E+00
 -1       215 2.34169E+01-8.75498E+00 9.00000E+00
 -1       216 2.41244E+01 7.83033E+00 0.00000E+00
 -1       217 2.34169E+01 8.75498E+00 1.01000E+00
 -1       218 2.34169E+01 8.75498E+00 2.01000E+00
 -1       219 2.34169E+01 8.75498E+00 3.01000E+00
 -1       220 2.34169E+01 8.75498E+00 4.01000E+00
 -1       221 2.34169E+01 8.75498E+00 5.01000E+00
 -1       222 2.34169E+01 8.75498E+00 6.01000E+00
 -1       223 2.34169E+01 8.75498E+00 7.00000E+00
 -1       224 2.34169E+01 8.75498E+00 8.00000E+00
 -1       225 2.34169E+01 8.75498E+00 9.00000E+00
 -1       226 2.28371E+01 1.01718E+01 0.00000E+00
 -1       227 2.19090E+01 1.20414E+01 0.00000E+00
 -1       228 2.03548E+01 1.45149E+01 0.00000E+00
 -1       229 1.74602E+01 1.78925E+01 0.00000E+00
 -1       230 1.34312E+01 2.10856E+01 0.00000E+00
 -1       231 8.96423E+00 2.33376E+01 0.00000E+00
 -1       232 3.58831E+00 2.47411E+01 0.00000E+00
 -1       233-1.40936E+00 2.49602E+01 0.00000E+00
 -1       234-6.35060E+00 2.41799E+01 0.00000E+00
 -1       235-1.14107E+01 2.22440E+01 0.00000E+00
 -1       236-1.55020E+01 1.96135E+01 0.00000E+00
 -1       237-1.90064E+01 1.62406E+01 0.00000E+00
 -1       238-2.18593E+01 1.21313E+01 0.00000E+00
 -1       239-2.37947E+01 7.66899E+00 0.00000E+00
 -1       240-2.48452E+01 2.77806E+00 0.00000E+00
 -1       241-2.49009E+01-2.22410E+00 0.00000E+00
 -1       242-2.39596E+01-7.13721E+00 0.00000E+00
 -1       243-2.19931E+01-1.18872E+01 0.00000E+00
 -1       244-1.91861E+01-1.60279E+01 0.00000E+00
 -1       245-1.56109E+01-1.95269E+01 0.00000E+00
 -1       246-1.12867E+01-2.23072E+01 0.00000E+00
 -1       247-6.61945E+00-2.41077E+01 0.00000E+00
 -1       248-1.68721E+00-2.49430E+01 0.00000E+00
 -1       249 3.17458E+00-2.47976E+01 0.00000E+00
 -1       250 7.91620E+00-2.37136E+01 0.00000E+00
 -1       251 1.25994E+01-2.15929E+01 0.00000E+00
 -1       252 1.68529E+01-1.84657E+01 0.00000E+00
 -1       253 2.00265E+01-1.49646E+01 0.00000E+00
 -1       254 2.19090E+01-1.20414E+01 0.00000E+00
 -1       255 2.28934E+01-1.00445E+01 0.00000E+00
 -1       256 9.23738E+01 6.75476E+00 5.00293E+00
 -1       257 8.77400E+01 9.61730E+00 4.99714E+00
 -1       258 8.25362E+01 9.69172E+00 4.99955E+00
 -1       259 7.80180E+01 7.15899E+00 4.99993E+00
 -1       260 7.53556E+01 2.64300E+00 4.99999E+00
 -1       261 7.53722E+01-2.70286E+00 5.00001E+00
 -1       262 7.80818E+01-7.22068E+00 5.00008E+00
 -1       263 8.26222E+01-9.71320E+00 5.00049E+00
 -1       264 8.78308E+01-9.59096E+00 5.00317E+00
 -1       265 9.24334E+01-6.68915E+00 4.99924E+00
 -1       266 1.96917E+01 3.49798E+00 5.88781E+00
 -1       267 1.97553E+01-3.11914E+00 5.66056E+00
 -1       268 1.77991E+01 9.12090E+00 3.30641E+00
 -1       269 1.59555E+01 1.20591E+01 3.03705E+00
 -1       270 1.34284E+01 1.48216E+01 4.96897E+00
 -1       271 8.73709E+00 1.79906E+01 4.83608E+00
 -1       272 3.74868E+00 1.96455E+01 4.77465E+00
 -1       273-1.39124E+00 1.99516E+01 4.76373E+00
 -1       274-6.45239E+00 1.89306E+01 4.82119E+00
 -1       275-1.12417E+01 1.65416E+01 4.79312E+00
 -1       276-1.53298E+01 1.28451E+01 4.80203E+00
 -1       277-1.85020E+01 7.59448E+00 5.10818E+00
 -1       278-1.99440E+01 1.49590E+00 4.99336E+00
 -1       279-1.95736E+01-4.10796E+00 4.78025E+00
 -1       280-1.77438E+01-9.22813E+00 4.83381E+00
 -1       281-1.47571E+01-1.34992E+01 4.75737E+00
 -1       282-1.08373E+01-1.68093E+01 4.73608E+00
 -1       283-6.19496E+00-1.90164E+01 4.74710E+00
 -1       284-1.09843E+00-1.99698E+01 4.77615E+00
 -1       285 4.18074E+00-1.95582E+01 4.77031E+00
 -1       286 9.19277E+00-1.77621E+01 4.87314E+00
 -1       287 1.33590E+01-1.48841E+01 4.92667E+00
 -1       288 1.67538E+01-1.09229E+01 5.14954E+00
 -1       289 1.85762E+01 7.41109E+00 6.86075E+00
 -1       290 1.89418E+01 6.41929E+00 3.27377E+00
 -1       291 1.81342E+01-8.43510E+00 2.65749E+00
 -1       292 1.91009E+01-5.92934E+00 3.26307E+00
 -1       293 1.91475E+01-5.77690E+00 6.94055E+00
 -1       294 1.65578E+01 1.12178E+01 6.52443E+00
 -1       295 1.82132E+01-8.26309E+00 7.56072E+00
 -1       296 1.83359E+01-7.98712E+00 5.06514E+00
 -1       297 7.43860E+01 1.05992E+01 4.66938E+00
 -1       298 7.55368E+01-1.16382E+01 4.79666E+00
 -1       299 8.54243E+01-1.49940E+01 4.76474E+00
 -1       300 9.47940E+01-1.13612E+01 4.76436E+00
 -1       301 9.97713E+01-2.60933E+00 4.76748E+00
 -1       302 9.81146E+01 7.28064E+00 4.82695E+00
 -1       303 8.53568E+01 1.49958E+01 4.79193E+00
 -1       304 8.00243E+01 1.41507E+01 4.78162E+00
 -1       305 9.48781E+01 1.12882E+01 4.79381E+00
 -1       306 9.97918E+01 2.49077E+00 4.82303E+00
 -1       307 9.04205E+01-1.39864E+01 4.76477E+00
 -1       308 8.03141E+01-1.42493E+01 4.76920E+00
 -1       309 9.80426E+01-7.40889E+00 4.76694E+00
 -1       310 9.04591E+01 1.39713E+01 4.95594E+00
 -1       311 2.72651E+01-7.39189E+00 1.34764E+00
 -1       312 3.15972E+01-7.25481E+00 2.81122E+00
 -1       313 3.91320E+01-7.01638E+00 4.94104E+00
 -1       314 2.60958E+01-7.42889E+00 1.34901E+00
 -1       315 2.62743E+01-7.42324E+00 2.31762E+00
 -1       316 2.62519E+01-7.42395E+00 3.42551E+00
 -1       317 2.61967E+01-7.42570E+00 4.52423E+00
 -1       318 2.62258E+01-7.42477E+00 5.55135E+00
 -1       319 2.62268E+01-7.42474E+00 6.61262E+00
 -1       320 2.61181E+01-7.42818E+00 7.66278E+00
 -1       321 2.58939E+01-7.43528E+00 8.50092E+00
 -1       322 2.59349E+01-7.43398E+00 9.28259E+00
 -1       323 2.90086E+01-7.33672E+00 7.74062E+00
 -1       324 3.18435E+01-7.24701E+00 6.62006E+00
 -1       325 3.54927E+01-7.13154E+00 7.06472E+00
 -1       326 2.91566E+01-7.33204E+00 1.94006E+00
 -1       327 3.49280E+01-7.14941E+00 3.30371E+00
 -1       328 2.69778E+01-7.40098E+00 8.77286E+00
 -1       329 2.91485E+01-7.33229E+00 4.56701E+00
 -1       330 2.76743E+01-7.37894E+00 2.77728E+00
 -1       331 2.73116E+01-7.39042E+00 3.96047E+00
 -1       332 2.72890E+01-7.39113E+00 5.04232E+00
 -1       333 2.76966E+01-7.37824E+00 6.20232E+00
 -1       334 2.72455E+01-7.39251E+00 7.40709E+00
 -1       335 2.74006E+01 7.38760E+00 1.32711E+00
 -1       336 2.93273E+01 7.32663E+00 1.88181E+00
 -1       337 3.68794E+01 7.08766E+00 4.15957E+00
 -1       338 4.28242E+01 6.89955E+00 4.88370E+00
 -1       339 2.61022E+01 7.42868E+00 1.32946E+00
 -1       340 2.63170E+01 7.42189E+00 3.43895E+00
 -1       341 2.61808E+01 7.42620E+00 5.55322E+00
 -1       342 2.62247E+01 7.42481E+00 8.12294E+00
 -1       343 2.79851E+01 7.36911E+00 8.43280E+00
 -1       344 3.38224E+01 7.18440E+00 6.92355E+00
 -1       345 3.21149E+01 7.23843E+00 3.43197E+00
 -1       346 2.61440E+01 7.42736E+00 6.71674E+00
 -1       347 2.63206E+01 7.42177E+00 2.32706E+00
 -1       348 2.62675E+01 7.42346E+00 4.54986E+00
 -1       349 3.05656E+01 7.28745E+00 7.28402E+00
 -1       350 2.71647E+01 7.39506E+00 6.20976E+00
 -1       351 2.77713E+01 7.37587E+00 2.76067E+00
 -1       352 2.76163E+01 7.38078E+00 5.15783E+00
 -1       353 2.72422E+01 7.39261E+00 7.33534E+00
 -1       354 2.74717E+01 7.38535E+00 3.99379E+00
 -1       355 2.93507E+01 7.32589E+00 4.33412E+00
 -1       356 2.86521E+01 7.34800E+00 6.52544E+00
 -1       357 2.20768E+01 8.74028E+00 1.00000E+01
 -1       358 1.90793E+01 1.18700E+01 1.00000E+01
 -1       359 1.93315E+01-1.16137E+01 1.00000E+01
 -1       360 2.19651E+01-8.84248E+00 1.00000E+01
 -1       361 2.28899E+01 7.80995E+00 1.00000E+01
 -1       362 2.44717E+01 6.71844E+00 1.00000E+01
 -1       363 2.28941E+01-7.84405E+00 1.00000E+01
 -1       364 2.44350E+01-6.72264E+00 1.00000E+01
 -1       365 2.56285E+01 6.12028E+00 1.00000E+01
 -1       366 2.72727E+01 5.22584E+00 1.00000E+01
 -1       367 3.45037E+01 2.55741E+00 1.00000E+01
 -1       368 2.55794E+01-6.15538E+00 1.00000E+01
 -1       369 2.94328E+01-4.95345E+00 1.00000E+01
 -1       370 3.53982E+01-3.13154E+00 1.00000E+01
 -1       371 6.76948E+01-1.65086E-01 1.00000E+01
 -1       372 2.30550E+01 1.66386E+00 1.00000E+01
 -1       373 2.04911E+01 9.60086E+00 1.00000E+01
 -1       374 2.00544E+01-8.90665E+00 1.00000E+01
 -1       375 2.19332E+01-4.93126E+00 1.00000E+01
 -1       376 2.22733E+01-1.75918E+00 1.00000E+01
 -1       377 2.11988E+01-1.02533E+01 1.00000E+01
 -1       378 3.01059E+01 3.64555E+00 1.00000E+01
 -1       379 2.71903E+01-5.59510E+00 1.00000E+01
 -1       380 3.20745E+01-4.66306E+00 1.00000E+01
 -1       381 4.08529E+01-3.90369E-01 1.00000E+01
 -1       382 2.31945E+01 6.56337E+00 1.00000E+01
 -1       383 2.31365E+01-6.63390E+00 1.00000E+01
 -1       384 2.11868E+01 7.02151E+00 1.00000E+01
 -1       385 2.38432E+01-3.41444E+00 1.00000E+01
 -1       386 2.41770E+01 5.49651E+00 1.00000E+01
 -1       387 2.57454E+01-4.10289E+00 1.00000E+01
 -1       388 3.13747E+01-1.27121E+00 1.00000E+01
 -1       389 2.24998E+01 4.65029E+00 1.00000E+01
 -1       390 2.78483E+01-2.93539E+00 1.00000E+01
 -1       391 2.40649E+01-5.27596E+00 1.00000E+01
 -1       392 2.53529E+01-1.12725E+00 1.00000E+01
 -1       393 2.13885E+01-7.26759E+00 1.00000E+01
 -1       394 2.49761E+01 4.02216E+00 1.00000E+01
 -1       395 2.65745E+01 2.22414E+00 1.00000E+01
 -1       396 2.83337E+01 9.74906E-02 1.00000E+01
 -1       397 2.41233E+01-7.83114E+00 1.39941E+00
 -1       398 2.40877E+01-7.85728E+00 3.49998E+00
 -1       399 2.40823E+01-7.86133E+00 4.50688E+00
 -1       400 2.40814E+01-7.86207E+00 5.51001E+00
 -1       401 2.40813E+01-7.86211E+00 6.51384E+00
 -1       402 2.40820E+01-7.86159E+00 7.53213E+00
 -1       403 2.40863E+01-7.85836E+00 8.60776E+00
 -1       404 2.41175E+01-7.83530E+00 2.47795E+00
 -1       405 2.41235E+01 7.83095E+00 1.39942E+00
 -1       406 2.40961E+01 7.85100E+00 3.50042E+00
 -1       407 2.40953E+01 7.85162E+00 5.51043E+00
 -1       408 2.40930E+01 7.85327E+00 7.53267E+00
 -1       409 2.41192E+01 7.83404E+00 8.60946E+00
 -1       410 2.41273E+01 7.82826E+00 4.50741E+00
 -1       411 2.41191E+01 7.83415E+00 2.47806E+00
 -1       412 2.41132E+01 7.83840E+00 6.51428E+00
 -1       413 2.20439E+01 8.95721E+00 0.00000E+00
 -1       414 2.04422E+01 9.94745E+00 0.00000E+00
 -1       415 1.90664E+01-1.21211E+01 0.00000E+00
 -1       416 2.21618E+01-8.82166E+00 0.00000E+00
 -1       417 2.24726E+01 7.71733E+00 0.00000E+00
 -1       418 2.43904E+01 6.53987E+00 0.00000E+00
 -1       419 2.28372E+01-7.88971E+00 0.00000E+00
 -1       420 2.43496E+01-6.55719E+00 0.00000E+00
 -1       421 2.55730E+01 6.10624E+00 0.00000E+00
 -1       422 2.92969E+01 4.89926E+00 0.00000E+00
 -1       423 3.68658E+01 3.06083E+00 0.00000E+00
 -1       424 5.03658E+01-2.02737E-01 0.00000E+00
 -1       425 2.56341E+01-6.45911E+00 0.00000E+00
 -1       426 2.68808E+01-6.38233E+00 0.00000E+00
 -1       427 3.19544E+01-4.16622E+00 0.00000E+00
 -1       428 3.54537E+01-2.17435E+00 0.00000E+00
 -1       429 4.16909E+01-1.59723E-01 0.00000E+00
 -1       430 6.11877E+01 2.03181E-02 0.00000E+00
 -1       431 6.84114E+01-1.02197E-01 0.00000E+00
 -1       432 2.42157E+01 1.77650E+00 0.00000E+00
 -1       433 2.10166E+01 6.23066E+00 0.00000E+00
 -1       434 2.05830E+01-9.68520E+00 0.00000E+00
 -1       435 2.28859E+01-2.29643E+00 0.00000E+00
 -1       436 1.89772E+01 1.22459E+01 0.00000E+00
 -1       437 2.71783E+01 5.60544E+00 0.00000E+00
 -1       438 3.27486E+01 3.27802E+00 0.00000E+00
 -1       439 2.91879E+01-3.30429E+00 0.00000E+00
 -1       440 2.15009E+01-5.32014E+00 0.00000E+00
 -1       441 2.30409E+01 6.26073E+00 0.00000E+00
 -1       442 2.29589E+01-6.58237E+00 0.00000E+00
 -1       443 2.13238E+01-7.54621E+00 0.00000E+00
 -1       444 2.69478E+01-4.88396E-01 0.00000E+00
 -1       445 2.57726E+01 4.24954E+00 0.00000E+00
 -1       446 2.95739E+01 1.82321E+00 0.00000E+00
 -1       447 3.12641E+01-8.77286E-01 0.00000E+00
 -1       448 2.08614E+01 8.10601E+00 0.00000E+00
 -1       449 2.49956E+01-5.30862E+00 0.00000E+00
 -1       450 2.41132E+01 4.90796E+00 0.00000E+00
 -1       451 2.63173E+01-5.31109E+00 0.00000E+00
 -1       452 2.34983E+01-4.79784E+00 0.00000E+00
 -1       453 2.72481E+01 2.88049E+00 0.00000E+00
 -1       454 2.59480E+01-3.46826E+00 0.00000E+00
 -1       455 2.20979E+01 3.94257E+00 0.00000E+00
 -1       456 2.80040E+01-5.30944E+00 0.00000E+00
 -1       457 2.24075E+01 1.10862E+01 1.65057E+00
 -1       458 1.93058E+01 1.58835E+01 5.01769E+00
 -1       459 1.12603E+01 2.23205E+01 4.87820E+00
 -1       460 1.09921E+00 2.49758E+01 4.76785E+00
 -1       461-8.93839E+00 2.33475E+01 4.75489E+00
 -1       462-1.73664E+01 1.79835E+01 4.75258E+00
 -1       463-2.29558E+01 9.90105E+00 4.77146E+00
 -1       464-2.49992E+01 2.02383E-01 4.76690E+00
 -1       465-2.30854E+01-9.59494E+00 4.96215E+00
 -1       466-1.74547E+01-1.78979E+01 4.75816E+00
 -1       467-8.98064E+00-2.33313E+01 4.76641E+00
 -1       468 7.69000E-01-2.49882E+01 4.76277E+00
 -1       469 1.05089E+01-2.26840E+01 4.76701E+00
 -1       470 1.88503E+01-1.64216E+01 4.86800E+00
 -1       471 2.22939E+01-1.13130E+01 1.67528E+00
 -1       472 2.29330E+01 9.95371E+00 2.44194E+00
 -1       473 2.30195E+01 9.75216E+00 3.46456E+00
 -1       474 2.29015E+01 1.00260E+01 4.46458E+00
 -1       475 2.29091E+01 1.00086E+01 5.55294E+00
 -1       476 2.30505E+01 9.67867E+00 6.52325E+00
 -1       477 2.29641E+01 9.88182E+00 7.49628E+00
 -1       478 2.30339E+01 9.71799E+00 8.63168E+00
 -1       479 2.29611E+01-9.88886E+00 1.38149E+00
 -1       480 2.29386E+01-9.94079E+00 3.62504E+00
 -1       481 2.30221E+01-9.74600E+00 5.56827E+00
 -1       482 2.28714E+01-1.00944E+01 8.19688E+00
 -1       483 2.14224E+01 1.28872E+01 7.08527E+00
 -1       484 2.13512E+01 1.30049E+01 3.13310E+00
 -1       485 1.56697E+01 1.94797E+01 4.90042E+00
 -1       486 6.28886E+00 2.41961E+01 4.86202E+00
 -1       487-3.98662E+00 2.46801E+01 4.76541E+00
 -1       488-1.34683E+01 2.10619E+01 4.77238E+00
 -1       489-2.05605E+01 1.42220E+01 4.75343E+00
 -1       490-2.44602E+01 5.16695E+00 4.76289E+00
 -1       491-2.45425E+01-4.76067E+00 4.77665E+00
 -1       492-2.06868E+01-1.40377E+01 4.76137E+00
 -1       493-1.34931E+01-2.10461E+01 4.77788E+00
 -1       494-4.16908E+00-2.46499E+01 4.75110E+00
 -1       495 5.69729E+00-2.43422E+01 4.75696E+00
 -1       496 1.50811E+01-1.99389E+01 4.85049E+00
 -1       497 2.09632E+01-1.36215E+01 2.83829E+00
 -1       498 2.29863E+01 9.82995E+00 1.35148E+00
 -1       499 2.30976E+01-9.56560E+00 4.56535E+00
 -1       500 2.28386E+01-1.01685E+01 2.51324E+00
 -1       501 2.29321E+01-9.95591E+00 6.71946E+00
 -1       502 2.09350E+01-1.36647E+01 6.44452E+00
 -1       503 2.24406E+01 1.10191E+01 3.34488E+00
 -1       504 2.25334E+01-1.08280E+01 5.74775E+00
 -1       505 2.22067E+01 1.14832E+01 5.04903E+00
 -1       506 2.24713E+01 1.09564E+01 6.72777E+00
 -1       507 2.26950E+01-1.04850E+01 4.70616E+00
 -1       508 2.20158E+01-1.18449E+01 4.13274E+00
 -1       509 2.20832E+01-1.17188E+01 7.05876E+00
 -1       510 2.24235E+01 1.10539E+01 8.38859E+00
 -1       511 2.75652E+01-4.17966E+00 7.55624E+00
 -1       512 2.39834E+01-3.89862E+00 6.51601E+00
 -1       513 2.47753E+01-3.11516E+00 4.53508E+00
 -1       514 2.37351E+01-5.95571E-01 6.77265E+00
 -1       515 3.03957E+01-5.42083E+00 6.98437E+00
 -1       516 2.69312E+01 1.08264E+00 6.73079E+00
 -1       517 2.89883E+01-5.43774E+00 2.18326E+00
 -1       518 2.32822E+01 2.89961E+00 7.72409E+00
 -1       519 2.49350E+01 1.91661E+00 3.36897E+00
 -1       520 3.33655E+01-4.12198E+00 6.92278E+00
 -1       521 2.93702E+01-2.80893E+00 6.86380E+00
 -1       522 2.65539E+01-5.28220E+00 8.37089E+00
 -1       523 2.48510E+01-5.13014E+00 7.98538E+00
 -1       524 2.09047E+01-9.74622E+00 7.08529E+00
 -1       525 2.17560E+01-7.73495E+00 8.24797E+00
 -1       526 2.10235E+01-7.45195E+00 6.41423E+00
 -1       527 2.14493E+01-6.95069E+00 4.72636E+00
 -1       528 2.30769E+01-5.59439E+00 8.05993E+00
 -1       529 2.30061E+01-9.69678E-02 3.35464E+00
 -1       530 2.72360E+01-9.32439E-01 3.65793E+00
 -1       531 2.30576E+01-3.11525E+00 8.00478E+00
 -1       532 2.30525E+01-5.72311E+00 6.14582E+00
 -1       533 2.33728E+01-5.60808E+00 4.59461E+00
 -1       534 2.49469E+01-5.33222E+00 5.84858E+00
 -1       535 2.52972E+01-6.37155E+00 4.72898E+00
 -1       536 2.60139E+01-2.63551E+00 8.18759E+00
 -1       537 3.39362E+01 5.16406E-01 4.96685E+00
 -1       538 3.18420E+01-4.24677E+00 3.67667E+00
 -1       539 3.03771E+01 2.37554E+00 5.23108E+00
 -1       540 2.96500E+01-2.58516E+00 3.45884E+00
 -1       541 2.83625E+01-5.66028E+00 8.32157E+00
 -1       542 2.66528E+01-5.91669E+00 6.47005E+00
 -1       543 2.74941E+01 2.69143E+00 2.84160E+00
 -1       544 2.48256E+01 5.97973E+00 8.11456E+00
 -1       545 2.20181E+01 5.00683E+00 6.97851E+00
 -1       546 2.19859E+01 6.45684E+00 8.35052E+00
 -1       547 2.27988E+01 7.11341E+00 6.48049E+00
 -1       548 2.20442E+01 8.52063E+00 7.95907E+00
 -1       549 2.16272E+01 8.54098E+00 5.64015E+00
 -1       550 2.81706E+01 5.35723E+00 7.66469E+00
 -1       551 2.67100E+01-5.97746E+00 1.47908E+00
 -1       552 2.47217E+01-5.35448E+00 1.58166E+00
 -1       553 2.42504E+01-6.66237E+00 3.60984E+00
 -1       554 2.18682E+01-7.59811E+00 1.32081E+00
 -1       555 2.16444E+01-8.60624E+00 2.75393E+00
 -1       556 2.31651E+01-6.49901E+00 1.04655E+00
 -1       557 2.25212E+01-5.96902E+00 2.92507E+00
 -1       558 2.15889E+01-5.11742E+00 1.57815E+00
 -1       559 2.23957E+01-3.35837E+00 2.83688E+00
 -1       560 2.71395E+01-3.78829E+00 1.70161E+00
 -1       561 2.49607E+01-5.11600E+00 3.59919E+00
 -1       562 2.67230E+01-5.75447E+00 2.97915E+00
 -1       563 2.65728E+01 5.50824E+00 1.30919E+00
 -1       564 2.17640E+01 8.85661E+00 2.10455E+00
 -1       565 2.49937E+01 6.25114E+00 1.50276E+00
 -1       566 2.48501E+01 4.15982E+00 1.86650E+00
 -1       567 2.46503E+01 6.25726E+00 2.90156E+00
 -1       568 2.29669E+01 6.66455E+00 1.53484E+00
 -1       569 2.27245E+01 7.35164E+00 3.72648E+00
 -1       570 2.22191E+01 4.02602E+00 2.79164E+00
 -1       571 2.66684E+01 5.87667E+00 3.05455E+00
 -1       572 2.07965E+01-1.02024E+01 4.44340E+00
 -1       573 2.51323E+01-3.39232E+00 2.31794E+00
 -1       574 2.51573E+01-6.99893E-01 1.80885E+00
 -1       575 2.23061E+01-8.88895E+00 4.34510E+00
 -1       576 2.13092E+01-4.97945E+00 4.78341E+00
 -1       577 2.16166E+01-5.24998E+00 6.94170E+00
 -1       578 2.31097E+01-7.60095E+00 4.87269E+00
 -1       579 2.65054E+01-5.78464E+00 4.83341E+00
 -1       580 2.25165E+01-3.24605E+00 5.25851E+00
 -1       581 2.22094E+01-8.53425E+00 5.97974E+00
 -1       582 2.30547E+01-7.18877E+00 5.87198E+00
 -1       583 2.81662E+01-5.62000E+00 6.18467E+00
 -1       584 2.44404E+01-6.70358E+00 7.62810E+00
 -1       585 2.36842E+01-7.00829E+00 8.58457E+00
 -1       586 2.30355E+01-7.29823E+00 7.15126E+00
 -1       587 2.30149E+01-7.56406E+00 3.44422E+00
 -1       588 2.38609E+01-6.87354E+00 2.08139E+00
 -1       589 3.69820E+01-3.21374E+00 4.82028E+00
 -1       590 2.85625E+01-5.43866E+00 4.29893E+00
 -1       591 2.71768E+01-3.85939E+00 4.02956E+00
 -1       592 2.63483E+01-3.59752E+00 6.15387E+00
 -1       593 2.42947E+01-6.77689E+00 5.20260E+00
 -1       594 2.42716E+01-6.65635E+00 6.52354E+00
 -1       595 2.47194E+01-6.61082E+00 9.26145E+00
 -1       596 2.55285E+01-6.48781E+00 2.24138E+00
 -1       597 2.57927E+01-6.47416E+00 3.75992E+00
 -1       598 2.56751E+01-6.47009E+00 7.22220E+00
 -1       599 2.54860E+01-6.57508E+00 5.96203E+00
 -1       600 2.57201E+01-6.54714E+00 8.42524E+00
 -1       601 2.12715E+01 5.77661E+00 4.96014E+00
 -1       602 2.48961E+01 4.51380E+00 3.96617E+00
 -1       603 2.60632E+01 6.28318E+00 4.79613E+00
 -1       604 2.39080E+01 6.30829E+00 4.59045E+00
 -1       605 2.18284E+01 9.18759E+00 3.99071E+00
 -1       606 2.67110E+01 6.18168E+00 6.30025E+00
 -1       607 2.62964E+01 4.07413E+00 5.68568E+00
 -1       608 2.46319E+01 6.18724E+00 6.24072E+00
 -1       609 2.32553E+01 3.20952E+00 5.19754E+00
 -1       610 2.86494E+01 5.53393E+00 4.48697E+00
 -1       611 2.63141E+01 3.78410E+00 8.27702E+00
 -1       612 2.07266E+01 1.07624E+01 2.25555E+00
 -1       613 9.50000E+01 0.00000E+00 2.50500E+00
 -1       614 9.50000E+01 0.00000E+00 7.50500E+00
 -1       615 9.46538E+01 2.60842E+00 0.00000E+00
 -1       616 9.20711E+01 7.07107E+00 0.00000E+00
 -1       617 8.76387E+01 9.64557E+00 0.00000E+00
 -1       618 8.25131E+01 9.68583E+00 0.00000E+00
 -1       619 7.80409E+01 7.18126E+00 0.00000E+00
 -1       620 7.53712E+01 2.69928E+00 0.00000E+00
 -1       621 7.53712E+01-2.69928E+00 0.00000E+00
 -1       622 7.81089E+01-7.24653E+00 0.00000E+00
 -1       623 8.26045E+01-9.70884E+00 0.00000E+00
 -1       624 8.77295E+01-9.62028E+00 0.00000E+00
 -1       625 9.21374E+01-7.00411E+00 0.00000E+00
 -1       626 9.46700E+01-2.54771E+00 0.00000E+00
 -1       627 9.46620E+01 2.57807E+00 1.00000E+01
 -1       628 9.20932E+01 7.04882E+00 1.00000E+01
 -1       629 8.76690E+01 9.63724E+00 1.00000E+01
 -1       630 8.25435E+01 9.69360E+00 1.00000E+01
 -1       631 7.80409E+01 7.18126E+00 1.00000E+01
 -1       632 7.53712E+01 2.69928E+00 1.00000E+01
 -1       633 7.53712E+01-2.69928E+00 1.00000E+01
 -1       634 7.81089E+01-7.24653E+00 1.00000E+01
 -1       635 8.26045E+01-9.70884E+00 1.00000E+01
 -1       636 8.77597E+01-9.61165E+00 1.00000E+01
 -1       637 9.21594E+01-6.98165E+00 1.00000E+01
 -1       638 9.46700E+01-2.54771E+00 1.00000E+01
 -1       639 2.00000E+01 0.00000E+00 2.33500E+00
 -1       640 2.00000E+01 0.00000E+00 7.33500E+00
 -1       641 1.98860E+01 2.13222E+00 0.00000E+00
 -1       642 1.91159E+01 5.88081E+00 0.00000E+00
 -1       643 1.78768E+01 8.96766E+00 0.00000E+00
 -1       644 1.58415E+01 1.22084E+01 0.00000E+00
 -1       645 1.24558E+01 1.56478E+01 0.00000E+00
 -1       646 7.94296E+00 1.83551E+01 0.00000E+00
 -1       647 2.94238E+00 1.97824E+01 0.00000E+00
 -1       648-2.13222E+00 1.98860E+01 0.00000E+00
 -1       649-7.24551E+00 1.86414E+01 0.00000E+00
 -1       650-1.20084E+01 1.59937E+01 0.00000E+00
 -1       651-1.58415E+01 1.22084E+01 0.00000E+00
 -1       652-1.84776E+01 7.65367E+00 0.00000E+00
 -1       653-1.98423E+01 2.50666E+00 0.00000E+00
 -1       654-1.97635E+01-3.06662E+00 0.00000E+00
 -1       655-1.81497E+01-8.40171E+00 0.00000E+00
 -1       656-1.52894E+01-1.28931E+01 0.00000E+00
 -1       657-1.15001E+01-1.63630E+01 0.00000E+00
 -1       658-6.89286E+00-1.87747E+01 0.00000E+00
 -1       659-1.75702E+00-1.99227E+01 0.00000E+00
 -1       660 3.62412E+00-1.96689E+01 0.00000E+00
 -1       661 8.74232E+00-1.79881E+01 0.00000E+00
 -1       662 1.29411E+01-1.52489E+01 0.00000E+00
 -1       663 1.61433E+01-1.18065E+01 0.00000E+00
 -1       664 1.80965E+01-8.51559E+00 0.00000E+00
 -1       665 1.92233E+01-5.51946E+00 0.00000E+00
 -1       666 1.99052E+01-1.94471E+00 0.00000E+00
 -1       667 1.98926E+01 2.06974E+00 1.00000E+01
 -1       668 1.91524E+01 5.76058E+00 1.00000E+01
 -1       669 1.80427E+01 8.62912E+00 1.00000E+01
 -1       670 1.63268E+01 1.15515E+01 1.00000E+01
 -1       671 1.33202E+01 1.49188E+01 1.00000E+01
 -1       672 9.13575E+00 1.77915E+01 1.00000E+01
 -1       673 4.42416E+00 1.95045E+01 1.00000E+01
 -1       674-4.39788E-01 1.99952E+01 1.00000E+01
 -1       675-5.33804E+00 1.92745E+01 1.00000E+01
 -1       676-1.01267E+01 1.72467E+01 1.00000E+01
 -1       677-1.42748E+01 1.40082E+01 1.00000E+01
 -1       678-1.73726E+01 9.90917E+00 1.00000E+01
 -1       679-1.93239E+01 5.15615E+00 1.00000E+01
 -1       680-1.99991E+01-1.88493E-01 1.00000E+01
 -1       681-1.92059E+01-5.57982E+00 1.00000E+01
 -1       682-1.71181E+01-1.03426E+01 1.00000E+01
 -1       683-1.39633E+01-1.43187E+01 1.00000E+01
 -1       684-1.00181E+01-1.73100E+01 1.00000E+01
 -1       685-5.45904E+00-1.92406E+01 1.00000E+01
 -1       686-3.76969E-01-1.99964E+01 1.00000E+01
 -1       687 4.85198E+00-1.94025E+01 1.00000E+01
 -1       688 9.57997E+00-1.75563E+01 1.00000E+01
 -1       689 1.34603E+01-1.47926E+01 1.00000E+01
 -1       690 1.64349E+01-1.13971E+01 1.00000E+01
 -1       691 1.82538E+01-8.17298E+00 1.00000E+01
 -1       692 1.93239E+01-5.15615E+00 1.00000E+01
 -1       693 1.99227E+01-1.75702E+00 1.00000E+01
 -1       694 7.12523E+01-6.00000E+00 2.45000E+00
 -1       695 7.12523E+01-6.00000E+00 7.45000E+00
 -1       696 7.12523E+01 6.00000E+00 5.00000E+00
 -1       697 7.24820E+01-8.26437E+00 0.00000E+00
 -1       698 7.59697E+01-1.19772E+01 0.00000E+00
 -1       699 8.04599E+01-1.42964E+01 0.00000E+00
 -1       700 8.54654E+01-1.49928E+01 0.00000E+00
 -1       701 9.04181E+01-1.39873E+01 0.00000E+00
 -1       702 9.47869E+01-1.13674E+01 0.00000E+00
 -1       703 9.80471E+01-7.40087E+00 0.00000E+00
 -1       704 9.97716E+01-2.60756E+00 0.00000E+00
 -1       705 9.97992E+01 2.44609E+00 0.00000E+00
 -1       706 9.81073E+01 7.29376E+00 0.00000E+00
 -1       707 9.48796E+01 1.12868E+01 0.00000E+00
 -1       708 9.04944E+01 1.39575E+01 0.00000E+00
 -1       709 8.54654E+01 1.49928E+01 0.00000E+00
 -1       710 8.04599E+01 1.42964E+01 0.00000E+00
 -1       711 7.59371E+01 1.19525E+01 0.00000E+00
 -1       712 7.24595E+01 8.23016E+00 0.00000E+00
 -1       713 7.24820E+01-8.26437E+00 1.00000E+01
 -1       714 7.59697E+01-1.19772E+01 1.00000E+01
 -1       715 8.04599E+01-1.42964E+01 1.00000E+01
 -1       716 8.54654E+01-1.49928E+01 1.00000E+01
 -1       717 9.04181E+01-1.39873E+01 1.00000E+01
 -1       718 9.47869E+01-1.13674E+01 1.00000E+01
 -1       719 9.80471E+01-7.40087E+00 1.00000E+01
 -1       720 9.97716E+01-2.60756E+00 1.00000E+01
 -1       721 9.97992E+01 2.44609E+00 1.00000E+01
 -1       722 9.81073E+01 7.29376E+00 1.00000E+01
 -1       723 9.48796E+01 1.12868E+01 1.00000E+01
 -1       724 9.04944E+01 1.39575E+01 1.00000E+01
 -1       725 8.54654E+01 1.49928E+01 1.00000E+01
 -1       726 8.04599E+01 1.42964E+01 1.00000E+01
 -1       727 7.59371E+01 1.19525E+01 1.00000E+01
 -1       728 7.24595E+01 8.23016E+00 1.00000E+01
 -1       729 2.57793E+01-7.43890E+00 0.00000E+00
 -1       730 2.71600E+01-7.39521E+00 0.00000E+00
 -1       731 2.91852E+01-7.33113E+00 0.00000E+00
 -1       732 3.19927E+01-7.24229E+00 0.00000E+00
 -1       733 3.55827E+01-7.12869E+00 0.00000E+00
 -1       734 4.02312E+01-6.98160E+00 0.00000E+00
 -1       735 4.66978E+01-6.77698E+00 0.00000E+00
 -1       736 5.50744E+01-6.51192E+00 0.00000E+00
 -1       737 6.28987E+01-6.26433E+00 0.00000E+00
 -1       738 6.86979E+01-6.08083E+00 0.00000E+00
 -1       739 2.52270E+01-7.45638E+00 5.05000E-01
 -1       740 2.52270E+01-7.45638E+00 1.51000E+00
 -1       741 2.52270E+01-7.45638E+00 2.51000E+00
 -1       742 2.52270E+01-7.45638E+00 3.51000E+00
 -1       743 2.52270E+01-7.45638E+00 4.51000E+00
 -1       744 2.52270E+01-7.45638E+00 5.51000E+00
 -1       745 2.52270E+01-7.45638E+00 6.50500E+00
 -1       746 2.52270E+01-7.45638E+00 7.50000E+00
 -1       747 2.52270E+01-7.45638E+00 8.50000E+00
 -1       748 2.52270E+01-7.45638E+00 9.50000E+00
 -1       749 2.57793E+01-7.43890E+00 1.00000E+01
 -1       750 2.71600E+01-7.39521E+00 1.00000E+01
 -1       751 2.91852E+01-7.33113E+00 1.00000E+01
 -1       752 3.19927E+01-7.24229E+00 1.00000E+01
 -1       753 3.55827E+01-7.12869E+00 1.00000E+01
 -1       754 4.02312E+01-6.98160E+00 1.00000E+01
 -1       755 4.66978E+01-6.77698E+00 1.00000E+01
 -1       756 5.50744E+01-6.51192E+00 1.00000E+01
 -1       757 6.28987E+01-6.26433E+00 1.00000E+01
 -1       758 6.86979E+01-6.08083E+00 1.00000E+01
 -1       759 2.58023E+01 7.43818E+00 0.00000E+00
 -1       760 2.72521E+01 7.39230E+00 0.00000E+00
 -1       761 2.93232E+01 7.32676E+00 0.00000E+00
 -1       762 3.24990E+01 7.22627E+00 0.00000E+00
 -1       763 3.71245E+01 7.07991E+00 0.00000E+00
 -1       764 4.30388E+01 6.89276E+00 0.00000E+00
 -1       765 5.08631E+01 6.64518E+00 0.00000E+00
 -1       766 6.01832E+01 6.35026E+00 0.00000E+00
 -1       767 6.80995E+01 6.09976E+00 0.00000E+00
 -1       768 2.52270E+01 7.45638E+00 5.05000E-01
 -1       769 2.52270E+01 7.45638E+00 1.51000E+00
 -1       770 2.52270E+01 7.45638E+00 2.51000E+00
 -1       771 2.52270E+01 7.45638E+00 3.51000E+00
 -1       772 2.52270E+01 7.45638E+00 4.51000E+00
 -1       773 2.52270E+01 7.45638E+00 5.51000E+00
 -1       774 2.52270E+01 7.45638E+00 6.50500E+00
 -1       775 2.52270E+01 7.45638E+00 7.50000E+00
 -1       776 2.52270E+01 7.45638E+00 8.50000E+00
 -1       777 2.52270E+01 7.45638E+00 9.50000E+00
 -1       778 2.58713E+01 7.43599E+00 1.00000E+01
 -1       779 2.75513E+01 7.38283E+00 1.00000E+01
 -1       780 3.03588E+01 7.29399E+00 1.00000E+01
 -1       781 3.47542E+01 7.15491E+00 1.00000E+01
 -1       782 4.07375E+01 6.96558E+00 1.00000E+01
 -1       783 4.86078E+01 6.71654E+00 1.00000E+01
 -1       784 5.85723E+01 6.40123E+00 1.00000E+01
 -1       785 6.76393E+01 6.11433E+00 1.00000E+01
 -1       786 2.31379E+01 9.46783E+00 1.00000E+01
 -1       787 2.23926E+01 1.11163E+01 1.00000E+01
 -1       788 2.11310E+01 1.33597E+01 1.00000E+01
 -1       789 1.89374E+01 1.63210E+01 1.00000E+01
 -1       790 1.54734E+01 1.96361E+01 1.00000E+01
 -1       791 1.11297E+01 2.23859E+01 1.00000E+01
 -1       792 6.18061E+00 2.42240E+01 1.00000E+01
 -1       793 9.55897E-01 2.49817E+01 1.00000E+01
 -1       794-4.03697E+00 2.46719E+01 1.00000E+01
 -1       795-8.99820E+00 2.33245E+01 1.00000E+01
 -1       796-1.35789E+01 2.09908E+01 1.00000E+01
 -1       797-1.74364E+01 1.79157E+01 1.00000E+01
 -1       798-2.05755E+01 1.42003E+01 1.00000E+01
 -1       799-2.29634E+01 9.88346E+00 1.00000E+01
 -1       800-2.44714E+01 5.11370E+00 1.00000E+01
 -1       801-2.49996E+01 1.39190E-01 1.00000E+01
 -1       802-2.45402E+01-4.77260E+00 1.00000E+01
 -1       803-2.30720E+01-9.62715E+00 1.00000E+01
 -1       804-2.06543E+01-1.40855E+01 1.00000E+01
 -1       805-1.74862E+01-1.78670E+01 1.00000E+01
 -1       806-1.34619E+01-2.10661E+01 1.00000E+01
 -1       807-8.86820E+00-2.33742E+01 1.00000E+01
 -1       808-4.10564E+00-2.46606E+01 1.00000E+01
 -1       809 8.16794E-01-2.49867E+01 1.00000E+01
 -1       810 5.70742E+00-2.43398E+01 1.00000E+01
 -1       811 1.04391E+01-2.27162E+01 1.00000E+01
 -1       812 1.48649E+01-2.01006E+01 1.00000E+01
 -1       813 1.85226E+01-1.67903E+01 1.00000E+01
 -1       814 2.10186E+01-1.35358E+01 1.00000E+01
 -1       815 2.24235E+01-1.10539E+01 1.00000E+01
 -1       816 2.31641E+01-9.40339E+00 1.00000E+01
 -1       817 2.37019E+01 8.24003E+00 1.00000E+01
 -1       818 2.46479E+01 7.56134E+00 1.00000E+01
 -1       819 2.37019E+01-8.24003E+00 1.00000E+01
 -1       820 2.46479E+01-7.56134E+00 1.00000E+01
 -1       821 2.37019E+01-8.24003E+00 0.00000E+00
 -1       822 2.46479E+01-7.56134E+00 0.00000E+00
 -1       823 2.34169E+01-8.75498E+00 5.05000E-01
 -1       824 2.34169E+01-8.75498E+00 1.51000E+00
 -1       825 2.34169E+01-8.75498E+00 2.51000E+00
 -1       826 2.34169E+01-8.75498E+00 3.51000E+00
 -1       827 2.34169E+01-8.75498E+00 4.51000E+00
 -1       828 2.34169E+01-8.75498E+00 5.51000E+00
 -1       829 2.34169E+01-8.75498E+00 6.50500E+00
 -1       830 2.34169E+01-8.75498E+00 7.50000E+00
 -1       831 2.34169E+01-8.75498E+00 8.50000E+00
 -1       832 2.34169E+01-8.75498E+00 9.50000E+00
 -1       833 2.37019E+01 8.24003E+00 0.00000E+00
 -1       834 2.46479E+01 7.56134E+00 0.00000E+00
 -1       835 2.34169E+01 8.75498E+00 5.05000E-01
 -1       836 2.34169E+01 8.75498E+00 1.51000E+00
 -1       837 2.34169E+01 8.75498E+00 2.51000E+00
 -1       838 2.34169E+01 8.75498E+00 3.51000E+00
 -1       839 2.34169E+01 8.75498E+00 4.51000E+00
 -1       840 2.34169E+01 8.75498E+00 5.51000E+00
 -1       841 2.34169E+01 8.75498E+00 6.50500E+00
 -1       842 2.34169E+01 8.75498E+00 7.50000E+00
 -1       843 2.34169E+01 8.75498E+00 8.50000E+00
 -1       844 2.34169E+01 8.75498E+00 9.50000E+00
 -1       845 2.31379E+01 9.46783E+00 0.00000E+00
 -1       846 2.23926E+01 1.11163E+01 0.00000E+00
 -1       847 2.11681E+01 1.33009E+01 0.00000E+00
 -1       848 1.89828E+01 1.62682E+01 0.00000E+00
 -1       849 1.55280E+01 1.95929E+01 0.00000E+00
 -1       850 1.12542E+01 2.23236E+01 0.00000E+00
 -1       851 6.31538E+00 2.41892E+01 0.00000E+00
 -1       852 1.09497E+00 2.49760E+01 0.00000E+00
 -1       853-3.89955E+00 2.46940E+01 0.00000E+00
 -1       854-8.93324E+00 2.33495E+01 0.00000E+00
 -1       855-1.35204E+01 2.10285E+01 0.00000E+00
 -1       856-1.73364E+01 1.80125E+01 0.00000E+00
 -1       857-2.05359E+01 1.42575E+01 0.00000E+00
 -1       858-2.29358E+01 9.94734E+00 0.00000E+00
 -1       859-2.44426E+01 5.24987E+00 0.00000E+00
 -1       860-2.49985E+01 2.78375E-01 0.00000E+00
 -1       861-2.45534E+01-4.70426E+00 0.00000E+00
 -1       862-2.30987E+01-9.56288E+00 0.00000E+00
 -1       863-2.06934E+01-1.40279E+01 0.00000E+00
 -1       864-1.74862E+01-1.78670E+01 0.00000E+00
 -1       865-1.35204E+01-2.10285E+01 0.00000E+00
 -1       866-8.99820E+00-2.33245E+01 0.00000E+00
 -1       867-4.17427E+00-2.46490E+01 0.00000E+00
 -1       868 7.47233E-01-2.49888E+01 0.00000E+00
 -1       869 5.57182E+00-2.43712E+01 0.00000E+00
 -1       870 1.03125E+01-2.27740E+01 0.00000E+00
 -1       871 1.48089E+01-2.01419E+01 0.00000E+00
 -1       872 1.85226E+01-1.67903E+01 0.00000E+00
 -1       873 2.10186E+01-1.35358E+01 0.00000E+00
 -1       874 2.24235E+01-1.10539E+01 0.00000E+00
 -1       875 2.31641E+01-9.40339E+00 0.00000E+00
 -1       876 9.46538E+01 2.60842E+00 2.50500E+00
 -1       877 9.46620E+01 2.57807E+00 7.50500E+00
 -1       878 9.46700E+01-2.54771E+00 2.50500E+00
 -1       879 9.46700E+01-2.54771E+00 7.50500E+00
 -1       880 9.30711E+01 5.90402E+00 7.50147E+00
 -1       881 9.43204E+01 3.62366E+00 5.00647E+00
 -1       882 9.30525E+01 5.92935E+00 2.50147E+00
 -1       883 9.12762E+01 7.78523E+00 7.50147E+00
 -1       884 9.12762E+01 7.78523E+00 2.50147E+00
 -1       885 8.89188E+01 9.20018E+00 2.49857E+00
 -1       886 8.64144E+01 9.89947E+00 2.49857E+00
 -1       887 9.02556E+01 8.50759E+00 5.00004E+00
 -1       888 8.37897E+01 9.92648E+00 2.49978E+00
 -1       889 8.13006E+01 9.29056E+00 2.49978E+00
 -1       890 8.51430E+01 9.99898E+00 4.99834E+00
 -1       891 7.90207E+01 8.01551E+00 2.49997E+00
 -1       892 7.71564E+01 6.20305E+00 2.49997E+00
 -1       893 8.01102E+01 8.72297E+00 4.99974E+00
 -1       894 7.58047E+01 3.93022E+00 2.50000E+00
 -1       895 7.50935E+01 1.36454E+00 2.50000E+00
 -1       896 7.63856E+01 5.07856E+00 4.99996E+00
 -1       897 7.50893E+01-1.33306E+00 2.50001E+00
 -1       898 7.58420E+01-4.01639E+00 2.50001E+00
 -1       899 7.50000E+01-3.10599E-02 5.00000E+00
 -1       900 7.72234E+01-6.28679E+00 2.50004E+00
 -1       901 7.90817E+01-8.06060E+00 2.50004E+00
 -1       902 7.64241E+01-5.14341E+00 5.00004E+00
 -1       903 8.13711E+01-9.31833E+00 2.50024E+00
 -1       904 8.38961E+01-9.93889E+00 2.50024E+00
 -1       905 8.01878E+01-8.76601E+00 5.00028E+00
 -1       906 8.65233E+01-9.88330E+00 2.50158E+00
 -1       907 8.89910E+01-9.16907E+00 2.50158E+00
 -1       908 8.52346E+01-9.99725E+00 5.00183E+00
 -1       909 9.43363E+01-3.58233E+00 5.00462E+00
 -1       910 9.31156E+01-5.84274E+00 7.49962E+00
 -1       911 9.13592E+01-7.71754E+00 7.49962E+00
 -1       912 9.31156E+01-5.84274E+00 2.49962E+00
 -1       913 8.64455E+01 9.89497E+00 7.49857E+00
 -1       914 8.89188E+01 9.20018E+00 7.49857E+00
 -1       915 8.13006E+01 9.29056E+00 7.49978E+00
 -1       916 8.38208E+01 9.93024E+00 7.49978E+00
 -1       917 7.71564E+01 6.20305E+00 7.49997E+00
 -1       918 7.90207E+01 8.01551E+00 7.49997E+00
 -1       919 7.50935E+01 1.36454E+00 7.50000E+00
 -1       920 7.58047E+01 3.93022E+00 7.50000E+00
 -1       921 7.58420E+01-4.01639E+00 7.50001E+00
 -1       922 7.50893E+01-1.33306E+00 7.50001E+00
 -1       923 7.90817E+01-8.06060E+00 7.50004E+00
 -1       924 7.72234E+01-6.28679E+00 7.50004E+00
 -1       925 8.38961E+01-9.93889E+00 7.50024E+00
 -1       926 8.13711E+01-9.31833E+00 7.50024E+00
 -1       927 8.90198E+01-9.15648E+00 7.50158E+00
 -1       928 8.65233E+01-9.88330E+00 7.50158E+00
 -1       929 9.13349E+01-7.73748E+00 2.49962E+00
 -1       930 9.03332E+01-8.45911E+00 5.00121E+00
 -1       931 1.98860E+01 2.13222E+00 2.33500E+00
 -1       932 1.99228E+01 1.75577E+00 7.94390E+00
 -1       933 1.99228E+01 1.75577E+00 5.27890E+00
 -1       934 1.96221E+01 3.86976E+00 2.94390E+00
 -1       935 1.96341E+01 3.80809E+00 7.94390E+00
 -1       936 1.99052E+01-1.94471E+00 2.33500E+00
 -1       937 1.99387E+01-1.56436E+00 5.16528E+00
 -1       938 1.99387E+01-1.56436E+00 7.83028E+00
 -1       939 1.97242E+01-3.30995E+00 7.83028E+00
 -1       940 1.96921E+01-3.49570E+00 2.83028E+00
 -1       941 1.81925E+01 8.30851E+00 1.65321E+00
 -1       942 1.74540E+01 9.76515E+00 1.65321E+00
 -1       943 1.65414E+01 1.12419E+01 1.51853E+00
 -1       944 1.52079E+01 1.29892E+01 1.51853E+00
 -1       945 1.69411E+01 1.06300E+01 3.17173E+00
 -1       946 1.39254E+01 1.43556E+01 2.48449E+00
 -1       947 1.19156E+01 1.60629E+01 2.48449E+00
 -1       948 9.52221E+00 1.75877E+01 2.41804E+00
 -1       949 7.12552E+00 1.86876E+01 2.41804E+00
 -1       950 1.11954E+01 1.65729E+01 4.90253E+00
 -1       951 4.60831E+00 1.94618E+01 2.38732E+00
 -1       952 2.07027E+00 1.98926E+01 2.38732E+00
 -1       953 6.29748E+00 1.89827E+01 4.80537E+00
 -1       954-5.07631E-01 1.99936E+01 2.38186E+00
 -1       955-3.00949E+00 1.97723E+01 2.38186E+00
 -1       956 1.18861E+00 1.99646E+01 4.76919E+00
 -1       957-5.53647E+00 1.92184E+01 2.41059E+00
 -1       958-8.13177E+00 1.82722E+01 2.41059E+00
 -1       959-3.95490E+00 1.96051E+01 4.79246E+00
 -1       960-1.05035E+01 1.70199E+01 2.39656E+00
 -1       961-1.27000E+01 1.54502E+01 2.39656E+00
 -1       962-8.92733E+00 1.78970E+01 4.80716E+00
 -1       963-1.47077E+01 1.35529E+01 2.40101E+00
 -1       964-1.63990E+01 1.14487E+01 2.40101E+00
 -1       965-1.34137E+01 1.48348E+01 4.79758E+00
 -1       966-1.79608E+01 8.79825E+00 2.55409E+00
 -1       967-1.89422E+01 6.41831E+00 2.55409E+00
 -1       968-1.71184E+01 1.03421E+01 4.95510E+00
 -1       969-1.97138E+01 3.37141E+00 2.49668E+00
 -1       970-1.99903E+01 6.22885E-01 2.49668E+00
 -1       971-1.94633E+01 4.60202E+00 5.05077E+00
 -1       972-1.98797E+01-2.18997E+00 2.39012E+00
 -1       973-1.93728E+01-4.96920E+00 2.39012E+00
 -1       974-1.85176E+01-7.55648E+00 2.41691E+00
 -1       975-1.72997E+01-1.00359E+01 2.41691E+00
 -1       976-1.88335E+01-6.73052E+00 4.80703E+00
 -1       977-1.58446E+01-1.22045E+01 2.37868E+00
 -1       978-1.41457E+01-1.41386E+01 2.37868E+00
 -1       979-1.63901E+01-1.14614E+01 4.79559E+00
 -1       980-1.22154E+01-1.58361E+01 2.36804E+00
 -1       981-1.00801E+01-1.72740E+01 2.36804E+00
 -1       982-1.29037E+01-1.52805E+01 4.74672E+00
 -1       983-7.77670E+00-1.84261E+01 2.37355E+00
 -1       984-5.28488E+00-1.92891E+01 2.37355E+00
 -1       985-8.58731E+00-1.80626E+01 4.74159E+00
 -1       986-2.73996E+00-1.98114E+01 2.38808E+00
 -1       987-1.09667E-01-1.99997E+01 2.38808E+00
 -1       988-3.67772E+00-1.96590E+01 4.76162E+00
 -1       989 2.53886E+00-1.98382E+01 2.38516E+00
 -1       990 5.24815E+00-1.92991E+01 2.38516E+00
 -1       991 7.77022E+00-1.84289E+01 2.43657E+00
 -1       992 1.01273E+01-1.72464E+01 2.43657E+00
 -1       993 6.74678E+00-1.88277E+01 4.82173E+00
 -1       994 1.22290E+01-1.58256E+01 2.46333E+00
 -1       995 1.40268E+01-1.42566E+01 2.46333E+00
 -1       996 1.13673E+01-1.64555E+01 4.89990E+00
 -1       997 1.57664E+01-1.23054E+01 2.57477E+00
 -1       998 1.70871E+01-1.03938E+01 2.57477E+00
 -1       999 1.51861E+01-1.30147E+01 5.03810E+00
 -1      1000 1.80314E+01 8.65270E+00 8.43037E+00
 -1      1001 1.85859E+01 7.38679E+00 8.43037E+00
 -1      1002 1.24143E+01 1.56807E+01 7.48449E+00
 -1      1003 1.42817E+01 1.40012E+01 7.48449E+00
 -1      1004 7.76694E+00 1.84303E+01 7.41804E+00
 -1      1005 1.00700E+01 1.72799E+01 7.41804E+00
 -1      1006 2.88075E+00 1.97914E+01 7.38732E+00
 -1      1007 5.27798E+00 1.92910E+01 7.38732E+00
 -1      1008-2.13723E+00 1.98855E+01 7.38186E+00
 -1      1009 3.09116E-01 1.99976E+01 7.38186E+00
 -1      1010-7.08605E+00 1.87026E+01 7.41059E+00
 -1      1011-4.68612E+00 1.94433E+01 7.41059E+00
 -1      1012-1.18065E+01 1.61433E+01 7.39656E+00
 -1      1013-9.52480E+00 1.75863E+01 7.39656E+00
 -1      1014-1.56478E+01 1.24558E+01 7.40101E+00
 -1      1015-1.39182E+01 1.43625E+01 7.40101E+00
 -1      1016-1.85018E+01 7.59503E+00 7.55409E+00
 -1      1017-1.73729E+01 9.90866E+00 7.55409E+00
 -1      1018-1.93241E+01 5.15557E+00 7.55409E+00
 -1      1019-1.99856E+01-7.59133E-01 7.49668E+00
 -1      1020-1.98932E+01 2.06443E+00 7.49668E+00
 -1      1021-1.90419E+01-6.11604E+00 7.39012E+00
 -1      1022-1.96810E+01-3.55764E+00 7.39012E+00
 -1      1023-1.67736E+01-1.08925E+01 7.41691E+00
 -1      1024-1.80338E+01-8.64768E+00 7.41691E+00
 -1      1025-1.34640E+01-1.47892E+01 7.37868E+00
 -1      1026-1.52114E+01-1.29851E+01 7.37868E+00
 -1      1027-9.36639E+00-1.76712E+01 7.36804E+00
 -1      1028-1.14559E+01-1.63940E+01 7.36804E+00
 -1      1029-4.61527E+00-1.94602E+01 7.37355E+00
 -1      1030-7.01789E+00-1.87283E+01 7.37355E+00
 -1      1031 5.81401E-01-1.99915E+01 7.38808E+00
 -1      1032-2.05383E+00-1.98943E+01 7.38808E+00
 -1      1033 5.79165E+00-1.91431E+01 7.38516E+00
 -1      1034 3.22276E+00-1.97386E+01 7.38516E+00
 -1      1035 1.04505E+01-1.70525E+01 7.43657E+00
 -1      1036 8.28811E+00-1.82018E+01 7.43657E+00
 -1      1037 1.42490E+01-1.40345E+01 7.46333E+00
 -1      1038 1.25251E+01-1.55923E+01 7.46333E+00
 -1      1039 1.71843E+01-1.02323E+01 7.57477E+00
 -1      1040 1.59577E+01-1.20562E+01 7.57477E+00
 -1      1041 1.92744E+01 5.33825E+00 1.63688E+00
 -1      1042 1.87529E+01 6.95201E+00 1.63688E+00
 -1      1043 1.47567E+01 1.34996E+01 4.00301E+00
 -1      1044-1.99565E+01-1.31910E+00 4.88680E+00
 -1      1045 1.55484E+00-1.99395E+01 4.77323E+00
 -1      1046 1.77831E+01-9.15211E+00 1.32874E+00
 -1      1047 1.84220E+01-7.78657E+00 1.32874E+00
 -1      1048 1.89032E+01-6.53207E+00 1.63153E+00
 -1      1049 1.93887E+01-4.90708E+00 1.63153E+00
 -1      1050 1.94788E+01-4.53605E+00 4.46182E+00
 -1      1051 1.86596E+01-7.19846E+00 2.96028E+00
 -1      1052 1.94967E+01-4.45839E+00 6.30056E+00
 -1      1053 1.94527E+01-4.64664E+00 8.47027E+00
 -1      1054 1.89891E+01-6.27800E+00 8.47027E+00
 -1      1055 1.91243E+01-5.85317E+00 5.10181E+00
 -1      1056 1.51010E+01 1.31134E+01 5.74670E+00
 -1      1057 1.58503E+01 1.21970E+01 8.26221E+00
 -1      1058 1.69944E+01 1.05447E+01 8.26221E+00
 -1      1059 1.62621E+01 1.16424E+01 4.78074E+00
 -1      1060 1.84201E+01 7.79107E+00 3.29009E+00
 -1      1061 1.85304E+01-7.52500E+00 8.78036E+00
 -1      1062 1.79109E+01-8.89945E+00 8.78036E+00
 -1      1063 1.74883E+01-9.70356E+00 3.90351E+00
 -1      1064 1.87217E+01-7.03552E+00 7.25063E+00
 -1      1065 1.76698E+01 9.36897E+00 6.69259E+00
 -1      1066 1.91449E+01 5.78562E+00 8.43037E+00
 -1      1067 1.92337E+01 5.48298E+00 6.37428E+00
 -1      1068 1.72104E+01 1.01883E+01 4.91542E+00
 -1      1069 1.93719E+01 4.97279E+00 4.58079E+00
 -1      1070 1.82078E+01 8.27512E+00 5.08358E+00
 -1      1071 1.87466E+01-6.96873E+00 4.16411E+00
 -1      1072 1.87743E+01-6.89397E+00 6.00284E+00
 -1      1073 1.82751E+01-8.12534E+00 6.31293E+00
 -1      1074 1.82364E+01-8.21173E+00 3.86131E+00
 -1      1075 1.76062E+01-9.48803E+00 5.10734E+00
 -1      1076 1.75340E+01-9.62070E+00 6.35513E+00
 -1      1077 1.87656E+01 6.91760E+00 5.06726E+00
 -1      1078 7.24820E+01-8.26437E+00 2.45000E+00
 -1      1079 7.24820E+01-8.26437E+00 7.45000E+00
 -1      1080 7.26040E+01 8.44619E+00 7.33469E+00
 -1      1081 7.26040E+01 8.44619E+00 2.33469E+00
 -1      1082 7.42039E+01 1.04137E+01 2.33469E+00
 -1      1083 7.42039E+01 1.04137E+01 7.33469E+00
 -1      1084 7.30570E+01-9.07555E+00 4.84833E+00
 -1      1085 7.47865E+01-1.09857E+01 7.39833E+00
 -1      1086 7.67831E+01-1.25492E+01 7.39833E+00
 -1      1087 7.47865E+01-1.09857E+01 2.39833E+00
 -1      1088 7.67831E+01-1.25492E+01 2.39833E+00
 -1      1089 8.67107E+01-1.49021E+01 2.38237E+00
 -1      1090 8.41759E+01-1.49773E+01 2.38237E+00
 -1      1091 9.57304E+01-1.04814E+01 2.38218E+00
 -1      1092 9.37782E+01-1.21632E+01 2.38218E+00
 -1      1093 9.99391E+01-1.35045E+00 2.38374E+00
 -1      1094 9.94981E+01-3.84776E+00 2.38374E+00
 -1      1095 9.74251E+01 8.40336E+00 2.41347E+00
 -1      1096 9.86968E+01 6.11547E+00 2.41347E+00
 -1      1097 8.41421E+01 1.49754E+01 2.39596E+00
 -1      1098 8.66771E+01 1.49059E+01 2.39596E+00
 -1      1099 7.61455E+01 1.21078E+01 2.33469E+00
 -1      1100 8.41759E+01-1.49773E+01 7.38237E+00
 -1      1101 8.67107E+01-1.49021E+01 7.38237E+00
 -1      1102 9.37782E+01-1.21632E+01 7.38218E+00
 -1      1103 9.57304E+01-1.04814E+01 7.38218E+00
 -1      1104 9.94981E+01-3.84776E+00 7.38374E+00
 -1      1105 9.99391E+01-1.35045E+00 7.38374E+00
 -1      1106 9.86968E+01 6.11547E+00 7.41347E+00
 -1      1107 9.74251E+01 8.40336E+00 7.41347E+00
 -1      1108 8.66771E+01 1.49059E+01 7.39596E+00
 -1      1109 8.41421E+01 1.49754E+01 7.39596E+00
 -1      1110 7.61455E+01 1.21078E+01 7.33469E+00
 -1      1111 8.14611E+01 1.45766E+01 2.39081E+00
 -1      1112 8.26522E+01 1.48151E+01 4.78677E+00
 -1      1113 7.90561E+01 1.37721E+01 2.39081E+00
 -1      1114 9.57977E+01 1.04120E+01 2.39690E+00
 -1      1115 9.66697E+01 9.42438E+00 4.81038E+00
 -1      1116 9.38894E+01 1.20822E+01 2.39690E+00
 -1      1117 9.99512E+01 1.20891E+00 2.41151E+00
 -1      1118 9.99999E+01-6.01556E-02 4.79525E+00
 -1      1119 9.95339E+01 3.71028E+00 2.41151E+00
 -1      1120 8.92176E+01-1.43949E+01 2.38238E+00
 -1      1121 8.79655E+01-1.47039E+01 4.76475E+00
 -1      1122 9.15822E+01-1.34787E+01 2.38238E+00
 -1      1123 8.16099E+01-1.46119E+01 2.38460E+00
 -1      1124 7.91969E+01-1.38320E+01 2.38460E+00
 -1      1125 9.27197E+01-1.28610E+01 4.76456E+00
 -1      1126 7.78060E+01-1.31623E+01 4.78293E+00
 -1      1127 9.91125E+01-5.08314E+00 4.76721E+00
 -1      1128 9.86326E+01-6.25708E+00 2.38347E+00
 -1      1129 9.73606E+01-8.49796E+00 2.38347E+00
 -1      1130 9.86326E+01-6.25708E+00 7.38347E+00
 -1      1131 9.91572E+01 4.95715E+00 4.82499E+00
 -1      1132 8.79527E+01 1.47065E+01 4.87393E+00
 -1      1133 8.92375E+01 1.43890E+01 2.47797E+00
 -1      1134 9.16743E+01 1.34333E+01 2.47797E+00
 -1      1135 8.92375E+01 1.43890E+01 7.47797E+00
 -1      1136 7.70054E+01 1.26920E+01 4.72550E+00
 -1      1137 8.16099E+01-1.46119E+01 7.38460E+00
 -1      1138 8.28369E+01-1.48432E+01 4.76697E+00
 -1      1139 8.92176E+01-1.43949E+01 7.38238E+00
 -1      1140 9.65880E+01-9.52456E+00 4.76565E+00
 -1      1141 7.91969E+01-1.38320E+01 7.38460E+00
 -1      1142 9.73606E+01-8.49796E+00 7.38347E+00
 -1      1143 9.15822E+01-1.34787E+01 7.38238E+00
 -1      1144 9.99512E+01 1.20891E+00 7.41151E+00
 -1      1145 9.57977E+01 1.04120E+01 7.39690E+00
 -1      1146 9.95339E+01 3.71028E+00 7.41151E+00
 -1      1147 8.14611E+01 1.45766E+01 7.39081E+00
 -1      1148 9.38894E+01 1.20822E+01 7.39690E+00
 -1      1149 9.16743E+01 1.34333E+01 7.47797E+00
 -1      1150 7.90561E+01 1.37721E+01 7.39081E+00
 -1      1151 9.27851E+01 1.28216E+01 4.87487E+00
 -1      1152 2.57793E+01-7.43890E+00 5.05000E-01
 -1      1153 2.76268E+01-7.38044E+00 6.73821E-01
 -1      1154 2.67983E+01-7.40666E+00 6.73821E-01
 -1      1155 3.26004E+01-7.22306E+00 1.40561E+00
 -1      1156 3.09895E+01-7.27404E+00 1.40561E+00
 -1      1157 4.10163E+01-6.95676E+00 2.47052E+00
 -1      1158 3.83469E+01-7.04123E+00 2.47052E+00
 -1      1159 5.04949E+01-6.65683E+00 5.00000E+00
 -1      1160 4.66978E+01-6.77698E+00 5.00000E+00
 -1      1161 5.50744E+01-6.51192E+00 5.00000E+00
 -1      1162 6.86979E+01-6.08083E+00 2.45000E+00
 -1      1163 2.56614E+01-7.44263E+00 1.17950E+00
 -1      1164 2.56614E+01-7.44263E+00 1.67950E+00
 -1      1165 2.57507E+01-7.43981E+00 2.16381E+00
 -1      1166 2.57507E+01-7.43981E+00 2.66381E+00
 -1      1167 2.61851E+01-7.42606E+00 1.83332E+00
 -1      1168 2.57395E+01-7.44016E+00 3.21776E+00
 -1      1169 2.57395E+01-7.44016E+00 3.71776E+00
 -1      1170 2.62631E+01-7.42359E+00 2.87157E+00
 -1      1171 2.57118E+01-7.44104E+00 4.26711E+00
 -1      1172 2.57118E+01-7.44104E+00 4.76711E+00
 -1      1173 2.62243E+01-7.42482E+00 3.97487E+00
 -1      1174 2.57264E+01-7.44058E+00 5.28067E+00
 -1      1175 2.57264E+01-7.44058E+00 5.78067E+00
 -1      1176 2.62113E+01-7.42523E+00 5.03779E+00
 -1      1177 2.57269E+01-7.44056E+00 6.31131E+00
 -1      1178 2.57269E+01-7.44056E+00 6.80631E+00
 -1      1179 2.62263E+01-7.42476E+00 6.08198E+00
 -1      1180 2.56725E+01-7.44228E+00 7.33139E+00
 -1      1181 2.56725E+01-7.44228E+00 7.83139E+00
 -1      1182 2.61725E+01-7.42646E+00 7.13770E+00
 -1      1183 2.55604E+01-7.44583E+00 8.25046E+00
 -1      1184 2.55604E+01-7.44583E+00 8.75046E+00
 -1      1185 2.60060E+01-7.43173E+00 8.08185E+00
 -1      1186 2.55809E+01-7.44518E+00 9.14129E+00
 -1      1187 2.55809E+01-7.44518E+00 9.64129E+00
 -1      1188 2.61332E+01-7.42770E+00 9.64129E+00
 -1      1189 2.59144E+01-7.43463E+00 8.89176E+00
 -1      1190 6.86979E+01-6.08083E+00 7.45000E+00
 -1      1191 2.84985E+01-7.35286E+00 8.87031E+00
 -1      1192 2.96952E+01-7.31499E+00 8.87031E+00
 -1      1193 3.11127E+01-7.27014E+00 8.31003E+00
 -1      1194 3.27236E+01-7.21917E+00 8.31003E+00
 -1      1195 3.04261E+01-7.29187E+00 7.18034E+00
 -1      1196 3.45481E+01-7.16143E+00 8.53236E+00
 -1      1197 3.65272E+01-7.09881E+00 8.53236E+00
 -1      1198 3.36681E+01-7.18928E+00 6.84239E+00
 -1      1199 3.83469E+01-7.04123E+00 7.47052E+00
 -1      1200 4.10163E+01-6.95676E+00 7.47052E+00
 -1      1201 5.96539E+01-6.36701E+00 5.00000E+00
 -1      1202 6.61435E+01-6.16166E+00 5.00000E+00
 -1      1203 2.97692E+01-7.31265E+00 9.70032E-01
 -1      1204 2.85725E+01-7.35052E+00 9.70032E-01
 -1      1205 3.62449E+01-7.10774E+00 1.65186E+00
 -1      1206 3.42658E+01-7.17036E+00 1.65186E+00
 -1      1207 4.29007E+01-6.89713E+00 5.00000E+00
 -1      1208 2.82108E+01-7.36196E+00 1.64385E+00
 -1      1209 2.66547E+01-7.41120E+00 9.38643E+00
 -1      1210 2.74832E+01-7.38499E+00 9.38643E+00
 -1      1211 3.70300E+01-7.08290E+00 4.12238E+00
 -1      1212 2.22804E+01-1.13394E+01 4.94025E+00
 -1      1213 2.23128E+01-1.12757E+01 6.40326E+00
 -1      1214 2.20496E+01-1.17819E+01 5.59575E+00
 -1      1215 3.32626E+01-7.20211E+00 3.05747E+00
 -1      1216 3.03769E+01-7.29342E+00 2.37564E+00
 -1      1217 2.79932E+01-7.36885E+00 8.25674E+00
 -1      1218 3.03729E+01-7.29355E+00 3.68912E+00
 -1      1219 2.91525E+01-7.33216E+00 3.25354E+00
 -1      1220 6.28987E+01-6.26433E+00 5.00000E+00
 -1      1221 2.69743E+01-7.40109E+00 2.54745E+00
 -1      1222 2.69631E+01-7.40144E+00 3.10140E+00
 -1      1223 2.67818E+01-7.40718E+00 3.69299E+00
 -1      1224 2.67541E+01-7.40806E+00 4.24235E+00
 -1      1225 2.74929E+01-7.38468E+00 3.36887E+00
 -1      1226 2.67428E+01-7.40841E+00 4.78327E+00
 -1      1227 2.67574E+01-7.40795E+00 5.29683E+00
 -1      1228 2.73003E+01-7.39077E+00 4.50139E+00
 -1      1229 2.69612E+01-7.40150E+00 5.87683E+00
 -1      1230 2.69617E+01-7.40149E+00 6.40747E+00
 -1      1231 2.74928E+01-7.38468E+00 5.62232E+00
 -1      1232 2.67362E+01-7.40862E+00 7.00986E+00
 -1      1233 2.66818E+01-7.41035E+00 7.53493E+00
 -1      1234 2.74710E+01-7.38537E+00 6.80470E+00
 -1      1235 2.90786E+01-7.33450E+00 6.15381E+00
 -1      1236 3.04960E+01-7.28965E+00 5.59354E+00
 -1      1237 3.33858E+01-7.19821E+00 4.96189E+00
 -1      1238 3.52104E+01-7.14048E+00 5.18422E+00
 -1      1239 3.73124E+01-7.07396E+00 6.00288E+00
 -1      1240 2.71117E+01-7.39674E+00 8.08998E+00
 -1      1241 2.81270E+01-7.36461E+00 7.57386E+00
 -1      1242 2.67697E+01-7.40756E+00 1.83263E+00
 -1      1243 2.74697E+01-7.38541E+00 2.06246E+00
 -1      1244 2.62137E+01-7.42516E+00 6.74505E-01
 -1      1245 2.66804E+01-7.41039E+00 1.34833E+00
 -1      1246 2.83526E+01-7.35748E+00 6.97147E+00
 -1      1247 2.65480E+01-7.41458E+00 8.21782E+00
 -1      1248 2.64359E+01-7.41813E+00 8.63689E+00
 -1      1249 2.64564E+01-7.41748E+00 9.02772E+00
 -1      1250 2.84154E+01-7.35549E+00 2.35867E+00
 -1      1251 3.17204E+01-7.25091E+00 4.71564E+00
 -1      1252 2.84114E+01-7.35562E+00 3.67214E+00
 -1      1253 2.15311E+01-1.27047E+01 6.75164E+00
 -1      1254 2.19967E+01-1.18804E+01 8.52938E+00
 -1      1255 2.14374E+01-1.28623E+01 8.22226E+00
 -1      1256 2.82300E+01-7.36135E+00 4.26374E+00
 -1      1257 2.82188E+01-7.36171E+00 4.80466E+00
 -1      1258 2.84225E+01-7.35526E+00 5.38466E+00
 -1      1259 2.58023E+01 7.43818E+00 5.05000E-01
 -1      1260 2.68891E+01 7.40379E+00 6.63555E-01
 -1      1261 2.77636E+01 7.37611E+00 6.63555E-01
 -1      1262 2.87269E+01 7.34563E+00 9.40907E-01
 -1      1263 2.99236E+01 7.30776E+00 9.40907E-01
 -1      1264 2.83639E+01 7.35712E+00 1.60446E+00
 -1      1265 3.56787E+01 7.12566E+00 2.07979E+00
 -1      1266 3.83252E+01 7.04191E+00 2.07979E+00
 -1      1267 4.12976E+01 6.94786E+00 2.44185E+00
 -1      1268 4.45654E+01 6.84445E+00 2.44185E+00
 -1      1269 3.98518E+01 6.99361E+00 4.52164E+00
 -1      1270 4.97124E+01 6.68159E+00 5.00000E+00
 -1      1271 5.42689E+01 6.53740E+00 5.00000E+00
 -1      1272 5.97229E+01 6.36482E+00 5.00000E+00
 -1      1273 6.44866E+01 6.21409E+00 5.00000E+00
 -1      1274 2.56646E+01 7.44253E+00 1.66973E+00
 -1      1275 2.56646E+01 7.44253E+00 1.16973E+00
 -1      1276 2.57720E+01 7.43914E+00 3.72448E+00
 -1      1277 2.57720E+01 7.43914E+00 3.22448E+00
 -1      1278 2.57039E+01 7.44129E+00 5.78161E+00
 -1      1279 2.57039E+01 7.44129E+00 5.28161E+00
 -1      1280 2.57258E+01 7.44059E+00 8.06147E+00
 -1      1281 2.57258E+01 7.44059E+00 7.56147E+00
 -1      1282 2.58713E+01 7.43599E+00 9.50000E+00
 -1      1283 2.82860E+01 7.35958E+00 9.21640E+00
 -1      1284 2.72504E+01 7.39235E+00 9.21640E+00
 -1      1285 3.56000E+01 7.12815E+00 8.46177E+00
 -1      1286 3.29766E+01 7.21116E+00 8.46177E+00
 -1      1287 4.34608E+01 6.87941E+00 7.44185E+00
 -1      1288 4.01009E+01 6.98572E+00 7.44185E+00
 -1      1289 2.62399E+01 7.42433E+00 6.64731E-01
 -1      1290 2.63702E+01 7.42021E+00 9.06147E+00
 -1      1291 2.71049E+01 7.39696E+00 8.27787E+00
 -1      1292 2.67514E+01 7.40814E+00 1.32829E+00
 -1      1293 3.13174E+01 7.26366E+00 1.71598E+00
 -1      1294 3.32965E+01 7.20104E+00 1.71598E+00
 -1      1295 4.79712E+01 6.73668E+00 7.44185E+00
 -1      1296 2.56855E+01 7.44187E+00 6.36337E+00
 -1      1297 2.61624E+01 7.42678E+00 6.13498E+00
 -1      1298 2.56855E+01 7.44187E+00 6.85837E+00
 -1      1299 2.57738E+01 7.43908E+00 2.66853E+00
 -1      1300 2.57738E+01 7.43908E+00 2.16853E+00
 -1      1301 2.57472E+01 7.43992E+00 4.77993E+00
 -1      1302 2.57472E+01 7.43992E+00 4.27993E+00
 -1      1303 2.61843E+01 7.42609E+00 7.41984E+00
 -1      1304 2.62114E+01 7.42523E+00 1.82826E+00
 -1      1305 2.62241E+01 7.42483E+00 5.05154E+00
 -1      1306 3.13482E+01 7.26269E+00 8.64201E+00
 -1      1307 2.95762E+01 7.31876E+00 8.64201E+00
 -1      1308 2.63188E+01 7.42183E+00 2.88301E+00
 -1      1309 2.62922E+01 7.42267E+00 3.99440E+00
 -1      1310 2.92753E+01 7.32828E+00 7.85841E+00
 -1      1311 3.21940E+01 7.23592E+00 7.10379E+00
 -1      1312 3.44971E+01 7.16304E+00 3.79577E+00
 -1      1313 2.66544E+01 7.41121E+00 6.46325E+00
 -1      1314 2.66728E+01 7.41063E+00 5.88149E+00
 -1      1315 2.68606E+01 7.40469E+00 1.82709E+00
 -1      1316 6.80995E+01 6.09976E+00 5.00000E+00
 -1      1317 2.57258E+01 7.44059E+00 8.56147E+00
 -1      1318 2.70459E+01 7.39882E+00 2.54386E+00
 -1      1319 2.75859E+01 7.38174E+00 2.04389E+00
 -1      1320 2.68985E+01 7.40349E+00 5.35553E+00
 -1      1321 2.69419E+01 7.40212E+00 4.85384E+00
 -1      1322 2.73905E+01 7.38792E+00 5.68380E+00
 -1      1323 2.85493E+01 7.35125E+00 2.32124E+00
 -1      1324 2.70441E+01 7.39888E+00 3.09981E+00
 -1      1325 3.07211E+01 7.28253E+00 2.65689E+00
 -1      1326 2.66931E+01 7.40999E+00 7.02604E+00
 -1      1327 2.72035E+01 7.39384E+00 6.77255E+00
 -1      1328 2.67335E+01 7.40871E+00 7.72914E+00
 -1      1329 2.76137E+01 7.38086E+00 7.88407E+00
 -1      1330 2.68696E+01 7.40440E+00 4.27182E+00
 -1      1331 2.68943E+01 7.40362E+00 3.71637E+00
 -1      1332 2.76215E+01 7.38061E+00 3.37723E+00
 -1      1333 2.75440E+01 7.38306E+00 4.57581E+00
 -1      1334 2.93390E+01 7.32626E+00 3.10797E+00
 -1      1335 3.07328E+01 7.28216E+00 3.88305E+00
 -1      1336 3.71285E+01 7.07978E+00 7.07979E+00
 -1      1337 2.85610E+01 7.35088E+00 3.54739E+00
 -1      1338 2.99581E+01 7.30667E+00 5.80907E+00
 -1      1339 3.13402E+01 7.26294E+00 5.35800E+00
 -1      1340 3.53509E+01 7.13603E+00 5.54156E+00
 -1      1341 3.29686E+01 7.21141E+00 5.17776E+00
 -1      1342 2.96088E+01 7.31772E+00 6.90473E+00
 -1      1343 2.83186E+01 7.35855E+00 7.47912E+00
 -1      1344 2.81342E+01 7.36439E+00 5.84163E+00
 -1      1345 2.79084E+01 7.37153E+00 6.36760E+00
 -1      1346 2.84112E+01 7.35562E+00 4.16395E+00
 -1      1347 2.84835E+01 7.35333E+00 4.74598E+00
 -1      1348 2.79472E+01 7.37031E+00 6.93039E+00
 -1      1349 2.90014E+01 7.33695E+00 5.42978E+00
 -1      1350 2.24569E+01 9.45604E+00 1.00000E+01
 -1      1351 2.27468E+01 8.74763E+00 1.00000E+01
 -1      1352 1.96765E+01 1.32490E+01 1.00000E+01
 -1      1353 2.04941E+01 1.19557E+01 1.00000E+01
 -1      1354 1.62726E+01 1.55121E+01 1.00000E+01
 -1      1355 1.76793E+01 1.38799E+01 1.00000E+01
 -1      1356 1.23295E+01 1.88154E+01 1.00000E+01
 -1      1357 1.44028E+01 1.71816E+01 1.00000E+01
 -1      1358 7.80446E+00 2.11024E+01 1.00000E+01
 -1      1359 1.00442E+01 1.99889E+01 1.00000E+01
 -1      1360 5.11263E+00 2.17892E+01 1.00000E+01
 -1      1361 2.29464E-01 2.24255E+01 1.00000E+01
 -1      1362 2.72887E+00 2.23299E+01 1.00000E+01
 -1      1363-4.68267E+00 2.19679E+01 1.00000E+01
 -1      1364-2.21426E+00 2.23718E+01 1.00000E+01
 -1      1365-9.56118E+00 2.03487E+01 1.00000E+01
 -1      1366-7.09840E+00 2.12988E+01 1.00000E+01
 -1      1367-1.39841E+01 1.76263E+01 1.00000E+01
 -1      1368-1.18839E+01 1.89849E+01 1.00000E+01
 -1      1369-1.57269E+01 1.59301E+01 1.00000E+01
 -1      1370-1.89076E+01 1.20950E+01 1.00000E+01
 -1      1371-1.75262E+01 1.40965E+01 1.00000E+01
 -1      1372-2.11693E+01 7.56599E+00 1.00000E+01
 -1      1373-2.01804E+01 9.86346E+00 1.00000E+01
 -1      1374-2.23432E+01 2.63549E+00 1.00000E+01
 -1      1375-2.18316E+01 5.08384E+00 1.00000E+01
 -1      1376-2.23571E+01 1.34291E-01 1.00000E+01
 -1      1377-2.18663E+01-5.07086E+00 1.00000E+01
 -1      1378-2.23306E+01-2.68361E+00 1.00000E+01
 -1      1379-2.01157E+01-1.00338E+01 1.00000E+01
 -1      1380-2.11322E+01-7.59767E+00 1.00000E+01
 -1      1381-1.74170E+01-1.42418E+01 1.00000E+01
 -1      1382-1.87872E+01-1.22326E+01 1.00000E+01
 -1      1383-1.56294E+01-1.59913E+01 1.00000E+01
 -1      1384-1.16104E+01-1.91628E+01 1.00000E+01
 -1      1385-1.38348E+01-1.77414E+01 1.00000E+01
 -1      1386-7.15630E+00-2.12744E+01 1.00000E+01
 -1      1387-9.49488E+00-2.03872E+01 1.00000E+01
 -1      1388-2.34586E+00-2.23580E+01 1.00000E+01
 -1      1389-4.74482E+00-2.19586E+01 1.00000E+01
 -1      1390 2.78486E+00-2.23259E+01 1.00000E+01
 -1      1391 2.84961E-01-2.24076E+01 1.00000E+01
 -1      1392 5.15262E+00-2.17707E+01 1.00000E+01
 -1      1393 1.00410E+01-2.00590E+01 1.00000E+01
 -1      1394 7.70530E+00-2.11323E+01 1.00000E+01
 -1      1395 1.42533E+01-1.73598E+01 1.00000E+01
 -1      1396 1.21866E+01-1.88882E+01 1.00000E+01
 -1      1397 2.06203E+01-1.18275E+01 1.00000E+01
 -1      1398 1.96790E+01-1.32892E+01 1.00000E+01
 -1      1399 2.26910E+01-8.79873E+00 1.00000E+01
 -1      1400 2.24292E+01-9.44349E+00 1.00000E+01
 -1      1401 2.31534E+01 8.28247E+00 1.00000E+01
 -1      1402 2.35072E+01 7.82014E+00 1.00000E+01
 -1      1403 2.42980E+01 7.27439E+00 1.00000E+01
 -1      1404 2.48493E+01 7.08741E+00 1.00000E+01
 -1      1405 2.35092E+01-7.83719E+00 1.00000E+01
 -1      1406 2.31555E+01-8.29952E+00 1.00000E+01
 -1      1407 2.48310E+01-7.08951E+00 1.00000E+01
 -1      1408 2.42797E+01-7.27648E+00 1.00000E+01
 -1      1409 2.54277E+01 6.78833E+00 1.00000E+01
 -1      1410 2.60721E+01 6.76794E+00 1.00000E+01
 -1      1411 2.68942E+01 6.32072E+00 1.00000E+01
 -1      1412 2.79297E+01 6.28795E+00 1.00000E+01
 -1      1413 2.64506E+01 5.67306E+00 1.00000E+01
 -1      1414 3.33172E+01 4.89767E+00 1.00000E+01
 -1      1415 3.59407E+01 4.81465E+00 1.00000E+01
 -1      1416 3.91153E+01 3.34076E+00 1.00000E+01
 -1      1417 4.24751E+01 3.23445E+00 1.00000E+01
 -1      1418 3.76783E+01 1.08352E+00 1.00000E+01
 -1      1419 4.72961E+01 1.01218E-01 1.00000E+01
 -1      1420 5.18066E+01-4.15068E-02 1.00000E+01
 -1      1421 5.63861E+01 1.03403E-01 1.00000E+01
 -1      1422 6.18401E+01-6.91781E-02 1.00000E+01
 -1      1423 2.59555E+01-6.78841E+00 1.00000E+01
 -1      1424 2.54032E+01-6.80588E+00 1.00000E+01
 -1      1425 2.99073E+01-6.12336E+00 1.00000E+01
 -1      1426 2.87106E+01-6.16122E+00 1.00000E+01
 -1      1427 3.64800E+01-5.09881E+00 1.00000E+01
 -1      1428 3.45009E+01-5.16143E+00 1.00000E+01
 -1      1429 6.94736E+01-3.08254E+00 1.00000E+01
 -1      1430 6.69192E+01-3.16337E+00 1.00000E+01
 -1      1431 7.52856E+01-7.76830E+00 1.00000E+01
 -1      1432 7.38712E+01-5.62587E+00 1.00000E+01
 -1      1433 7.91495E+01-1.10452E+01 1.00000E+01
 -1      1434 7.71318E+01-9.52396E+00 1.00000E+01
 -1      1435 8.15578E+01-1.18100E+01 1.00000E+01
 -1      1436 8.65865E+01-1.23492E+01 1.00000E+01
 -1      1437 8.40608E+01-1.24276E+01 1.00000E+01
 -1      1438 9.14207E+01-1.07250E+01 1.00000E+01
 -1      1439 8.90644E+01-1.16377E+01 1.00000E+01
 -1      1440 9.33662E+01-9.04996E+00 1.00000E+01
 -1      1441 9.64115E+01-4.99298E+00 1.00000E+01
 -1      1442 9.51449E+01-7.22597E+00 1.00000E+01
 -1      1443 9.74999E+01-4.09509E-02 1.00000E+01
 -1      1444 9.70606E+01-2.52934E+00 1.00000E+01
 -1      1445 9.70878E+01 2.45209E+00 1.00000E+01
 -1      1446 9.51553E+01 7.22155E+00 1.00000E+01
 -1      1447 9.64232E+01 4.94301E+00 1.00000E+01
 -1      1448 9.14367E+01 1.07145E+01 1.00000E+01
 -1      1449 9.33380E+01 9.05024E+00 1.00000E+01
 -1      1450 8.90103E+01 1.16697E+01 1.00000E+01
 -1      1451 8.40294E+01 1.24281E+01 1.00000E+01
 -1      1452 8.65550E+01 1.23497E+01 1.00000E+01
 -1      1453 7.91220E+01 1.10300E+01 1.00000E+01
 -1      1454 8.15303E+01 1.17948E+01 1.00000E+01
 -1      1455 7.70763E+01 9.47886E+00 1.00000E+01
 -1      1456 7.38385E+01 5.57220E+00 1.00000E+01
 -1      1457 7.52249E+01 7.68474E+00 1.00000E+01
 -1      1458 2.15275E+01 8.31931E-01 1.00000E+01
 -1      1459 2.13133E+01 2.89056E+00 1.00000E+01
 -1      1460 1.95433E+01 8.48168E+00 1.00000E+01
 -1      1461 1.89474E+01 9.72771E+00 1.00000E+01
 -1      1462 1.59689E+01-1.57987E+01 1.00000E+01
 -1      1463 1.72083E+01-1.23727E+01 1.00000E+01
 -1      1464 1.84589E+01-1.05692E+01 1.00000E+01
 -1      1465 1.88203E+01-9.21571E+00 1.00000E+01
 -1      1466 1.94360E+01-7.84070E+00 1.00000E+01
 -1      1467 2.03754E+01-5.85301E+00 1.00000E+01
 -1      1468 2.08122E+01-4.21586E+00 1.00000E+01
 -1      1469 2.09823E+01-2.62982E+00 1.00000E+01
 -1      1470 2.11367E+01-8.79590E-01 1.00000E+01
 -1      1471 7.31262E+01 3.03142E+00 1.00000E+01
 -1      1472 7.31262E+01-2.96858E+00 1.00000E+01
 -1      1473 7.13475E+01-5.11271E-02 1.00000E+01
 -1      1474 1.97852E+01 1.07354E+01 1.00000E+01
 -1      1475 2.12000E+01 1.08211E+01 1.00000E+01
 -1      1476 1.70821E+01 1.25008E+01 1.00000E+01
 -1      1477 1.96929E+01-1.02602E+01 1.00000E+01
 -1      1478 1.75558E+01-1.40482E+01 1.00000E+01
 -1      1479 2.20461E+01-1.01489E+01 1.00000E+01
 -1      1480 2.15539E+01-1.11474E+01 1.00000E+01
 -1      1481 2.50501E+01 6.41936E+00 1.00000E+01
 -1      1482 2.24296E+01-8.34327E+00 1.00000E+01
 -1      1483 3.11184E+01 5.44174E+00 1.00000E+01
 -1      1484 3.23048E+01 3.10148E+00 1.00000E+01
 -1      1485 2.93464E+01 5.49781E+00 1.00000E+01
 -1      1486 4.56739E+01-3.52360E+00 1.00000E+01
 -1      1487 2.50072E+01-6.43901E+00 1.00000E+01
 -1      1488 6.58606E+01 3.03178E+00 1.00000E+01
 -1      1489 6.94736E+01 2.91746E+00 1.00000E+01
 -1      1490 2.75894E+01-6.48205E+00 1.00000E+01
 -1      1491 2.67609E+01-6.50827E+00 1.00000E+01
 -1      1492 3.28390E+01-5.92719E+00 1.00000E+01
 -1      1493 3.12282E+01-5.97816E+00 1.00000E+01
 -1      1494 4.18768E+01-3.64375E+00 1.00000E+01
 -1      1495 3.92073E+01-3.72822E+00 1.00000E+01
 -1      1496 1.82415E+01 1.08623E+01 1.00000E+01
 -1      1497 2.15819E+01-9.54791E+00 1.00000E+01
 -1      1498 2.21033E+01-3.34522E+00 1.00000E+01
 -1      1499 2.26642E+01-4.76586E-02 1.00000E+01
 -1      1500 2.24833E+01 8.27511E+00 1.00000E+01
 -1      1501 2.36594E+01 7.19685E+00 1.00000E+01
 -1      1502 2.38331E+01 6.64091E+00 1.00000E+01
 -1      1503 2.30422E+01 7.18666E+00 1.00000E+01
 -1      1504 2.36304E+01-7.23211E+00 1.00000E+01
 -1      1505 2.30153E+01-7.23898E+00 1.00000E+01
 -1      1506 2.37858E+01-6.67827E+00 1.00000E+01
 -1      1507 2.63848E+01-5.87524E+00 1.00000E+01
 -1      1508 3.07537E+01-4.80825E+00 1.00000E+01
 -1      1509 3.81256E+01-1.76096E+00 1.00000E+01
 -1      1510 1.98912E+01 7.19200E+00 1.00000E+01
 -1      1511 2.08389E+01 8.31119E+00 1.00000E+01
 -1      1512 3.37364E+01-3.89730E+00 1.00000E+01
 -1      1513 2.83115E+01-5.27428E+00 1.00000E+01
 -1      1514 2.03792E+01 5.56938E+00 1.00000E+01
 -1      1515 2.16641E+01 9.88634E+00 1.00000E+01
 -1      1516 2.28882E+01-4.17285E+00 1.00000E+01
 -1      1517 2.30583E+01-2.58681E+00 1.00000E+01
 -1      1518 2.43243E+01 6.10747E+00 1.00000E+01
 -1      1519 2.49027E+01 5.80839E+00 1.00000E+01
 -1      1520 2.64678E+01-4.84900E+00 1.00000E+01
 -1      1521 2.56624E+01-5.12914E+00 1.00000E+01
 -1      1522 6.36744E+01-3.26605E+00 1.00000E+01
 -1      1523 3.17246E+01-2.96714E+00 1.00000E+01
 -1      1524 3.04037E+01-3.11233E+00 1.00000E+01
 -1      1525 2.10357E+01 4.38377E+00 1.00000E+01
 -1      1526 2.18433E+01 5.83590E+00 1.00000E+01
 -1      1527 3.49509E+01-2.87066E-01 1.00000E+01
 -1      1528 2.86406E+01-3.94442E+00 1.00000E+01
 -1      1529 2.75193E+01-4.26525E+00 1.00000E+01
 -1      1530 2.96115E+01-2.10330E+00 1.00000E+01
 -1      1531 2.48221E+01-5.71567E+00 1.00000E+01
 -1      1532 2.42500E+01-5.99930E+00 1.00000E+01
 -1      1533 2.36007E+01-5.95493E+00 1.00000E+01
 -1      1534 2.49051E+01-4.68943E+00 1.00000E+01
 -1      1535 2.27774E+01 3.15708E+00 1.00000E+01
 -1      1536 2.37380E+01 4.33622E+00 1.00000E+01
 -1      1537 2.40156E+01 2.84301E+00 1.00000E+01
 -1      1538 2.12839E+01 9.17057E+00 1.00000E+01
 -1      1539 2.38131E+01-1.44322E+00 1.00000E+01
 -1      1540 2.42040E+01 2.68305E-01 1.00000E+01
 -1      1541 2.21413E+01-7.55582E+00 1.00000E+01
 -1      1542 2.16768E+01-8.05504E+00 1.00000E+01
 -1      1543 2.53023E+01 5.07122E+00 1.00000E+01
 -1      1544 2.61244E+01 4.62400E+00 1.00000E+01
 -1      1545 2.16318E+01 7.88089E+00 1.00000E+01
 -1      1546 2.20384E+01 7.41573E+00 1.00000E+01
 -1      1547 2.10097E+01-8.87456E+00 1.00000E+01
 -1      1548 2.06266E+01-9.57999E+00 1.00000E+01
 -1      1549 2.29990E+01-5.10361E+00 1.00000E+01
 -1      1550 2.39540E+01-4.34520E+00 1.00000E+01
 -1      1551 2.45765E+01 4.75933E+00 1.00000E+01
 -1      1552 2.22625E+01-6.95075E+00 1.00000E+01
 -1      1553 2.86893E+01 4.43570E+00 1.00000E+01
 -1      1554 2.74541E+01 1.16081E+00 1.00000E+01
 -1      1555 2.92198E+01 1.87152E+00 1.00000E+01
 -1      1556 2.83402E+01 2.93485E+00 1.00000E+01
 -1      1557 2.07215E+01-8.08712E+00 1.00000E+01
 -1      1558 2.59637E+01 5.48444E-01 1.00000E+01
 -1      1559 2.68433E+01-5.14880E-01 1.00000E+01
 -1      1560 3.29392E+01 6.43098E-01 1.00000E+01
 -1      1561 3.33864E+01-2.20138E+00 1.00000E+01
 -1      1562 2.45981E+01-2.27085E+00 1.00000E+01
 -1      1563 2.01031E+01-7.02118E+00 1.00000E+01
 -1      1564 2.16609E+01-6.09943E+00 1.00000E+01
 -1      1565 2.48148E+01 1.94400E+00 1.00000E+01
 -1      1566 2.02651E+01-1.09335E+01 1.00000E+01
 -1      1567 3.07403E+01 1.18717E+00 1.00000E+01
 -1      1568 2.25348E+01-5.78258E+00 1.00000E+01
 -1      1569 2.47943E+01-3.75867E+00 1.00000E+01
 -1      1570 2.36858E+01 6.02994E+00 1.00000E+01
 -1      1571 2.28472E+01 5.60683E+00 1.00000E+01
 -1      1572 2.33384E+01 5.07340E+00 1.00000E+01
 -1      1573 2.67968E+01-3.51914E+00 1.00000E+01
 -1      1574 2.21907E+01 6.79244E+00 1.00000E+01
 -1      1575 2.66006E+01-2.03132E+00 1.00000E+01
 -1      1576 2.80910E+01-1.41895E+00 1.00000E+01
 -1      1577 2.98542E+01-5.86861E-01 1.00000E+01
 -1      1578 2.55491E+01-2.61507E+00 1.00000E+01
 -1      1579 2.57753E+01 3.12315E+00 1.00000E+01
 -1      1580 2.69236E+01 3.72499E+00 1.00000E+01
 -1      1581 2.17922E+01 1.22515E+01 4.09106E+00
 -1      1582 2.23248E+01 1.12518E+01 4.19696E+00
 -1      1583 2.19184E+01 1.20243E+01 3.23899E+00
 -1      1584 2.23405E+01 1.12206E+01 5.88840E+00
 -1      1585 2.18258E+01 1.21915E+01 6.06715E+00
 -1      1586 2.19681E+01 1.19333E+01 6.90652E+00
 -1      1587 2.37019E+01-8.24003E+00 5.05000E-01
 -1      1588 2.46479E+01-7.56134E+00 5.05000E-01
 -1      1589 2.46472E+01-7.56157E+00 1.20471E+00
 -1      1590 2.41238E+01-7.83073E+00 6.99707E-01
 -1      1591 2.37014E+01-8.24058E+00 1.20471E+00
 -1      1592 2.46472E+01-7.56157E+00 1.70471E+00
 -1      1593 2.37014E+01-8.24058E+00 1.70471E+00
 -1      1594 2.36881E+01-8.25818E+00 3.25499E+00
 -1      1595 2.36881E+01-8.25818E+00 3.75499E+00
 -1      1596 2.36861E+01-8.26088E+00 4.25844E+00
 -1      1597 2.36861E+01-8.26088E+00 4.75844E+00
 -1      1598 2.40850E+01-7.85930E+00 4.00343E+00
 -1      1599 2.36858E+01-8.26137E+00 5.26001E+00
 -1      1600 2.36858E+01-8.26137E+00 5.76001E+00
 -1      1601 2.40819E+01-7.86170E+00 5.00845E+00
 -1      1602 2.36857E+01-8.26139E+00 6.26192E+00
 -1      1603 2.36857E+01-8.26139E+00 6.75692E+00
 -1      1604 2.40813E+01-7.86209E+00 6.01193E+00
 -1      1605 2.36860E+01-8.26105E+00 7.26607E+00
 -1      1606 2.36860E+01-8.26105E+00 7.76607E+00
 -1      1607 2.40817E+01-7.86185E+00 7.02299E+00
 -1      1608 2.36876E+01-8.25890E+00 8.30388E+00
 -1      1609 2.36876E+01-8.25890E+00 8.80388E+00
 -1      1610 2.40841E+01-7.85997E+00 8.06995E+00
 -1      1611 2.37019E+01-8.24003E+00 9.50000E+00
 -1      1612 2.23658E+01-1.11702E+01 4.41945E+00
 -1      1613 2.24974E+01-1.09026E+01 3.87889E+00
 -1      1614 2.28184E+01-1.02136E+01 4.16560E+00
 -1      1615 2.41052E+01-7.84423E+00 9.30388E+00
 -1      1616 2.46264E+01-7.56878E+00 3.75499E+00
 -1      1617 2.46264E+01-7.56878E+00 3.25499E+00
 -1      1618 2.46232E+01-7.56990E+00 4.75844E+00
 -1      1619 2.46232E+01-7.56990E+00 4.25844E+00
 -1      1620 2.46226E+01-7.57010E+00 5.76001E+00
 -1      1621 2.46226E+01-7.57010E+00 5.26001E+00
 -1      1622 2.46226E+01-7.57011E+00 6.75692E+00
 -1      1623 2.46226E+01-7.57011E+00 6.26192E+00
 -1      1624 2.46230E+01-7.56997E+00 7.76607E+00
 -1      1625 2.46230E+01-7.56997E+00 7.26607E+00
 -1      1626 2.46255E+01-7.56907E+00 8.80388E+00
 -1      1627 2.46255E+01-7.56907E+00 8.30388E+00
 -1      1628 2.26149E+01-1.06568E+01 5.22695E+00
 -1      1629 2.46438E+01-7.56271E+00 2.24397E+00
 -1      1630 2.41204E+01-7.83321E+00 1.93868E+00
 -1      1631 2.36993E+01-8.24341E+00 2.24397E+00
 -1      1632 2.46438E+01-7.56271E+00 2.74397E+00
 -1      1633 2.36993E+01-8.24341E+00 2.74397E+00
 -1      1634 2.41025E+01-7.84622E+00 2.98896E+00
 -1      1635 2.46479E+01-7.56134E+00 9.50000E+00
 -1      1636 2.37019E+01 8.24003E+00 5.05000E-01
 -1      1637 2.46479E+01 7.56134E+00 5.05000E-01
 -1      1638 2.41239E+01 7.83064E+00 6.99711E-01
 -1      1639 2.46474E+01 7.56152E+00 1.20471E+00
 -1      1640 2.46474E+01 7.56152E+00 1.70471E+00
 -1      1641 2.37015E+01 8.24046E+00 1.20471E+00
 -1      1642 2.37015E+01 8.24046E+00 1.70471E+00
 -1      1643 2.36913E+01 8.25399E+00 3.75521E+00
 -1      1644 2.36913E+01 8.25399E+00 3.25521E+00
 -1      1645 2.36910E+01 8.25441E+00 5.76022E+00
 -1      1646 2.36910E+01 8.25441E+00 5.26022E+00
 -1      1647 2.36901E+01 8.25551E+00 7.76633E+00
 -1      1648 2.36901E+01 8.25551E+00 7.26633E+00
 -1      1649 2.37019E+01 8.24003E+00 9.50000E+00
 -1      1650 2.46313E+01 7.56705E+00 3.25521E+00
 -1      1651 2.46313E+01 7.56705E+00 3.75521E+00
 -1      1652 2.46308E+01 7.56722E+00 5.26022E+00
 -1      1653 2.46308E+01 7.56722E+00 5.76022E+00
 -1      1654 2.46295E+01 7.56767E+00 7.26633E+00
 -1      1655 2.46295E+01 7.56767E+00 7.76633E+00
 -1      1656 2.46479E+01 7.56134E+00 9.50000E+00
 -1      1657 2.41218E+01 7.83218E+00 9.30473E+00
 -1      1658 2.36999E+01 8.24256E+00 8.80473E+00
 -1      1659 2.36999E+01 8.24256E+00 8.30473E+00
 -1      1660 2.46449E+01 7.56237E+00 8.80473E+00
 -1      1661 2.46495E+01 7.56078E+00 4.75871E+00
 -1      1662 2.41112E+01 7.83986E+00 5.00892E+00
 -1      1663 2.41076E+01 7.84254E+00 2.98924E+00
 -1      1664 2.36999E+01 8.24263E+00 2.74403E+00
 -1      1665 2.36999E+01 8.24263E+00 2.24403E+00
 -1      1666 2.46448E+01 7.56240E+00 2.74403E+00
 -1      1667 2.41061E+01 7.84360E+00 8.07106E+00
 -1      1668 2.37029E+01 8.23862E+00 4.25871E+00
 -1      1669 2.41116E+01 7.83956E+00 4.00392E+00
 -1      1670 2.37029E+01 8.23862E+00 4.75871E+00
 -1      1671 2.41031E+01 7.84580E+00 7.02347E+00
 -1      1672 2.36977E+01 8.24551E+00 6.75714E+00
 -1      1673 2.36977E+01 8.24551E+00 6.26214E+00
 -1      1674 2.46413E+01 7.56357E+00 6.75714E+00
 -1      1675 2.46448E+01 7.56240E+00 2.24403E+00
 -1      1676 2.46495E+01 7.56078E+00 4.25871E+00
 -1      1677 2.41213E+01 7.83255E+00 1.93874E+00
 -1      1678 2.41042E+01 7.84498E+00 6.01236E+00
 -1      1679 2.46413E+01 7.56357E+00 6.26214E+00
 -1      1680 2.46449E+01 7.56237E+00 8.30473E+00
 -1      1681 2.27304E+01 8.85610E+00 0.00000E+00
 -1      1682 2.24405E+01 9.56451E+00 0.00000E+00
 -1      1683 2.16397E+01 1.00596E+01 0.00000E+00
 -1      1684 2.11756E+01 1.09944E+01 0.00000E+00
 -1      1685 2.12431E+01 9.45233E+00 0.00000E+00
 -1      1686 1.38745E+01 1.75215E+01 0.00000E+00
 -1      1687 1.18600E+01 1.91181E+01 0.00000E+00
 -1      1688 9.62651E+00 2.02441E+01 0.00000E+00
 -1      1689 7.21163E+00 2.12891E+01 0.00000E+00
 -1      1690 4.52368E+00 2.19908E+01 0.00000E+00
 -1      1691 1.98264E+00 2.23688E+01 0.00000E+00
 -1      1692-5.16196E-01 2.24783E+01 0.00000E+00
 -1      1693-3.00857E+00 2.22111E+01 0.00000E+00
 -1      1694-5.47920E+00 2.18210E+01 0.00000E+00
 -1      1695-8.00923E+00 2.08530E+01 0.00000E+00
 -1      1696-1.05778E+01 1.98546E+01 0.00000E+00
 -1      1697-1.26235E+01 1.85394E+01 0.00000E+00
 -1      1698-1.47775E+01 1.69221E+01 0.00000E+00
 -1      1699-1.65297E+01 1.52356E+01 0.00000E+00
 -1      1700-1.81739E+01 1.31021E+01 0.00000E+00
 -1      1701-1.96004E+01 1.10475E+01 0.00000E+00
 -1      1702-2.05680E+01 8.81635E+00 0.00000E+00
 -1      1703-2.15512E+01 6.44291E+00 0.00000E+00
 -1      1704-2.20764E+01 3.99744E+00 0.00000E+00
 -1      1705-2.24218E+01 1.26337E+00 0.00000E+00
 -1      1706-2.24496E+01-1.23771E+00 0.00000E+00
 -1      1707-2.20176E+01-4.02241E+00 0.00000E+00
 -1      1708-2.15469E+01-6.47897E+00 0.00000E+00
 -1      1709-2.05637E+01-8.85395E+00 0.00000E+00
 -1      1710-1.94060E+01-1.13548E+01 0.00000E+00
 -1      1711-1.80025E+01-1.34252E+01 0.00000E+00
 -1      1712-1.63464E+01-1.53891E+01 0.00000E+00
 -1      1713-1.45588E+01-1.71386E+01 0.00000E+00
 -1      1714-1.24570E+01-1.86158E+01 0.00000E+00
 -1      1715-1.02948E+01-2.00059E+01 0.00000E+00
 -1      1716-7.96124E+00-2.09062E+01 0.00000E+00
 -1      1717-5.49116E+00-2.18130E+01 0.00000E+00
 -1      1718-3.02504E+00-2.22307E+01 0.00000E+00
 -1      1719-4.03922E-01-2.24618E+01 0.00000E+00
 -1      1720 2.02697E+00-2.23891E+01 0.00000E+00
 -1      1721 4.73716E+00-2.18898E+01 0.00000E+00
 -1      1722 7.10797E+00-2.13477E+01 0.00000E+00
 -1      1723 9.44956E+00-2.02874E+01 0.00000E+00
 -1      1724 1.18162E+01-1.91373E+01 0.00000E+00
 -1      1725 1.39429E+01-1.75736E+01 0.00000E+00
 -1      1726 1.95464E+01-1.35429E+01 0.00000E+00
 -1      1727 2.04877E+01-1.20812E+01 0.00000E+00
 -1      1728 2.25276E+01-9.43308E+00 0.00000E+00
 -1      1729 2.27893E+01-8.78832E+00 0.00000E+00
 -1      1730 2.32985E+01 7.77383E+00 0.00000E+00
 -1      1731 2.29448E+01 8.23615E+00 0.00000E+00
 -1      1732 2.48087E+01 6.99812E+00 0.00000E+00
 -1      1733 2.42574E+01 7.18510E+00 0.00000E+00
 -1      1734 2.31271E+01-8.32234E+00 0.00000E+00
 -1      1735 2.34808E+01-7.86002E+00 0.00000E+00
 -1      1736 2.42370E+01-7.19376E+00 0.00000E+00
 -1      1737 2.47883E+01-7.00678E+00 0.00000E+00
 -1      1738 2.59753E+01 6.76311E+00 0.00000E+00
 -1      1739 2.54000E+01 6.78131E+00 0.00000E+00
 -1      1740 2.99084E+01 6.09408E+00 0.00000E+00
 -1      1741 2.87117E+01 6.13194E+00 0.00000E+00
 -1      1742 3.83184E+01 5.02850E+00 0.00000E+00
 -1      1743 3.56719E+01 5.11224E+00 0.00000E+00
 -1      1744 5.28927E+01 3.14913E+00 0.00000E+00
 -1      1745 4.83362E+01 3.29331E+00 0.00000E+00
 -1      1746 2.54305E+01-6.95774E+00 0.00000E+00
 -1      1747 2.59829E+01-6.94027E+00 0.00000E+00
 -1      1748 2.66062E+01-6.90188E+00 0.00000E+00
 -1      1749 2.74347E+01-6.87566E+00 0.00000E+00
 -1      1750 2.62575E+01-6.42072E+00 0.00000E+00
 -1      1751 3.11681E+01-5.72974E+00 0.00000E+00
 -1      1752 3.27790E+01-5.67877E+00 0.00000E+00
 -1      1753 3.45286E+01-4.68283E+00 0.00000E+00
 -1      1754 3.65077E+01-4.62021E+00 0.00000E+00
 -1      1755 3.37040E+01-3.17028E+00 0.00000E+00
 -1      1756 3.96263E+01-3.61290E+00 0.00000E+00
 -1      1757 4.22958E+01-3.52843E+00 0.00000E+00
 -1      1758 3.85723E+01-1.16704E+00 0.00000E+00
 -1      1759 4.66332E+01-3.54993E+00 0.00000E+00
 -1      1760 5.04303E+01-3.42978E+00 0.00000E+00
 -1      1761 5.50098E+01-3.28487E+00 0.00000E+00
 -1      1762 6.04208E+01-3.17334E+00 0.00000E+00
 -1      1763 6.36656E+01-3.07067E+00 0.00000E+00
 -1      1764 6.72774E+01-3.13193E+00 0.00000E+00
 -1      1765 6.98318E+01-3.05110E+00 0.00000E+00
 -1      1766 6.47995E+01-4.09394E-02 0.00000E+00
 -1      1767 7.38712E+01-5.62587E+00 0.00000E+00
 -1      1768 7.52856E+01-7.76830E+00 0.00000E+00
 -1      1769 7.71318E+01-9.52396E+00 0.00000E+00
 -1      1770 7.91495E+01-1.10452E+01 0.00000E+00
 -1      1771 8.15578E+01-1.18100E+01 0.00000E+00
 -1      1772 8.40608E+01-1.24276E+01 0.00000E+00
 -1      1773 8.65865E+01-1.23492E+01 0.00000E+00
 -1      1774 8.90374E+01-1.16538E+01 0.00000E+00
 -1      1775 9.13937E+01-1.07410E+01 0.00000E+00
 -1      1776 9.33392E+01-9.06604E+00 0.00000E+00
 -1      1777 9.51449E+01-7.22597E+00 0.00000E+00
 -1      1778 9.64115E+01-4.99298E+00 0.00000E+00
 -1      1779 9.70606E+01-2.52934E+00 0.00000E+00
 -1      1780 9.74999E+01-4.09509E-02 0.00000E+00
 -1      1781 9.70878E+01 2.45209E+00 0.00000E+00
 -1      1782 9.64074E+01 4.97020E+00 0.00000E+00
 -1      1783 9.51395E+01 7.24874E+00 0.00000E+00
 -1      1784 9.33380E+01 9.05024E+00 0.00000E+00
 -1      1785 9.14367E+01 1.07145E+01 0.00000E+00
 -1      1786 8.90103E+01 1.16697E+01 0.00000E+00
 -1      1787 8.65236E+01 1.23500E+01 0.00000E+00
 -1      1788 8.39980E+01 1.24284E+01 0.00000E+00
 -1      1789 8.15303E+01 1.17948E+01 0.00000E+00
 -1      1790 7.91220E+01 1.10300E+01 0.00000E+00
 -1      1791 7.70763E+01 9.47886E+00 0.00000E+00
 -1      1792 7.52249E+01 7.68474E+00 0.00000E+00
 -1      1793 7.38385E+01 5.57220E+00 0.00000E+00
 -1      1794 2.10490E+01 1.97128E+00 0.00000E+00
 -1      1795 2.08216E+01 4.09135E+00 0.00000E+00
 -1      1796 1.97828E+01 6.85492E+00 0.00000E+00
 -1      1797 2.02810E+01 5.23540E+00 0.00000E+00
 -1      1798 1.87639E+01 1.01719E+01 0.00000E+00
 -1      1799 1.94956E+01 8.71332E+00 0.00000E+00
 -1      1800 1.59332E+01 1.58828E+01 0.00000E+00
 -1      1801 1.57590E+01-1.60324E+01 0.00000E+00
 -1      1802 1.96348E+01-8.40672E+00 0.00000E+00
 -1      1803 1.89933E+01-9.76987E+00 0.00000E+00
 -1      1804 2.14429E+01-1.14821E+00 0.00000E+00
 -1      1805 2.12538E+01-3.08371E+00 0.00000E+00
 -1      1806 7.31262E+01 3.03142E+00 0.00000E+00
 -1      1807 7.31262E+01-2.96858E+00 0.00000E+00
 -1      1808 7.17058E+01-1.96828E-02 0.00000E+00
 -1      1809 6.98318E+01 2.94890E+00 0.00000E+00
 -1      1810 2.04431E+01 1.21436E+01 0.00000E+00
 -1      1811 1.96660E+01 1.33804E+01 0.00000E+00
 -1      1812 1.97097E+01 1.10967E+01 0.00000E+00
 -1      1813 1.98247E+01-1.09032E+01 0.00000E+00
 -1      1814 1.82350E+01-1.09878E+01 0.00000E+00
 -1      1815 1.73458E+01-1.42818E+01 0.00000E+00
 -1      1816 2.21078E+01 8.88252E-01 0.00000E+00
 -1      1817 2.35508E+01-2.59963E-01 0.00000E+00
 -1      1818 2.12460E+01-1.08633E+01 0.00000E+00
 -1      1819 2.24995E+01-8.35569E+00 0.00000E+00
 -1      1820 2.22583E+01 8.33727E+00 0.00000E+00
 -1      1821 2.49919E+01-6.50815E+00 0.00000E+00
 -1      1822 2.49817E+01 6.32305E+00 0.00000E+00
 -1      1823 2.76525E+01 6.48503E+00 0.00000E+00
 -1      1824 2.67780E+01 6.51270E+00 0.00000E+00
 -1      1825 3.36133E+01 5.22084E+00 0.00000E+00
 -1      1826 3.16342E+01 5.28346E+00 0.00000E+00
 -1      1827 4.60283E+01-1.81230E-01 0.00000E+00
 -1      1828 6.30673E+01 3.10992E+00 0.00000E+00
 -1      1829 5.83036E+01 3.26066E+00 0.00000E+00
 -1      1830 6.66791E+01 3.04866E+00 0.00000E+00
 -1      1831 2.97849E+01-5.29878E+00 0.00000E+00
 -1      1832 3.05712E+01-3.73525E+00 0.00000E+00
 -1      1833 2.91929E+01-6.30135E+00 0.00000E+00
 -1      1834 2.79962E+01-6.33922E+00 0.00000E+00
 -1      1835 5.57767E+01-9.12094E-02 0.00000E+00
 -1      1836 1.66917E+01 1.30595E+01 0.00000E+00
 -1      1837 1.80314E+01 1.13211E+01 0.00000E+00
 -1      1838 1.68657E+01-1.28601E+01 0.00000E+00
 -1      1839 2.21934E+01-3.80829E+00 0.00000E+00
 -1      1840 2.05613E+01-4.59557E+00 0.00000E+00
 -1      1841 2.00937E+01-6.22419E+00 0.00000E+00
 -1      1842 2.35827E+01 7.04553E+00 0.00000E+00
 -1      1843 2.27568E+01 6.98903E+00 0.00000E+00
 -1      1844 2.37157E+01 6.40030E+00 0.00000E+00
 -1      1845 2.63757E+01 5.85584E+00 0.00000E+00
 -1      1846 2.35417E+01-7.20635E+00 0.00000E+00
 -1      1847 2.36543E+01-6.56978E+00 0.00000E+00
 -1      1848 2.28981E+01-7.23604E+00 0.00000E+00
 -1      1849 3.10227E+01 4.08864E+00 0.00000E+00
 -1      1850 3.48072E+01 3.16943E+00 0.00000E+00
 -1      1851 2.82376E+01 5.25235E+00 0.00000E+00
 -1      1852 2.17428E+01-8.18394E+00 0.00000E+00
 -1      1853 2.20805E+01-7.71796E+00 0.00000E+00
 -1      1854 1.73805E+01 1.41940E+01 0.00000E+00
 -1      1855 2.55818E+01 6.44054E-01 0.00000E+00
 -1      1856 2.49169E+01-1.39241E+00 0.00000E+00
 -1      1857 2.17382E+01-9.86485E+00 0.00000E+00
 -1      1858 2.64755E+01 4.92749E+00 0.00000E+00
 -1      1859 2.56728E+01 5.17789E+00 0.00000E+00
 -1      1860 3.11613E+01 2.55062E+00 0.00000E+00
 -1      1861 2.94354E+01 3.36124E+00 0.00000E+00
 -1      1862 4.39987E+01 3.31482E+00 0.00000E+00
 -1      1863 4.07309E+01 3.41822E+00 0.00000E+00
 -1      1864 3.02260E+01-2.09079E+00 0.00000E+00
 -1      1865 3.16092E+01-2.52175E+00 0.00000E+00
 -1      1866 3.61597E+01 4.43239E-01 0.00000E+00
 -1      1867 3.41011E+01 5.51837E-01 0.00000E+00
 -1      1868 2.06518E+01 9.02673E+00 0.00000E+00
 -1      1869 1.97052E+01 7.79260E+00 0.00000E+00
 -1      1870 2.00052E+01-7.33722E+00 0.00000E+00
 -1      1871 2.09534E+01-8.61570E+00 0.00000E+00
 -1      1872 2.46726E+01-5.93290E+00 0.00000E+00
 -1      1873 2.53149E+01-5.88386E+00 0.00000E+00
 -1      1874 2.48431E+01 5.50710E+00 0.00000E+00
 -1      1875 2.42518E+01 5.72391E+00 0.00000E+00
 -1      1876 2.49429E+01 4.57875E+00 0.00000E+00
 -1      1877 2.59757E+01-5.88510E+00 0.00000E+00
 -1      1878 2.65991E+01-5.84671E+00 0.00000E+00
 -1      1879 2.21414E+01-7.06429E+00 0.00000E+00
 -1      1880 2.35771E+01 5.58435E+00 0.00000E+00
 -1      1881 2.13724E+01-9.25343E+00 0.00000E+00
 -1      1882 3.92784E+01 1.45055E+00 0.00000E+00
 -1      1883 2.39239E+01-5.67751E+00 0.00000E+00
 -1      1884 2.42469E+01-5.05323E+00 0.00000E+00
 -1      1885 2.32286E+01-5.69011E+00 0.00000E+00
 -1      1886 2.82725E+01 3.88988E+00 0.00000E+00
 -1      1887 2.72132E+01 4.24297E+00 0.00000E+00
 -1      1888 3.20063E+01 1.20037E+00 0.00000E+00
 -1      1889 3.04190E+01 4.72963E-01 0.00000E+00
 -1      1890 3.33589E+01-1.52582E+00 0.00000E+00
 -1      1891 2.09390E+01 7.16834E+00 0.00000E+00
 -1      1892 2.20288E+01 6.24570E+00 0.00000E+00
 -1      1893 2.17446E+01 6.97400E+00 0.00000E+00
 -1      1894 2.56565E+01-5.30986E+00 0.00000E+00
 -1      1895 2.31921E+01-3.54714E+00 0.00000E+00
 -1      1896 2.44169E+01-2.88235E+00 0.00000E+00
 -1      1897 2.47231E+01-4.13305E+00 0.00000E+00
 -1      1898 2.14123E+01-6.43318E+00 0.00000E+00
 -1      1899 2.22299E+01-5.95126E+00 0.00000E+00
 -1      1900 2.16670E+01 7.91167E+00 0.00000E+00
 -1      1901 2.84110E+01 2.35185E+00 0.00000E+00
 -1      1902 2.64479E+01-1.97833E+00 0.00000E+00
 -1      1903 2.14527E+01 8.53161E+00 0.00000E+00
 -1      1904 2.65104E+01 3.56501E+00 0.00000E+00
 -1      1905 2.31568E+01 2.85954E+00 0.00000E+00
 -1      1906 2.15573E+01 5.08662E+00 0.00000E+00
 -1      1907 2.31055E+01 4.42526E+00 0.00000E+00
 -1      1908 2.41644E+01 3.34223E+00 0.00000E+00
 -1      1909 2.25694E+01 5.10165E+00 0.00000E+00
 -1      1910 2.57319E+01 2.32850E+00 0.00000E+00
 -1      1911 2.70980E+01 1.19605E+00 0.00000E+00
 -1      1912 2.80679E+01-1.89634E+00 0.00000E+00
 -1      1913 2.91059E+01-6.82841E-01 0.00000E+00
 -1      1914 2.75680E+01-3.38627E+00 0.00000E+00
 -1      1915 2.85959E+01-4.30686E+00 0.00000E+00
 -1      1916 2.49942E+01 3.01302E+00 0.00000E+00
 -1      1917 2.24996E+01-5.05899E+00 0.00000E+00
 -1      1918 2.54718E+01-4.38844E+00 0.00000E+00
 -1      1919 2.71606E+01-5.31027E+00 0.00000E+00
 -1      1920 2.74424E+01-5.84588E+00 0.00000E+00
 -1      1921 2.61327E+01-4.38968E+00 0.00000E+00
 -1      1922 2.82609E+01 6.67408E-01 0.00000E+00
 -1      1923 2.69760E+01-4.38885E+00 0.00000E+00
 -1      1924 2.31379E+01 9.46783E+00 5.05000E-01
 -1      1925 2.21634E+01 1.15665E+01 8.25286E-01
 -1      1926 2.26269E+01 1.06312E+01 8.25286E-01
 -1      1927 1.84104E+01 1.69132E+01 2.50884E+00
 -1      1928 1.98421E+01 1.52083E+01 2.50884E+00
 -1      1929 1.01250E+01 2.28579E+01 2.43910E+00
 -1      1930 1.23611E+01 2.17302E+01 2.43910E+00
 -1      1931-1.55270E-01 2.49995E+01 2.38393E+00
 -1      1932 2.34670E+00 2.48896E+01 2.38393E+00
 -1      1933-1.01895E+01 2.28292E+01 2.37744E+00
 -1      1934-7.65582E+00 2.37989E+01 2.37744E+00
 -1      1935-1.82073E+01 1.71317E+01 2.37629E+00
 -1      1936-1.64544E+01 1.88216E+01 2.37629E+00
 -1      1937-2.34019E+01 8.79503E+00 2.38573E+00
 -1      1938-2.24353E+01 1.10298E+01 2.38573E+00
 -1      1939-2.49795E+01-1.01205E+00 2.38345E+00
 -1      1940-2.49554E+01 1.49221E+00 2.38345E+00
 -1      1941-2.25684E+01-1.07549E+01 2.48107E+00
 -1      1942-2.35546E+01-8.37748E+00 2.48107E+00
 -1      1943-1.65529E+01-1.87351E+01 2.37908E+00
 -1      1944-1.83442E+01-1.69850E+01 2.37908E+00
 -1      1945-7.80970E+00-2.37489E+01 2.38321E+00
 -1      1946-1.01466E+01-2.28483E+01 2.38321E+00
 -1      1947 1.97409E+00-2.49219E+01 2.38138E+00
 -1      1948-4.59658E-01-2.49958E+01 2.38138E+00
 -1      1949 1.15670E+01-2.21631E+01 2.38351E+00
 -1      1950 9.22692E+00-2.32350E+01 2.38351E+00
 -1      1951 1.94520E+01-1.57041E+01 2.43400E+00
 -1      1952 1.78808E+01-1.74722E+01 2.43400E+00
 -1      1953 2.26025E+01-1.06829E+01 8.37642E-01
 -1      1954 2.21044E+01-1.16788E+01 8.37642E-01
 -1      1955 2.31641E+01-9.40339E+00 5.05000E-01
 -1      1956 2.31827E+01 9.35747E+00 2.22597E+00
 -1      1957 2.31827E+01 9.35747E+00 2.72597E+00
 -1      1958 2.32235E+01 9.25570E+00 3.23728E+00
 -1      1959 2.32235E+01 9.25570E+00 3.73728E+00
 -1      1960 2.29765E+01 9.85303E+00 2.95325E+00
 -1      1961 2.31679E+01 9.39405E+00 4.23729E+00
 -1      1962 2.31679E+01 9.39405E+00 4.73729E+00
 -1      1963 2.29609E+01 9.88928E+00 3.96457E+00
 -1      1964 2.31715E+01 9.38521E+00 5.28147E+00
 -1      1965 2.31715E+01 9.38521E+00 5.78147E+00
 -1      1966 2.29053E+01 1.00173E+01 5.00876E+00
 -1      1967 2.32383E+01 9.21865E+00 6.26662E+00
 -1      1968 2.32383E+01 9.21865E+00 6.76162E+00
 -1      1969 2.29804E+01 9.84387E+00 6.03810E+00
 -1      1970 2.31973E+01 9.32115E+00 7.24814E+00
 -1      1971 2.31973E+01 9.32115E+00 7.74814E+00
 -1      1972 2.30075E+01 9.78034E+00 7.00976E+00
 -1      1973 2.32304E+01 9.23847E+00 8.31584E+00
 -1      1974 2.32304E+01 9.23847E+00 8.81584E+00
 -1      1975 2.29991E+01 9.79997E+00 8.06398E+00
 -1      1976 2.31379E+01 9.46783E+00 9.50000E+00
 -1      1977 2.26931E+01 1.04893E+01 2.89341E+00
 -1      1978 2.27388E+01 1.03896E+01 3.40472E+00
 -1      1979 2.29366E+01 9.94539E+00 9.31584E+00
 -1      1980 2.31959E+01-9.32471E+00 1.69575E+00
 -1      1981 2.31959E+01-9.32471E+00 1.19575E+00
 -1      1982 2.31853E+01-9.35094E+00 3.81752E+00
 -1      1983 2.31853E+01-9.35094E+00 3.31752E+00
 -1      1984 2.32248E+01-9.25260E+00 5.78914E+00
 -1      1985 2.32248E+01-9.25260E+00 5.28914E+00
 -1      1986 2.31539E+01-9.42863E+00 8.09844E+00
 -1      1987 2.31539E+01-9.42863E+00 7.59844E+00
 -1      1988 2.31641E+01-9.40339E+00 9.50000E+00
 -1      1989 2.16698E+01 1.24667E+01 8.54264E+00
 -1      1990 2.08662E+01 1.37696E+01 8.54264E+00
 -1      1991 1.97997E+01 1.52634E+01 7.50884E+00
 -1      1992 1.84104E+01 1.69132E+01 7.50884E+00
 -1      1993 1.23006E+01 2.17645E+01 7.43910E+00
 -1      1994 1.00614E+01 2.28860E+01 7.43910E+00
 -1      1995 2.27740E+00 2.48961E+01 7.38393E+00
 -1      1996-2.24863E-01 2.49990E+01 7.38393E+00
 -1      1997-7.72204E+00 2.37775E+01 7.37744E+00
 -1      1998-1.01895E+01 2.28292E+01 7.37744E+00
 -1      1999-1.65067E+01 1.87757E+01 7.37629E+00
 -1      2000-1.82549E+01 1.70809E+01 7.37629E+00
 -1      2001-2.24353E+01 1.10298E+01 7.38573E+00
 -1      2002-2.34263E+01 8.72984E+00 7.38573E+00
 -1      2003-2.49595E+01 1.42273E+00 7.38345E+00
 -1      2004-2.49766E+01-1.08159E+00 7.38345E+00
 -1      2005-2.35546E+01-8.37748E+00 7.48107E+00
 -1      2006-2.25383E+01-1.08177E+01 7.48107E+00
 -1      2007-1.83442E+01-1.69850E+01 7.37908E+00
 -1      2008-1.65529E+01-1.87351E+01 7.37908E+00
 -1      2009-1.00829E+01-2.28765E+01 7.38321E+00
 -1      2010-7.74356E+00-2.37705E+01 7.38321E+00
 -1      2011-4.59658E-01-2.49958E+01 7.38138E+00
 -1      2012 2.04346E+00-2.49163E+01 7.38138E+00
 -1      2013 9.29157E+00-2.32092E+01 7.38351E+00
 -1      2014 1.16287E+01-2.21308E+01 7.38351E+00
 -1      2015 1.78808E+01-1.74722E+01 7.43400E+00
 -1      2016 1.94520E+01-1.57041E+01 7.43400E+00
 -1      2017 2.24429E+01-1.10144E+01 3.32299E+00
 -1      2018 2.28889E+01-1.00548E+01 3.06914E+00
 -1      2019 2.29274E+01-9.96674E+00 6.90745E-01
 -1      2020 2.03794E+01 1.44804E+01 4.07539E+00
 -1      2021 2.08666E+01 1.37689E+01 1.56655E+00
 -1      2022 2.16355E+01 1.25263E+01 1.56655E+00
 -1      2023 1.35397E+01 2.10161E+01 4.88931E+00
 -1      2024 1.45726E+01 2.03135E+01 2.45021E+00
 -1      2025 1.65840E+01 1.87076E+01 2.45021E+00
 -1      2026 1.45160E+01 2.03540E+01 7.45021E+00
 -1      2027 3.71455E+00 2.47225E+01 4.81494E+00
 -1      2028 4.94610E+00 2.45058E+01 2.43101E+00
 -1      2029 7.63861E+00 2.38044E+01 2.43101E+00
 -1      2030 4.87786E+00 2.45195E+01 7.43101E+00
 -1      2031-6.49676E+00 2.41411E+01 4.76015E+00
 -1      2032-5.17466E+00 2.44586E+01 2.38271E+00
 -1      2033-2.70162E+00 2.48536E+01 2.38271E+00
 -1      2034-5.24272E+00 2.44441E+01 7.38271E+00
 -1      2035-1.54940E+01 1.96198E+01 4.76248E+00
 -1      2036-1.45032E+01 2.03631E+01 2.38619E+00
 -1      2037-1.24535E+01 2.16774E+01 2.38619E+00
 -1      2038-1.45599E+01 2.03227E+01 7.38619E+00
 -1      2039-2.18652E+01 1.21208E+01 4.76244E+00
 -1      2040-2.12357E+01 1.31927E+01 2.37671E+00
 -1      2041-1.98092E+01 1.52511E+01 2.37671E+00
 -1      2042-2.12357E+01 1.31927E+01 7.37671E+00
 -1      2043-2.48540E+01 2.69816E+00 4.76489E+00
 -1      2044-2.46816E+01 3.97716E+00 2.38144E+00
 -1      2045-2.41599E+01 6.42659E+00 2.38144E+00
 -1      2046-2.46926E+01 3.90844E+00 7.38144E+00
 -1      2047-2.39363E+01-7.21468E+00 4.86940E+00
 -1      2048-2.42801E+01-5.95608E+00 2.38833E+00
 -1      2049-2.47542E+01-3.49698E+00 2.38833E+00
 -1      2050-2.42801E+01-5.95608E+00 7.38833E+00
 -1      2051-1.91682E+01-1.60494E+01 4.75977E+00
 -1      2052-1.99613E+01-1.50515E+01 2.38069E+00
 -1      2053-2.13670E+01-1.29789E+01 2.38069E+00
 -1      2054-1.99613E+01-1.50515E+01 7.38069E+00
 -1      2055-1.12948E+01-2.23031E+01 4.77215E+00
 -1      2056-1.24059E+01-2.17047E+01 2.38894E+00
 -1      2057-1.45718E+01-2.03141E+01 2.38894E+00
 -1      2058-1.23454E+01-2.17391E+01 7.38894E+00
 -1      2059-1.70843E+00-2.49416E+01 4.75693E+00
 -1      2060-2.93181E+00-2.48275E+01 2.37555E+00
 -1      2061-5.40108E+00-2.44096E+01 2.37555E+00
 -1      2062-2.93181E+00-2.48275E+01 7.37555E+00
 -1      2063 8.14540E+00-2.36358E+01 4.76199E+00
 -1      2064 6.81400E+00-2.40535E+01 2.37848E+00
 -1      2065 4.44178E+00-2.46022E+01 2.37848E+00
 -1      2066 6.88093E+00-2.40344E+01 7.37848E+00
 -1      2067 1.70566E+01-1.82777E+01 4.85925E+00
 -1      2068 1.59840E+01-1.92227E+01 2.42525E+00
 -1      2069 1.38649E+01-2.08030E+01 2.42525E+00
 -1      2070 1.59840E+01-1.92227E+01 7.42525E+00
 -1      2071 2.14507E+01-1.28401E+01 1.41914E+00
 -1      2072 2.05058E+01-1.43007E+01 1.41914E+00
 -1      2073 2.32078E+01 9.29496E+00 1.68074E+00
 -1      2074 2.29598E+01 9.89186E+00 1.89671E+00
 -1      2075 2.32078E+01 9.29496E+00 1.18074E+00
 -1      2076 2.32608E+01-9.16168E+00 4.28768E+00
 -1      2077 2.30189E+01-9.75352E+00 4.09519E+00
 -1      2078 2.32608E+01-9.16168E+00 4.78768E+00
 -1      2079 1.75800E+01 1.77748E+01 4.95905E+00
 -1      2080 2.31385E+01-9.46618E+00 2.76162E+00
 -1      2081 2.31385E+01-9.46618E+00 2.26162E+00
 -1      2082 2.30600E+01-9.65587E+00 5.06681E+00
 -1      2083 2.31823E+01-9.35858E+00 6.85973E+00
 -1      2084 2.31823E+01-9.35858E+00 6.36473E+00
 -1      2085 2.28824E+01-1.00695E+01 9.09844E+00
 -1      2086 2.24114E+01-1.10783E+01 9.09844E+00
 -1      2087 2.21717E+01 1.15505E+01 9.19430E+00
 -1      2088 2.19421E+01 1.19810E+01 7.73693E+00
 -1      2089 2.26346E+01 1.06148E+01 9.19430E+00
 -1      2090 2.29002E+01-1.00289E+01 1.94737E+00
 -1      2091 1.65840E+01 1.87076E+01 7.45021E+00
 -1      2092 8.82454E+00 2.33908E+01 4.87011E+00
 -1      2093 7.57232E+00 2.38256E+01 7.43101E+00
 -1      2094-1.45126E+00 2.49578E+01 4.76663E+00
 -1      2095-2.77080E+00 2.48460E+01 7.38271E+00
 -1      2096-1.12615E+01 2.23199E+01 4.76363E+00
 -1      2097-1.24535E+01 2.16774E+01 7.38619E+00
 -1      2098-1.90565E+01 1.61818E+01 4.75300E+00
 -1      2099-1.98516E+01 1.51959E+01 7.37671E+00
 -1      2100-2.38259E+01 7.57145E+00 4.76717E+00
 -1      2101-2.41777E+01 6.35931E+00 7.38144E+00
 -1      2102-2.48948E+01-2.29055E+00 4.77178E+00
 -1      2103-2.47444E+01-3.56588E+00 7.38833E+00
 -1      2104-2.19985E+01-1.18770E+01 4.86176E+00
 -1      2105-2.13308E+01-1.30383E+01 7.38069E+00
 -1      2106-1.55537E+01-1.95725E+01 4.76802E+00
 -1      2107-1.45718E+01-2.03141E+01 7.38894E+00
 -1      2108-6.60784E+00-2.41109E+01 4.75875E+00
 -1      2109-5.33310E+00-2.44245E+01 7.37555E+00
 -1      2110 3.24924E+00-2.47879E+01 4.75987E+00
 -1      2111 4.51025E+00-2.45898E+01 7.37848E+00
 -1      2112 1.28684E+01-2.14337E+01 4.80875E+00
 -1      2113 1.39228E+01-2.07643E+01 7.42525E+00
 -1      2114 2.04911E+01-1.43219E+01 8.22226E+00
 -1      2115 2.26387E+01-1.06062E+01 1.52839E+00
 -1      2116 2.29124E+01 1.00012E+01 6.75741E-01
 -1      2117 1.99559E+01-1.50586E+01 3.85314E+00
 -1      2118 2.27056E+01 1.04621E+01 1.50103E+00
 -1      2119 2.29773E+01-9.85105E+00 6.14386E+00
 -1      2120 2.24474E+01 1.10051E+01 7.55818E+00
 -1      2121 2.19004E+01 1.20571E+01 2.39184E+00
 -1      2122 2.16593E+01-1.24850E+01 2.25679E+00
 -1      2123 2.29019E+01-1.00252E+01 7.45817E+00
 -1      2124 1.99404E+01-1.50792E+01 5.65626E+00
 -1      2125 2.24241E+01 1.10526E+01 2.49773E+00
 -1      2126 2.26773E+01 1.05232E+01 2.04626E+00
 -1      2127 2.27369E+01-1.03939E+01 6.23360E+00
 -1      2128 2.27842E+01-1.02899E+01 5.65801E+00
 -1      2129 2.26765E+01 1.05251E+01 3.90473E+00
 -1      2130 2.25658E+01 1.07602E+01 4.75680E+00
 -1      2131 2.25699E+01 1.07516E+01 5.30099E+00
 -1      2132 2.26952E+01 1.04847E+01 6.14035E+00
 -1      2133 2.27698E+01 1.03216E+01 6.62551E+00
 -1      2134 2.28615E+01-1.01168E+01 5.13721E+00
 -1      2135 2.29009E+01-1.00273E+01 4.63575E+00
 -1      2136 2.09491E+01-1.36431E+01 4.64140E+00
 -1      2137 2.31539E+01-9.42863E+00 8.59844E+00
 -1      2138 2.25735E+01-1.07442E+01 2.09426E+00
 -1      2139 2.21565E+01-1.15798E+01 2.90401E+00
 -1      2140 2.15079E+01-1.27441E+01 3.48551E+00
 -1      2141 2.25249E+01-1.08457E+01 6.88911E+00
 -1      2142 2.24920E+01-1.09137E+01 7.62782E+00
 -1      2143 2.04191E+01 1.44242E+01 6.05148E+00
 -1      2144 2.13869E+01 1.29461E+01 5.10919E+00
 -1      2145 2.27240E+01 1.04220E+01 7.11202E+00
 -1      2146 2.27013E+01 1.04713E+01 7.94244E+00
 -1      2147 2.27385E+01 1.03904E+01 8.51014E+00
 -1      2148 2.14947E+01-1.27663E+01 5.28863E+00
 -1      2149 7.51298E+00 2.10934E+01 4.84905E+00
 -1      2150 8.85066E+00 2.06641E+01 2.41804E+00
 -1      2151 9.99868E+00 2.01556E+01 4.85714E+00
 -1      2152 2.81184E+01-6.40880E+00 3.53811E+00
 -1      2153 2.71986E+01-6.56671E+00 2.87822E+00
 -1      2154 2.83313E+01-6.40834E+00 2.48027E+00
 -1      2155 2.76428E+01-5.59657E+00 3.63904E+00
 -1      2156 2.87754E+01-5.43820E+00 3.24110E+00
 -1      2157 2.78556E+01-5.59610E+00 2.58121E+00
 -1      2158 8.27777E+01-1.22851E+01 7.50024E+00
 -1      2159 3.48140E+01 5.18284E+00 2.07979E+00
 -1      2160 3.33424E+01 1.89721E+00 2.48342E+00
 -1      2161 3.68726E+01 5.07424E+00 2.07979E+00
 -1      2162 3.54078E+01 3.80203E+00 4.56321E+00
 -1      2163 3.54010E+01 1.78862E+00 2.48342E+00
 -1      2164 2.42913E+01-6.11401E+00 1.83153E+00
 -1      2165 2.46947E+01-6.68068E+00 2.16139E+00
 -1      2166 2.40557E+01-6.76795E+00 2.84562E+00
 -1      2167 2.51251E+01-5.92115E+00 1.91152E+00
 -1      2168 2.44860E+01-6.00842E+00 2.59575E+00
 -1      2169 2.48895E+01-6.57509E+00 2.92561E+00
 -1      2170 3.18427E+01-5.74689E+00 5.14837E+00
 -1      2171 3.04952E+01-5.78953E+00 4.12184E+00
 -1      2172 3.17196E+01-5.75079E+00 3.24395E+00
 -1      2173 2.79314E+01-6.49912E+00 6.19349E+00
 -1      2174 2.77059E+01-6.50626E+00 6.79588E+00
 -1      2175 2.85874E+01-6.47836E+00 6.96264E+00
 -1      2176 9.67366E+01-3.76830E+00 7.38374E+00
 -1      2177 9.73857E+01-1.30466E+00 7.38374E+00
 -1      2178 2.10143E+01-2.43916E+00 7.83028E+00
 -1      2179 2.30042E+01-1.17738E+00 8.38633E+00
 -1      2180 2.17452E+01-1.85735E+00 6.21661E+00
 -1      2181 2.18675E+01-2.97786E-01 8.38633E+00
 -1      2182 3.18982E+01-4.20650E+00 1.83834E+00
 -1      2183 3.04151E+01-4.84225E+00 2.92997E+00
 -1      2184 3.04713E+01-4.80198E+00 1.09163E+00
 -1      2185 3.17758E+01-5.71051E+00 1.40561E+00
 -1      2186 3.02927E+01-6.34627E+00 2.49724E+00
 -1      2187 8.39465E+01 1.23437E+01 4.89574E+00
 -1      2188 8.27346E+01 1.22743E+01 7.49978E+00
 -1      2189 8.12802E+01 1.19212E+01 4.89059E+00
 -1      2190 2.76345E+01-6.35066E+00 6.73821E-01
 -1      2191 2.73570E+01-5.64345E+00 7.39542E-01
 -1      2192 2.84961E+01-5.37359E+00 1.09163E+00
 -1      2193 2.69875E+01-6.68467E+00 1.41336E+00
 -1      2194 2.81267E+01-6.41481E+00 1.76545E+00
 -1      2195 2.78491E+01-5.70760E+00 1.83117E+00
 -1      2196 2.44556E+01-7.23234E+00 8.79229E+00
 -1      2197 2.49732E+01-7.03360E+00 9.13072E+00
 -1      2198 2.39043E+01-7.41931E+00 9.29229E+00
 -1      2199 2.44219E+01-7.22057E+00 9.63072E+00
 -1      2200 2.42018E+01-6.80956E+00 8.92301E+00
 -1      2201 2.90000E+01 6.42991E+00 4.41055E+00
 -1      2202 2.80605E+01 6.45964E+00 4.24038E+00
 -1      2203 2.81328E+01 6.45736E+00 4.82240E+00
 -1      2204-1.39282E+00-2.24564E+01 2.38808E+00
 -1      2205-2.63376E+00-2.23099E+01 4.76362E+00
 -1      2206-4.26597E+00-2.20841E+01 2.37555E+00
 -1      2207 2.97021E+01-6.37878E+00 7.36250E+00
 -1      2208 2.97721E+01-6.37656E+00 5.77569E+00
 -1      2209 2.86574E+01-6.47615E+00 5.37584E+00
 -1      2210 2.92810E+01-5.52042E+00 6.58452E+00
 -1      2211 2.90684E+01-6.38501E+00 3.37514E+00
 -1      2212 2.19634E+01-9.74611E+00 6.32678E+00
 -1      2213 2.08506E+01-9.97430E+00 5.76434E+00
 -1      2214 2.17190E+01-1.02871E+01 6.41652E+00
 -1      2215 2.19093E+01-9.97418E+00 5.00583E+00
 -1      2216 2.16649E+01-1.05152E+01 5.09557E+00
 -1      2217 1.63671E+01 1.53525E+01 4.99333E+00
 -1      2218 1.76307E+01 1.39713E+01 4.02737E+00
 -1      2219 1.79318E+01 1.35507E+01 5.77106E+00
 -1      2220 2.14398E+01-1.09606E+01 5.75108E+00
 -1      2221 2.14940E+01-1.07325E+01 7.07203E+00
 -1      2222 2.25390E+01 9.11931E+00 8.29538E+00
 -1      2223 2.22338E+01 9.78724E+00 8.17383E+00
 -1      2224 2.25041E+01 9.20122E+00 7.72767E+00
 -1      2225-1.69716E+01-1.47636E+01 2.37868E+00
 -1      2226 5.04303E+01-3.42978E+00 5.00000E+00
 -1      2227 4.66332E+01-3.54993E+00 5.00000E+00
 -1      2228 2.47732E+01 5.38553E+00 3.43387E+00
 -1      2229 2.54797E+01 5.39849E+00 4.38115E+00
 -1      2230 2.44020E+01 5.41105E+00 4.27831E+00
 -1      2231 2.53567E+01 6.27022E+00 3.84885E+00
 -1      2232 2.42791E+01 6.28278E+00 3.74601E+00
 -1      2233 2.49856E+01 6.29574E+00 4.69329E+00
 -1      2234 2.16411E+01 1.44981E+00 8.86205E+00
 -1      2235 2.31686E+01 2.28174E+00 8.86205E+00
 -1      2236 2.14269E+01 3.50843E+00 8.86205E+00
 -1      2237 2.72335E+01 4.71568E+00 6.67519E+00
 -1      2238 2.64981E+01 5.66848E+00 7.88963E+00
 -1      2239 2.72424E+01 4.57067E+00 7.97086E+00
 -1      2240 2.55610E+01 5.02693E+00 6.90012E+00
 -1      2241 2.63053E+01 3.92912E+00 6.98135E+00
 -1      2242 2.55699E+01 4.88192E+00 8.19579E+00
 -1      2243-1.13980E+01-1.93753E+01 2.38894E+00
 -1      2244 2.24671E+01 8.16529E+00 8.97953E+00
 -1      2245 2.24379E+01 7.13340E+00 9.17526E+00
 -1      2246 2.35046E+01 7.82200E+00 9.30473E+00
 -1      2247 2.20151E+01 7.48873E+00 8.15479E+00
 -1      2248 2.30817E+01 8.17733E+00 8.28426E+00
 -1      2249 2.30526E+01 7.14544E+00 8.47999E+00
 -1      2250 9.73857E+01-1.30466E+00 4.88874E+00
 -1      2251 9.67366E+01-3.76830E+00 2.38374E+00
 -1      2252 9.73857E+01-1.30466E+00 2.38374E+00
 -1      2253 2.41885E+01-7.31911E+00 4.85474E+00
 -1      2254 2.47609E+01-7.11664E+00 5.10630E+00
 -1      2255 2.41880E+01-7.31948E+00 5.35631E+00
 -1      2256 2.14870E+01 3.19880E+00 6.80595E+00
 -1      2257 2.08549E+01 4.25241E+00 6.43316E+00
 -1      2258 2.26502E+01 3.95322E+00 7.35130E+00
 -1      2259 2.07949E+01 4.56204E+00 8.48925E+00
 -1      2260 2.25553E+01 9.22913E+00 9.31584E+00
 -1      2261 2.17625E+01 9.65943E+00 9.31584E+00
 -1      2262 2.20605E+01 8.63045E+00 8.97953E+00
 -1      2263 2.12676E+01 9.06074E+00 8.97953E+00
 -1      2264 9.45107E+01-8.10690E+00 2.49962E+00
 -1      2265 2.01378E+01-6.12283E+00 7.89074E-01
 -1      2266 2.03449E+01-5.52338E+00 2.42061E+00
 -1      2267 2.17286E+01-6.35777E+00 1.44948E+00
 -1      2268 2.02774E+01-7.36318E+00 6.60407E-01
 -1      2269 2.04845E+01-6.76373E+00 2.29194E+00
 -1      2270 2.45440E+01-7.16496E+00 2.54570E+00
 -1      2271 2.45440E+01-7.16496E+00 2.04570E+00
 -1      2272 2.39892E+01-7.35442E+00 2.27967E+00
 -1      2273 2.14573E+01 1.03274E+01 9.19430E+00
 -1      2274 3.33850E+01-5.69809E+00 3.49019E+00
 -1      2275 2.42612E+01-7.28258E+00 7.58012E+00
 -1      2276 2.40623E+01-6.85594E+00 8.10634E+00
 -1      2277 2.48337E+01-7.07998E+00 7.81405E+00
 -1      2278 2.38831E+01-7.43494E+00 8.05835E+00
 -1      2279 2.44556E+01-7.23234E+00 8.29229E+00
 -1      2280 2.18357E+01 8.53080E+00 6.79961E+00
 -1      2281 2.23388E+01 9.10982E+00 6.08170E+00
 -1      2282 2.25220E+01 8.64798E+00 6.32007E+00
 -1      2283 2.25473E+01 9.09965E+00 7.24116E+00
 -1      2284 2.27305E+01 8.63780E+00 7.47953E+00
 -1      2285 2.53565E+01-7.01573E+00 5.98602E+00
 -1      2286 2.58564E+01-6.99991E+00 6.28733E+00
 -1      2287 2.58559E+01-6.99993E+00 5.75669E+00
 -1      2288 2.60688E+01-4.48770E+00 3.81438E+00
 -1      2289 2.59761E+01-3.48727E+00 4.28232E+00
 -1      2290 2.68411E+01-4.82201E+00 4.43149E+00
 -1      2291 2.48680E+01-4.11558E+00 4.06714E+00
 -1      2292 2.57331E+01-5.45032E+00 4.21630E+00
 -1      2293 2.56404E+01-4.44990E+00 4.68424E+00
 -1      2294 6.04208E+01-3.17334E+00 5.00000E+00
 -1      2295 2.22590E+01 4.82856E+00 8.48925E+00
 -1      2296 2.28910E+01 3.77495E+00 8.86205E+00
 -1      2297 2.93721E+01-6.47677E+00 9.16079E+00
 -1      2298 2.88976E+01-5.30686E+00 9.16079E+00
 -1      2299 2.93791E+01-5.54055E+00 7.65297E+00
 -1      2300 3.03888E+01-6.35705E+00 8.49219E+00
 -1      2301 2.99143E+01-5.18714E+00 8.49219E+00
 -1      2302 2.86855E+01-6.49850E+00 8.03110E+00
 -1      2303 6.94736E+01-3.08254E+00 7.45000E+00
 -1      2304 2.82643E+01-5.64014E+00 7.25312E+00
 -1      2305 3.11196E+01-6.33392E+00 6.80222E+00
 -1      2306-2.14809E+01 6.38126E+00 7.38144E+00
 -1      2307-2.14811E+01 6.38071E+00 4.93553E+00
 -1      2308-2.07287E+01 8.74831E+00 7.38573E+00
 -1      2309-2.07289E+01 8.74776E+00 4.93982E+00
 -1      2310-2.21432E+01 3.89912E+00 7.38144E+00
 -1      2311 2.48925E+01 3.03821E+00 2.61774E+00
 -1      2312 2.62146E+01 2.30402E+00 3.10529E+00
 -1      2313 2.49156E+01 3.21521E+00 3.66757E+00
 -1      2314 2.61721E+01 3.42563E+00 2.35405E+00
 -1      2315 2.48731E+01 4.33681E+00 2.91634E+00
 -1      2316 2.61951E+01 3.60262E+00 3.40389E+00
 -1      2317 2.25006E+01-9.68699E+00 4.52563E+00
 -1      2318 2.27019E+01-9.22727E+00 4.45523E+00
 -1      2319 2.26224E+01-9.41487E+00 3.98507E+00
 -1      2320 2.66033E+01-5.59944E+00 7.42047E+00
 -1      2321 2.75076E+01-5.78848E+00 7.39581E+00
 -1      2322 2.69491E+01-6.65460E+00 6.93857E+00
 -1      2323 2.74582E+01-5.47124E+00 8.34623E+00
 -1      2324 2.68997E+01-6.33735E+00 7.88899E+00
 -1      2325 2.78040E+01-6.52639E+00 7.86433E+00
 -1      2326 2.71977E+01 6.39102E+00 7.89382E+00
 -1      2327 2.77217E+01 5.29154E+00 8.83235E+00
 -1      2328 2.67487E+01 6.32533E+00 9.06147E+00
 -1      2329 2.55252E+01 6.70227E+00 8.11875E+00
 -1      2330 2.60491E+01 5.60279E+00 9.05728E+00
 -1      2331 3.34846E+01-5.65665E+00 8.46139E+00
 -1      2332 3.26045E+01-5.68450E+00 6.77142E+00
 -1      2333 3.44291E+01-5.62676E+00 6.99375E+00
 -1      2334 2.30707E+01 8.05331E+00 2.86824E+00
 -1      2335 2.30707E+01 8.05331E+00 3.36824E+00
 -1      2336 2.22443E+01 8.10413E+00 2.91552E+00
 -1      2337 2.25905E+01 8.80580E+00 2.05727E+00
 -1      2338 2.25905E+01 8.80580E+00 2.55727E+00
 -1      2339 2.93121E+01 6.11295E+00 9.40907E-01
 -1      2340 1.99238E+01 6.59385E+00 5.91045E+00
 -1      2341 2.06875E+01 7.26225E+00 6.67062E+00
 -1      2342 2.01017E+01 7.97603E+00 6.25045E+00
 -1      2343 2.20351E+01 6.44501E+00 5.72032E+00
 -1      2344 2.14493E+01 7.15879E+00 5.30014E+00
 -1      2345 2.22130E+01 7.82719E+00 6.06032E+00
 -1      2346-2.24160E+01-4.33403E-01 7.49668E+00
 -1      2347 2.55963E+01 4.29397E+00 4.82592E+00
 -1      2348 2.57823E+01 5.19524E+00 3.51036E+00
 -1      2349 2.68953E+01 3.38278E+00 4.26364E+00
 -1      2350 2.70813E+01 4.28405E+00 2.94807E+00
 -1      2351 2.64824E+01 4.97540E+00 4.37011E+00
 -1      2352-9.14183E+00-2.05179E+01 2.38321E+00
 -1      2353-7.58780E+00-2.11738E+01 4.75676E+00
 -1      2354-9.90895E+00-2.00703E+01 4.75125E+00
 -1      2355 2.74095E+01-5.76835E+00 6.32736E+00
 -1      2356 2.31919E+01 7.70977E+00 1.27242E+00
 -1      2357 2.23654E+01 7.76058E+00 1.81969E+00
 -1      2358 2.27197E+01 7.19094E+00 7.67420E-01
 -1      2359 2.25905E+01 8.80580E+00 1.55727E+00
 -1      2360 2.29448E+01 8.23615E+00 5.05000E-01
 -1      2361 2.21183E+01 8.28697E+00 1.05227E+00
 -1      2362 2.31919E+01 7.70977E+00 1.77242E+00
 -1      2363 2.35452E+01 7.24775E+00 1.46713E+00
 -1      2364 2.35430E+01 7.24935E+00 2.00645E+00
 -1      2365 2.43732E+01 7.05413E+00 3.20099E+00
 -1      2366 2.34103E+01 7.60132E+00 3.61345E+00
 -1      2367 2.43847E+01 7.04571E+00 2.68981E+00
 -1      2368 2.36874E+01 6.80445E+00 3.31402E+00
 -1      2369 2.34218E+01 7.59289E+00 3.10227E+00
 -1      2370 1.99792E+01 6.32498E+00 1.63688E+00
 -1      2371 2.39279E+01-6.62236E+00 9.63072E+00
 -1      2372 2.43921E+01-5.94339E+00 9.63072E+00
 -1      2373 2.34103E+01-6.82110E+00 9.29229E+00
 -1      2374 2.38745E+01-6.14213E+00 9.29229E+00
 -1      2375 1.87751E+01-1.05626E+01 4.79647E+00
 -1      2376 1.79101E+01-1.15220E+01 2.57477E+00
 -1      2377 1.88585E+01-1.22722E+01 3.99391E+00
 -1      2378 1.99314E+01-1.11617E+01 2.22170E+00
 -1      2379 2.08798E+01-1.19119E+01 3.64084E+00
 -1      2380 2.00148E+01-1.28713E+01 1.41914E+00
 -1      2381 2.07753E+01 1.14132E+01 8.36388E+00
 -1      2382 2.02508E+01 1.23786E+01 8.54264E+00
 -1      2383 1.78185E+01 1.15439E+01 8.26221E+00
 -1      2384 1.95145E+01 1.10871E+01 6.62610E+00
 -1      2385 1.89901E+01 1.20525E+01 6.80485E+00
 -1      2386 9.52442E+01 7.01770E+00 4.91494E+00
 -1      2387 9.58769E+01 6.15844E+00 2.41347E+00
 -1      2388 9.45068E+01 8.10800E+00 2.50147E+00
 -1      2389 2.71747E+01-6.64746E+00 6.33618E+00
 -1      2390 2.01333E+01-1.26392E+01 8.22226E+00
 -1      2391 1.80100E+01-1.33982E+01 8.22226E+00
 -1      2392-2.22372E+01-3.16603E+00 2.39012E+00
 -1      2393 2.32981E+01 7.77414E+00 6.99711E-01
 -1      2394 2.73711E+01 2.78596E+00 1.42080E+00
 -1      2395 2.83955E+01 3.79534E+00 1.42080E+00
 -1      2396 2.70335E+01 4.09984E+00 2.07539E+00
 -1      2397 2.69105E+01 4.19437E+00 6.54594E-01
 -1      2398 2.79348E+01 5.20375E+00 6.54594E-01
 -1      2399 1.10253E+01 1.95754E+01 7.41804E+00
 -1      2400 8.78562E+00 2.06889E+01 7.41804E+00
 -1      2401 2.61640E+01-6.19339E+00 6.84612E+00
 -1      2402 2.64398E+01-6.67072E+00 6.54133E+00
 -1      2403 2.64603E+01-6.93130E+00 7.31465E+00
 -1      2404 2.59510E+01-6.94742E+00 6.91741E+00
 -1      2405 9.45107E+01-8.10690E+00 7.49962E+00
 -1      2406 2.64678E+01 6.80325E+00 7.21160E+00
 -1      2407 2.74408E+01 5.76946E+00 6.98247E+00
 -1      2408 2.57683E+01 6.08071E+00 7.20741E+00
 -1      2409 1.29792E+01 1.83151E+01 2.45021E+00
 -1      2410 1.22034E+01 1.87352E+01 4.86825E+00
 -1      2411 1.07745E+01 1.97355E+01 2.43910E+00
 -1      2412 2.47487E+00-2.22732E+01 4.76654E+00
 -1      2413 8.24181E-01-2.24844E+01 2.38138E+00
 -1      2414 3.67766E+00-2.21779E+01 2.38516E+00
 -1      2415 1.86533E+01 1.25320E+01 3.08508E+00
 -1      2416 1.89545E+01 1.21114E+01 4.82876E+00
 -1      2417 1.95751E+01 1.10629E+01 3.21976E+00
 -1      2418 1.93822E+01 1.13505E+01 5.78673E+00
 -1      2419 2.61145E+01-5.87614E+00 7.79654E+00
 -1      2420 2.31555E+01-8.29952E+00 9.50000E+00
 -1      2421 2.28000E+01-4.57430E+00 6.72885E+00
 -1      2422 2.20666E+01-4.24802E+00 6.10011E+00
 -1      2423 2.23346E+01-5.48655E+00 6.54376E+00
 -1      2424 2.32499E+01-3.57234E+00 5.88726E+00
 -1      2425 2.35179E+01-4.81087E+00 6.33091E+00
 -1      2426 2.27845E+01-4.48458E+00 5.70217E+00
 -1      2427 9.58722E+01-6.16808E+00 7.38347E+00
 -1      2428 8.78622E+01 1.21587E+01 2.49857E+00
 -1      2429 2.85340E+01 2.25732E+00 1.42080E+00
 -1      2430 2.99755E+01 2.09937E+00 2.61554E+00
 -1      2431 2.84050E+01 4.45386E-01 1.82897E+00
 -1      2432 2.89356E+01 2.53348E+00 4.03634E+00
 -1      2433 2.73651E+01 8.79496E-01 3.24977E+00
 -1      2434 2.88065E+01 7.21549E-01 4.44451E+00
 -1      2435 9.02555E+01-1.12969E+01 2.38238E+00
 -1      2436 9.24422E+01-9.98431E+00 2.38218E+00
 -1      2437 8.91257E+01-1.17887E+01 4.88397E+00
 -1      2438 9.13124E+01-1.04761E+01 4.88376E+00
 -1      2439 9.58722E+01-6.16808E+00 2.38347E+00
 -1      2440 9.73959E+01 1.24538E+00 2.41151E+00
 -1      2441-3.58680E+00-2.22115E+01 7.37555E+00
 -1      2442-5.18202E+00-2.18331E+01 4.74910E+00
 -1      2443 2.92500E+01-9.04863E-01 1.82897E+00
 -1      2444 2.84430E+01-1.75880E+00 3.55838E+00
 -1      2445 3.08206E+01 7.49125E-01 2.61554E+00
 -1      2446 3.00135E+01-1.04814E-01 4.34496E+00
 -1      2447 3.04570E+01-1.73123E+00 1.72942E+00
 -1      2448 2.02845E+01 7.48013E+00 4.45696E+00
 -1      2449 1.97132E+01 8.83094E+00 4.47328E+00
 -1      2450-8.40406E+00-2.08680E+01 7.38321E+00
 -1      2451-1.09998E+01-1.95895E+01 7.36804E+00
 -1      2452 2.64029E+01-6.70317E+00 1.41405E+00
 -1      2453 2.58122E+01-6.95835E+00 1.79520E+00
 -1      2454 2.58650E+01-6.94400E+00 6.74505E-01
 -1      2455 2.61192E+01-6.23263E+00 1.86023E+00
 -1      2456 2.61720E+01-6.21828E+00 7.39542E-01
 -1      2457 2.55813E+01-6.47346E+00 1.12069E+00
 -1      2458 2.27009E+01-1.72767E+00 3.09576E+00
 -1      2459 2.15031E+01-4.84839E-02 4.01232E+00
 -1      2460 2.27613E+01-1.67151E+00 4.30658E+00
 -1      2461 2.11979E+01-1.67918E+00 3.75344E+00
 -1      2462 2.24561E+01-3.30221E+00 4.04769E+00
 -1      2463 2.12583E+01-1.62303E+00 4.96426E+00
 -1      2464 2.31307E+01 1.55627E+00 4.27609E+00
 -1      2465 2.26126E+01 1.96453E+00 3.07314E+00
 -1      2466 2.39706E+01 9.09820E-01 3.36180E+00
 -1      2467 2.27372E+01 3.61777E+00 3.99459E+00
 -1      2468 2.40952E+01 2.56306E+00 4.28326E+00
 -1      2469 2.35770E+01 2.97131E+00 3.08030E+00
 -1      2470 2.16411E+01 1.44981E+00 6.19705E+00
 -1      2471 2.35086E+01 1.15202E+00 7.24837E+00
 -1      2472 2.32687E+01 3.05456E+00 6.46082E+00
 -1      2473 2.18675E+01-2.97786E-01 5.72133E+00
 -1      2474 2.16276E+01 1.60476E+00 4.93377E+00
 -1      2475 2.34952E+01 1.30697E+00 5.98510E+00
 -1      2476 1.88293E+01-1.03345E+01 6.11741E+00
 -1      2477 1.95662E+01-9.09475E+00 4.75427E+00
 -1      2478 1.96203E+01-8.86667E+00 6.07522E+00
 -1      2479 2.31271E+01-8.32234E+00 5.05000E-01
 -1      2480 2.26425E+01-8.17655E+00 1.16541E+00
 -1      2481 2.27893E+01-8.78832E+00 5.05000E-01
 -1      2482 2.23527E+01-7.74391E+00 6.60407E-01
 -1      2483 2.20150E+01-8.20989E+00 6.60407E-01
 -1      2484 2.60491E+01 3.52016E+00 9.33252E-01
 -1      2485 2.61727E+01 4.87889E+00 6.54594E-01
 -1      2486 2.53114E+01 4.20468E+00 9.33252E-01
 -1      2487 2.57114E+01 4.83403E+00 1.58785E+00
 -1      2488 2.75717E+01-4.54886E+00 8.50807E-01
 -1      2489 2.81637E+01-3.54629E+00 8.50807E-01
 -1      2490 2.65438E+01-3.62828E+00 8.50807E-01
 -1      2491 1.09561E+01-1.96423E+01 7.43657E+00
 -1      2492 2.72210E+01 1.10152E+00 1.42080E+00
 -1      2493 2.70919E+01-7.10417E-01 1.82897E+00
 -1      2494 4.93901E+00-2.19502E+01 4.76364E+00
 -1      2495 5.99851E+00-2.16620E+01 2.37848E+00
 -1      2496 8.53064E+01-1.24961E+01 7.38237E+00
 -1      2497 2.03851E+01 7.80344E+00 3.63224E+00
 -1      2498 2.03529E+01 7.63795E+00 2.68916E+00
 -1      2499 1.98138E+01 9.15425E+00 3.64856E+00
 -1      2500 2.17962E+01 9.02210E+00 3.04763E+00
 -1      2501 1.97816E+01 8.98876E+00 2.70548E+00
 -1      2502 8.40233E+01-1.23536E+01 4.88261E+00
 -1      2503 8.53064E+01-1.24961E+01 2.38237E+00
 -1      2504 8.27777E+01-1.22851E+01 2.50024E+00
 -1      2505 2.04816E+01 4.63730E+00 5.42397E+00
 -1      2506 2.09554E+01 3.76200E+00 4.33972E+00
 -1      2507 2.01066E+01 6.09795E+00 4.11696E+00
 -1      2508 2.17453E+01 4.90131E+00 3.87589E+00
 -1      2509 2.05805E+01 5.22265E+00 3.03270E+00
 -1      2510 2.15031E+01-4.84839E-02 1.67732E+00
 -1      2511 2.11095E+01 2.01301E+00 3.73082E+00
 -1      2512 2.11095E+01 2.01301E+00 1.39582E+00
 -1      2513 8.02483E+01-1.15062E+01 7.38460E+00
 -1      2514 8.14681E+01-1.19812E+01 4.88485E+00
 -1      2515 7.78596E+01-1.02006E+01 7.39833E+00
 -1      2516 7.90795E+01-1.06757E+01 4.89857E+00
 -1      2517 8.02483E+01-1.15062E+01 2.38460E+00
 -1      2518 2.23752E+01 9.34328E+00 1.72802E+00
 -1      2519 7.38090E-01 2.24861E+01 2.38393E+00
 -1      2520 7.78596E+01-1.02006E+01 2.39833E+00
 -1      2521 2.59477E+01 6.66652E+00 3.03227E+00
 -1      2522 2.59477E+01 6.66652E+00 3.53227E+00
 -1      2523 2.56593E+01 6.06697E+00 2.97805E+00
 -1      2524 2.49386E+01 6.85682E+00 2.95578E+00
 -1      2525 2.49386E+01 6.85682E+00 3.45578E+00
 -1      2526 2.19827E+01-8.13460E+00 7.11385E+00
 -1      2527 2.13897E+01-7.59345E+00 7.33110E+00
 -1      2528 2.13303E+01-8.74058E+00 7.66663E+00
 -1      2529 2.16164E+01-7.99310E+00 6.19698E+00
 -1      2530 2.15570E+01-9.14024E+00 6.53251E+00
 -1      2531 2.09641E+01-8.59909E+00 6.74976E+00
 -1      2532-1.32241E+01-1.81681E+01 7.36804E+00
 -1      2533-1.21652E+01-1.89277E+01 4.75698E+00
 -1      2534 2.83367E+01 3.22484E+00 5.45838E+00
 -1      2535 2.95132E+01 3.95474E+00 4.85903E+00
 -1      2536 2.92739E+01 3.86638E+00 6.44789E+00
 -1      2537 2.74729E+01 4.80403E+00 5.08633E+00
 -1      2538 2.84100E+01 5.44558E+00 6.07583E+00
 -1      2539 2.32174E+01 2.90126E+00 1.39582E+00
 -1      2540 2.36109E+01 8.39768E-01 1.67732E+00
 -1      2541-1.72132E+01 1.44898E+01 7.40101E+00
 -1      2542-1.63481E+01 1.54143E+01 4.77730E+00
 -1      2543-1.48618E+01 1.68546E+01 7.37629E+00
 -1      2544 5.87395E+00 2.17183E+01 2.43101E+00
 -1      2545-6.46876E+00 2.15374E+01 7.41059E+00
 -1      2546-7.69539E+00 2.11390E+01 4.78804E+00
 -1      2547-8.32503E+00 2.09005E+01 7.37744E+00
 -1      2548 2.64922E+01-6.70035E+00 1.89835E+00
 -1      2549 2.59014E+01-6.95553E+00 2.27950E+00
 -1      2550 2.22577E+01 9.73849E+00 7.34342E+00
 -1      2551-6.77309E+00 2.14047E+01 2.37744E+00
 -1      2552-4.29720E+00 2.20710E+01 2.38271E+00
 -1      2553-5.21951E+00 2.18053E+01 4.79330E+00
 -1      2554 7.46351E+01 6.57949E+00 2.49997E+00
 -1      2555 7.46351E+01 6.57949E+00 7.49997E+00
 -1      2556 7.62020E+01 8.87907E+00 4.83465E+00
 -1      2557 3.26555E+01-3.77404E-01 7.48342E+00
 -1      2558 3.46672E+01-1.30757E+00 7.48342E+00
 -1      2559 3.42200E+01 1.53691E+00 7.48342E+00
 -1      2560-2.24988E+01-2.44689E-02 2.38345E+00
 -1      2561-2.22864E+01-1.95279E+00 4.77358E+00
 -1      2562 1.88444E+01-1.22938E+01 5.79703E+00
 -1      2563 2.08658E+01-1.19335E+01 5.44396E+00
 -1      2564 2.09199E+01-1.17055E+01 6.76491E+00
 -1      2565 2.25707E+01-9.24508E+00 6.34960E+00
 -1      2566 2.28131E+01-8.64462E+00 6.48987E+00
 -1      2567 2.28131E+01-8.64462E+00 5.99487E+00
 -1      2568 1.45490E+01 1.71506E+01 4.93469E+00
 -1      2569 2.31078E+01 7.93419E+00 6.24525E+00
 -1      2570 2.31078E+01 7.93419E+00 6.74025E+00
 -1      2571 2.25220E+01 8.64798E+00 5.82507E+00
 -1      2572 2.45772E+01-6.66673E+00 9.63072E+00
 -1      2573 2.60916E+01 2.39855E+00 1.68449E+00
 -1      2574 2.62027E+01 1.09030E+00 9.04426E-01
 -1      2575 2.50462E+01 6.08357E-01 2.58891E+00
 -1      2576 2.45754E+01 1.84656E+00 1.68449E+00
 -1      2577 2.46865E+01 5.38305E-01 9.04426E-01
 -1      2578 7.38712E+01-5.62587E+00 7.45000E+00
 -1      2579 7.46670E+01-6.61034E+00 4.95004E+00
 -1      2580 7.33122E+01-4.35143E+00 4.95001E+00
 -1      2581 3.88661E+01 3.34865E+00 7.07979E+00
 -1      2582 3.88593E+01 1.33523E+00 5.00000E+00
 -1      2583 3.73946E+01 6.30184E-02 7.48342E+00
 -1      2584-2.22021E+01 3.33142E+00 4.87812E+00
 -1      2585-2.18839E+01 5.19189E+00 2.38144E+00
 -1      2586-1.79452E+01 1.35336E+01 4.77773E+00
 -1      2587-1.95312E+01 1.09083E+01 4.93080E+00
 -1      2588-1.82582E+01 1.31403E+01 7.37671E+00
 -1      2589 9.45068E+01 8.10800E+00 7.50147E+00
 -1      2590 9.58926E+01 6.13125E+00 7.41347E+00
 -1      2591 2.53271E+01-7.02240E+00 9.27202E+00
 -1      2592 2.58275E+01-6.99056E+00 8.85391E+00
 -1      2593 2.52198E+01-6.57898E+00 8.84334E+00
 -1      2594 2.54736E+01-7.00176E+00 8.71262E+00
 -1      2595 2.91383E+01 4.50139E+00 8.83235E+00
 -1      2596 3.02415E+01 3.01054E+00 7.61554E+00
 -1      2597 3.03358E+01 5.46650E+00 8.64201E+00
 -1      2598 2.93681E+01 6.32234E+00 7.47436E+00
 -1      2599 3.04713E+01 4.83149E+00 6.25755E+00
 -1      2600 2.06897E+01-9.94378E+00 2.22170E+00
 -1      2601 2.14384E+01-1.04991E+01 8.37642E-01
 -1      2602 2.15452E+01-1.07577E+01 3.05934E+00
 -1      2603 2.06801E+01-1.17170E+01 8.37642E-01
 -1      2604 7.60215E+01 8.69204E+00 2.49997E+00
 -1      2605 2.31553E+01-5.23595E+00 1.57990E+00
 -1      2606 2.20551E+01-5.54322E+00 2.25161E+00
 -1      2607 2.19923E+01-4.23789E+00 2.20751E+00
 -1      2608 2.36214E+01-5.66175E+00 2.25336E+00
 -1      2609 2.35587E+01-4.35642E+00 2.20927E+00
 -1      2610 2.24585E+01-4.66369E+00 2.88097E+00
 -1      2611 6.53181E+00 2.15068E+01 7.43101E+00
 -1      2612 9.36260E+01 9.02147E+00 4.89837E+00
 -1      2613 9.24572E+01 9.96371E+00 2.39690E+00
 -1      2614-2.17666E+01-5.62259E+00 7.39012E+00
 -1      2615-2.22308E+01-3.23534E+00 7.39012E+00
 -1      2616-2.20581E+01-4.43432E+00 4.77845E+00
 -1      2617-1.46977E+00 2.24518E+01 7.38186E+00
 -1      2618-2.68893E+00 2.23158E+01 4.76457E+00
 -1      2619-1.46013E-01 2.24637E+01 4.76579E+00
 -1      2620 2.36569E+01 7.19871E+00 9.30473E+00
 -1      2621 2.25902E+01 6.51010E+00 9.17526E+00
 -1      2622 7.33039E+01 4.32150E+00 7.50000E+00
 -1      2623 7.33039E+01 4.32150E+00 2.50000E+00
 -1      2624 2.86507E+01 6.44097E+00 5.50621E+00
 -1      2625 2.64752E+01 6.46411E+00 6.54594E-01
 -1      2626 2.60729E+01 5.80724E+00 6.54594E-01
 -1      2627 2.68756E+01 5.55684E+00 6.54594E-01
 -1      2628 2.40020E+01 7.07965E+00 4.04544E+00
 -1      2629 2.45675E+01 6.88233E+00 4.30023E+00
 -1      2630 1.58126E+01 1.57694E+01 3.96874E+00
 -1      2631 2.60526E+01-5.94144E-01 9.04426E-01
 -1      2632 3.66850E+00 2.21933E+01 2.38732E+00
 -1      2633 5.01877E+00 2.19208E+01 4.81833E+00
 -1      2634 2.76815E+01 6.76484E+00 6.41284E+00
 -1      2635 2.71636E+01 6.78123E+00 5.72904E+00
 -1      2636 2.76802E+01 5.85781E+00 5.39361E+00
 -1      2637 2.07788E+01 5.28705E+00 9.17526E+00
 -1      2638 2.22429E+01 5.55357E+00 9.17526E+00
 -1      2639 2.20020E+01 5.73184E+00 7.66451E+00
 -1      2640 2.56451E+01 3.90313E+00 9.13851E+00
 -1      2641 2.64443E+01 3.00412E+00 9.13851E+00
 -1      2642 2.47982E+01 3.34186E+00 8.00056E+00
 -1      2643 2.41291E+01 3.46088E+00 8.86205E+00
 -1      2644 2.49283E+01 2.56188E+00 8.86205E+00
 -1      2645 3.46949E+01-8.28972E-01 2.48342E+00
 -1      2646 2.23485E+01 9.40516E+00 2.27324E+00
 -1      2647 2.83787E+01 6.35365E+00 8.83235E+00
 -1      2648 2.22682E+01 9.27477E+00 5.59654E+00
 -1      2649 2.19169E+01 1.00121E+01 5.34459E+00
 -1      2650 2.17278E+01 8.86428E+00 4.81543E+00
 -1      2651 2.23688E+01 9.59808E+00 4.77183E+00
 -1      2652 2.20175E+01 1.03354E+01 4.51987E+00
 -1      2653 2.00029E+01 1.03021E+01 4.17772E+00
 -1      2654 8.90996E+01 1.17943E+01 4.97654E+00
 -1      2655 9.02477E+01 1.13053E+01 2.47797E+00
 -1      2656 9.13091E+01 1.04527E+01 4.89547E+00
 -1      2657 2.53880E+01 6.80730E+00 6.47873E+00
 -1      2658 2.49294E+01 6.82181E+00 6.12536E+00
 -1      2659 2.49294E+01 6.82181E+00 6.62036E+00
 -1      2660 2.45675E+01 6.88233E+00 4.80023E+00
 -1      2661 2.56451E+01 6.86978E+00 4.90306E+00
 -1      2662 2.56451E+01 6.86978E+00 4.40306E+00
 -1      2663 8.52098E+01 1.24978E+01 2.39596E+00
 -1      2664 8.65484E+01 1.23065E+01 4.89453E+00
 -1      2665 2.53777E+01-6.97210E+00 2.12569E+00
 -1      2666 2.53777E+01-6.97210E+00 1.62569E+00
 -1      2667 1.95589E+01-9.00466E+00 7.32301E+00
 -1      2668 7.33122E+01-4.35143E+00 7.50001E+00
 -1      2669 7.15335E+01-1.43397E+00 7.50001E+00
 -1      2670 3.12351E+01-5.04195E+00 8.49219E+00
 -1      2671-2.24716E+01 8.49141E-01 4.88013E+00
 -1      2672 3.19590E+01-5.95504E+00 8.31003E+00
 -1      2673 2.25220E+01 8.64798E+00 5.32507E+00
 -1      2674-1.64714E-01-2.24790E+01 4.76946E+00
 -1      2675 2.25167E+01-7.04856E+00 1.18368E+00
 -1      2676 2.23330E+01-5.90957E+00 5.23274E-01
 -1      2677 2.23770E+01-5.80821E+00 1.31235E+00
 -1      2678 2.16845E+01-6.45913E+00 6.60407E-01
 -1      2679 2.15449E+01-5.21878E+00 7.89074E-01
 -1      2680 2.45534E+01 5.57955E+00 7.51378E-01
 -1      2681 2.53832E+01 5.25034E+00 7.51378E-01
 -1      2682 2.52833E+01 6.17869E+00 7.51378E-01
 -1      2683 2.64725E+01-7.76436E-01 7.45919E+00
 -1      2684 2.66398E+01-1.25744E+00 6.44233E+00
 -1      2685 2.53331E+01 2.43533E-01 6.75172E+00
 -1      2686 2.61811E+01-3.11651E+00 7.17073E+00
 -1      2687 2.48745E+01-1.61554E+00 7.48012E+00
 -1      2688 2.50417E+01-2.09654E+00 6.46326E+00
 -1      2689 2.44652E+01-4.61542E+00 6.18229E+00
 -1      2690 2.44172E+01-4.51438E+00 7.25069E+00
 -1      2691 2.39997E+01-5.52766E+00 5.99720E+00
 -1      2692 2.48990E+01-5.23118E+00 6.91698E+00
 -1      2693 2.39518E+01-5.42663E+00 7.06560E+00
 -1      2694 2.28615E+01-8.82197E+00 3.67755E+00
 -1      2695 2.26605E+01-8.22651E+00 3.89466E+00
 -1      2696 2.19753E+01-8.74760E+00 3.54952E+00
 -1      2697 2.32159E+01-8.15952E+00 3.22711E+00
 -1      2698 2.25306E+01-8.68061E+00 2.88197E+00
 -1      2699 2.23296E+01-8.08515E+00 3.09907E+00
 -1      2700-2.17666E+01-5.62259E+00 2.39012E+00
 -1      2701-2.13295E+01-6.85145E+00 4.87120E+00
 -1      2702 2.08110E+01-5.94918E+00 3.09407E+00
 -1      2703 2.07483E+01-4.64385E+00 3.04997E+00
 -1      2704 2.20351E+01-1.01739E+01 9.09844E+00
 -1      2705 2.24183E+01-9.46844E+00 9.09844E+00
 -1      2706 2.98736E+01-2.16699E-01 6.04744E+00
 -1      2707 2.83031E+01-1.87069E+00 5.26087E+00
 -1      2708 2.95101E+01-2.69705E+00 5.16132E+00
 -1      2709 2.71090E+01-5.04818E+00 7.01315E+00
 -1      2710 2.79638E+01-4.91997E+00 7.93891E+00
 -1      2711 2.78657E+01-4.89983E+00 6.87045E+00
 -1      2712 3.24317E+01 5.25823E+00 1.71598E+00
 -1      2713 3.30256E+01 3.87742E+00 4.19941E+00
 -1      2714 2.25930E+01 5.34528E+00 2.16324E+00
 -1      2715 2.16178E+01 5.12834E+00 1.39582E+00
 -1      2716 2.09543E+01 6.54192E+00 2.40430E+00
 -1      2717 2.19917E+01 6.44761E+00 7.67420E-01
 -1      2718 2.49009E+01 5.00094E+00 9.05728E+00
 -1      2719 2.40539E+01 4.43967E+00 7.91933E+00
 -1      2720 2.36627E+01 5.31501E+00 9.05728E+00
 -1      2721 9.52380E+01-7.04902E+00 4.88309E+00
 -1      2722 9.36137E+01-9.02517E+00 4.88180E+00
 -1      2723 1.93586E+01-9.06015E+00 1.32874E+00
 -1      2724 1.86003E+01-1.02781E+01 1.32874E+00
 -1      2725 2.08332E+01 6.88546E+00 3.50012E+00
 -1      2726 2.22765E+01 8.26962E+00 3.85860E+00
 -1      2727 1.33675E+01-1.80964E+01 7.42525E+00
 -1      2728 2.45329E+01 2.96816E+00 9.33252E-01
 -1      2729 2.36621E+01-6.18973E+00 6.33468E+00
 -1      2730 2.46093E+01-5.99429E+00 6.18606E+00
 -1      2731 2.45613E+01-5.89325E+00 7.25446E+00
 -1      2732 2.28843E+01-4.48322E+00 3.71574E+00
 -1      2733 2.18525E+01-4.16891E+00 3.81014E+00
 -1      2734 2.29446E+01-4.42707E+00 4.92656E+00
 -1      2735 2.19128E+01-4.11275E+00 5.02096E+00
 -1      2736 2.23410E+01-5.29377E+00 4.68901E+00
 -1      2737 2.21759E+01 7.94631E+00 4.68331E+00
 -1      2738 2.35855E+01-3.23676E+00 3.68598E+00
 -1      2739 2.36459E+01-3.18061E+00 4.89680E+00
 -1      2740 2.40740E+01-4.36162E+00 4.56484E+00
 -1      2741 2.25306E+01-8.68061E+00 2.38197E+00
 -1      2742 2.27527E+01-7.73989E+00 2.41766E+00
 -1      2743 2.17563E+01-8.10218E+00 2.03737E+00
 -1      2744 2.36389E+01-7.81426E+00 2.04570E+00
 -1      2745 2.26425E+01-8.17655E+00 1.66541E+00
 -1      2746 2.28646E+01-7.23583E+00 1.70110E+00
 -1      2747 2.13903E+01 7.54364E+00 1.05227E+00
 -1      2748 9.24692E+01-9.96823E+00 7.38218E+00
 -1      2749 2.67165E+01-5.86596E+00 2.22912E+00
 -1      2750 2.71921E+01-6.67820E+00 2.12818E+00
 -1      2751 2.64987E+01-6.58885E+00 2.64839E+00
 -1      2752 2.30707E+01 8.05331E+00 4.36824E+00
 -1      2753 2.26226E+01 8.97129E+00 4.50035E+00
 -1      2754 2.50803E+01-6.62536E+00 8.02667E+00
 -1      2755 2.56976E+01-6.50862E+00 7.82372E+00
 -1      2756 2.52856E+01-5.83864E+00 8.20531E+00
 -1      2757 2.50578E+01-6.58684E+00 7.42515E+00
 -1      2758 2.46457E+01-5.91686E+00 7.80674E+00
 -1      2759 2.52631E+01-5.80012E+00 7.60379E+00
 -1      2760 8.40431E+00-2.08330E+01 2.38351E+00
 -1      2761 2.11359E+01-3.18259E+00 5.45954E+00
 -1      2762 2.10755E+01-3.23875E+00 4.24872E+00
 -1      2763 3.34412E+01-5.65781E+00 1.65186E+00
 -1      2764 3.51909E+01-4.66188E+00 1.65186E+00
 -1      2765 3.36478E+01-3.21056E+00 1.83834E+00
 -1      2766 2.69709E+01-6.65391E+00 5.75618E+00
 -1      2767 2.64393E+01-6.67073E+00 6.01070E+00
 -1      2768 2.43726E+01 7.01282E+00 6.37750E+00
 -1      2769 2.43625E+01 7.02026E+00 6.88669E+00
 -1      2770 2.19040E+01 8.90691E+00 1.05227E+00
 -1      2771 2.13127E+01 8.48131E+00 1.05227E+00
 -1      2772 2.11031E+01 9.40203E+00 1.05227E+00
 -1      2773 2.28457E+01 7.00809E+00 2.63066E+00
 -1      2774 2.24718E+01 5.68883E+00 3.25906E+00
 -1      2775 3.19642E+01 5.41497E+00 8.46177E+00
 -1      2776 3.20997E+01 4.77997E+00 6.07732E+00
 -1      2777 3.41630E+01 4.87090E+00 8.46177E+00
 -1      2778 3.24404E+01 2.46647E+00 7.61554E+00
 -1      2779 2.71738E+01-1.26901E+00 9.09379E+00
 -1      2780 2.76920E+01-2.72222E+00 7.52569E+00
 -1      2781 2.76324E+01 5.90064E-01 8.36539E+00
 -1      2782 2.88519E+01-1.35572E+00 8.43190E+00
 -1      2783 2.81507E+01-8.63149E-01 6.79729E+00
 -1      2784 2.58966E+01-6.94914E+00 7.44249E+00
 -1      2785 2.60855E+01 4.92084E-01 3.51345E+00
 -1      2786 2.51211E+01-5.14704E-01 3.50629E+00
 -1      2787 2.40817E+01-3.98431E-01 2.58174E+00
 -1      2788 2.61967E+01-8.16166E-01 2.73339E+00
 -1      2789 3.38793E+01 3.85040E+00 5.94520E+00
 -1      2790 3.21567E+01 1.44597E+00 5.09897E+00
 -1      2791 8.27346E+01 1.22743E+01 2.49978E+00
 -1      2792 8.00759E+01 1.14417E+01 2.39081E+00
 -1      2793 2.82120E+01-2.11836E+00 1.82897E+00
 -1      2794 2.94190E+01-2.94472E+00 1.72942E+00
 -1      2795 1.74663E+01 1.21525E+01 1.51853E+00
 -1      2796 2.30686E+01 8.18695E+00 7.74587E+00
 -1      2797 2.30395E+01 7.15506E+00 7.94159E+00
 -1      2798 2.29957E+01-7.71463E+00 1.36011E+00
 -1      2799 2.34802E+01-7.86042E+00 6.99707E-01
 -1      2800 2.30012E+01-7.19436E+00 5.23274E-01
 -1      2801 2.36442E+01-7.16507E+00 1.22298E+00
 -1      2802 2.34379E+01-7.21880E+00 2.76281E+00
 -1      2803 2.36326E+01-7.11321E+00 3.52703E+00
 -1      2804 2.27680E+01-6.76654E+00 3.18464E+00
 -1      2805 2.31911E+01-6.42128E+00 2.50323E+00
 -1      2806 2.33858E+01-6.31569E+00 3.26745E+00
 -1      2807 2.77068E+01-3.55753E+00 8.77812E+00
 -1      2808 2.84677E+01-3.49430E+00 7.21002E+00
 -1      2809 2.86093E+01-2.87216E+00 8.43190E+00
 -1      2810 2.81054E+01-4.29783E+00 9.16079E+00
 -1      2811 2.88663E+01-4.23461E+00 7.59269E+00
 -1      2812 2.37380E+01-7.00091E+00 7.38968E+00
 -1      2813 2.36536E+01-6.97729E+00 6.83740E+00
 -1      2814 2.35588E+01-7.57991E+00 7.34170E+00
 -1      2815 2.43560E+01-6.67997E+00 7.07582E+00
 -1      2816 2.41768E+01-7.25897E+00 7.02784E+00
 -1      2817 9.65573E+01 3.64032E+00 4.91847E+00
 -1      2818 2.61496E+01-4.69255E+00 9.18544E+00
 -1      2819 2.52982E+01-4.61652E+00 8.99269E+00
 -1      2820 2.60666E+01-5.71879E+00 9.18544E+00
 -1      2821 2.52152E+01-5.64276E+00 8.99269E+00
 -1      2822 2.57024E+01-5.20617E+00 8.17813E+00
 -1      2823 2.47609E+01-7.11664E+00 4.60630E+00
 -1      2824 2.47387E+01-7.05937E+00 3.80992E+00
 -1      2825 2.42726E+01-6.71963E+00 4.40622E+00
 -1      2826 2.41664E+01-7.26185E+00 4.05836E+00
 -1      2827 2.00012E+01-8.01661E+00 1.98915E+00
 -1      2828 2.17720E+01-9.78703E+00 6.90745E-01
 -1      2829 2.12256E+01-8.64166E+00 6.60407E-01
 -1      2830 2.25614E+01-9.35526E+00 6.90745E-01
 -1      2831 2.24146E+01-8.74349E+00 1.35115E+00
 -1      2832 2.39921E+01-7.35234E+00 1.74040E+00
 -1      2833 2.61842E+01-2.16238E+00 2.98794E+00
 -1      2834 2.60057E+01-2.02380E+00 4.09651E+00
 -1      2835 2.72064E+01-2.39591E+00 3.84375E+00
 -1      2836 2.49538E+01-3.25374E+00 3.42651E+00
 -1      2837 2.61546E+01-3.62585E+00 3.17375E+00
 -1      2838 9.61023E+01-4.64924E+00 4.88336E+00
 -1      2839 2.56834E+01-1.88138E+00 9.09379E+00
 -1      2840 2.45440E+01-8.61411E-01 8.38633E+00
 -1      2841 2.42052E+01-2.12125E+00 9.00239E+00
 -1      2842 2.45357E+01-2.87538E+00 8.09619E+00
 -1      2843 2.33963E+01-1.85541E+00 7.38872E+00
 -1      2844 1.99846E+01-7.99902E+00 7.90435E+00
 -1      2845 1.91338E+01-8.58487E+00 8.78036E+00
 -1      2846 2.09052E+01-8.32080E+00 9.12399E+00
 -1      2847 2.04795E+01-9.32643E+00 8.54265E+00
 -1      2848 2.42364E+01-7.19416E+00 6.99707E-01
 -1      2849 2.37574E+01-6.52810E+00 5.23274E-01
 -1      2850 2.35130E+01-6.68627E+00 1.56397E+00
 -1      2851 2.41053E+01-6.71536E+00 1.04070E+00
 -1      2852 2.37410E+01-5.54251E+00 3.26213E+00
 -1      2853 2.29470E+01-5.78855E+00 3.75984E+00
 -1      2854 2.46056E+01-5.88918E+00 3.60452E+00
 -1      2855 2.41667E+01-5.36204E+00 4.09690E+00
 -1      2856 2.38116E+01-6.13522E+00 4.10222E+00
 -1      2857 1.96184E+01-7.85752E+00 6.98748E+00
 -1      2858 2.32262E+01-8.02661E+00 6.58063E+00
 -1      2859 2.32358E+01-7.97187E+00 5.94099E+00
 -1      2860 2.26225E+01-7.91624E+00 6.56550E+00
 -1      2861 2.30451E+01-7.24350E+00 6.51162E+00
 -1      2862 2.26321E+01-7.86151E+00 5.92586E+00
 -1      2863 2.69247E+01-4.88287E+00 1.59035E+00
 -1      2864 2.57158E+01-5.66597E+00 1.53037E+00
 -1      2865 2.69313E+01-4.77138E+00 2.34038E+00
 -1      2866 2.59306E+01-4.57139E+00 1.64164E+00
 -1      2867 2.57223E+01-5.55448E+00 2.28041E+00
 -1      2868 2.57999E+01-5.62445E+00 6.15932E+00
 -1      2869 2.65006E+01-4.75710E+00 6.31196E+00
 -1      2870 2.57519E+01-5.52342E+00 7.22771E+00
 -1      2871 2.56476E+01-4.46487E+00 6.00123E+00
 -1      2872 2.55997E+01-4.36383E+00 7.06962E+00
 -1      2873 2.19980E+01 6.56413E+00 4.34331E+00
 -1      2874 2.76289E+01 6.29747E+00 9.21640E+00
 -1      2875 2.67934E+01 4.50497E+00 9.13851E+00
 -1      2876 2.82100E+01 3.71483E+00 9.13851E+00
 -1      2877 2.23467E+01-5.42219E+00 7.50081E+00
 -1      2878 2.35301E+01-4.74651E+00 7.28797E+00
 -1      2879 2.30647E+01-5.65875E+00 7.10287E+00
 -1      2880 2.96075E+01 6.41069E+00 5.88550E+00
 -1      2881 1.83881E+01 1.06834E+01 1.65321E+00
 -1      2882 2.80779E+01 6.36317E+00 8.04875E+00
 -1      2883 2.67528E+01 1.65339E+00 8.36539E+00
 -1      2884 2.85186E+01 2.36409E+00 8.36539E+00
 -1      2885 1.67079E+01 1.49758E+01 1.51853E+00
 -1      2886 2.86541E+01 1.72909E+00 5.98093E+00
 -1      2887 2.93554E+01 1.23651E+00 7.61554E+00
 -1      2888 2.31534E+01 8.28247E+00 9.50000E+00
 -1      2889 2.27305E+01 8.63780E+00 8.47953E+00
 -1      2890 2.10088E+01-3.61468E+00 1.41844E+00
 -1      2891 3.08759E+01 5.52162E-01 7.61554E+00
 -1      2892 2.05322E+01-4.04930E+00 5.22199E+00
 -1      2893 2.90881E+01-4.37101E+00 1.09163E+00
 -1      2894 2.96850E+01-6.36550E+00 1.09163E+00
 -1      2895 2.36448E+01-7.16467E+00 5.23274E-01
 -1      2896 2.34099E+01 7.60163E+00 4.61846E+00
 -1      2897 2.28612E+01 8.19630E+00 5.57529E+00
 -1      2898 2.84114E+01 6.35262E+00 7.09507E+00
 -1      2899 1.91207E+01 9.53418E+00 1.65321E+00
 -1      2900 2.49986E+01-3.26707E+00 7.35180E+00
 -1      2901 2.35205E+01-3.50694E+00 7.26039E+00
 -1      2902 2.54324E+01-3.88283E+00 8.08648E+00
 -1      2903 2.39543E+01-4.12270E+00 7.99508E+00
 -1      2904 2.45564E+01 7.04264E+00 1.99041E+00
 -1      2905 2.48220E+01 6.25420E+00 2.20216E+00
 -1      2906 2.39803E+01 6.45784E+00 1.51880E+00
 -1      2907 2.38086E+01 6.46091E+00 2.21820E+00
 -1      2908 2.22321E+01-7.25738E+00 4.08529E+00
 -1      2909 2.15469E+01-7.77847E+00 3.74014E+00
 -1      2910 2.18777E+01-7.91982E+00 4.53573E+00
 -1      2911 2.47387E+01-7.05937E+00 3.30992E+00
 -1      2912 2.41839E+01-7.24883E+00 3.04389E+00
 -1      2913 2.54305E+01-6.95774E+00 5.05000E-01
 -1      2914 2.64945E+01 6.64922E+00 2.69080E+00
 -1      2915 2.64927E+01 6.64928E+00 3.24675E+00
 -1      2916 2.72199E+01 6.62627E+00 2.90761E+00
 -1      2917 2.82103E+01 6.45490E+00 3.62382E+00
 -1      2918 2.89884E+01 6.43028E+00 3.18439E+00
 -1      2919 2.42395E+00 2.23107E+01 4.77125E+00
 -1      2920 2.44724E+01 6.90689E+00 8.36201E+00
 -1      2921 2.50263E+01 6.71806E+00 8.55728E+00
 -1      2922 2.50263E+01 6.71806E+00 8.05728E+00
 -1      2923-6.34005E+00-2.15803E+01 7.37355E+00
 -1      2924 2.47288E+01 6.08349E+00 7.17764E+00
 -1      2925 2.65037E+01 5.12791E+00 5.99297E+00
 -1      2926 2.54642E+01 5.13069E+00 5.96320E+00
 -1      2927 2.56715E+01 6.18446E+00 6.27048E+00
 -1      2928 2.35346E+01 4.09292E+00 2.32907E+00
 -1      2929 2.51067E+01 1.99112E+00 7.22744E+00
 -1      2930 2.51548E+01 8.14284E-01 8.38633E+00
 -1      2931 2.48788E+01-6.61572E+00 6.24279E+00
 -1      2932 2.49734E+01-6.56322E+00 6.87287E+00
 -1      2933 2.55806E+01-6.52259E+00 6.59212E+00
 -1      2934 2.52165E+01-5.95365E+00 5.90531E+00
 -1      2935 2.53110E+01-5.90115E+00 6.53539E+00
 -1      2936 2.88555E+01-6.38548E+00 4.43297E+00
 -1      2937 2.55449E+01-6.42286E+00 4.24445E+00
 -1      2938 2.59013E+01-6.07810E+00 4.78120E+00
 -1      2939 2.51290E+01-5.74378E+00 4.16409E+00
 -1      2940 2.61490E+01-6.12940E+00 4.29667E+00
 -1      2941 2.53767E+01-5.79508E+00 3.67956E+00
 -1      2942 2.15513E+01-9.54566E+00 4.39425E+00
 -1      2943 2.15029E+01-9.36831E+00 5.21157E+00
 -1      2944 2.26641E+01-9.31747E+00 4.95669E+00
 -1      2945 2.22578E+01-8.71160E+00 5.16242E+00
 -1      2946 2.26157E+01-9.14012E+00 5.77400E+00
 -1      2947 2.58376E+01 6.76746E+00 6.64731E-01
 -1      2948 2.63375E+01 6.46846E+00 1.31933E+00
 -1      2949 2.55480E+01 6.83991E+00 1.41611E+00
 -1      2950 2.57833E+01 5.87969E+00 1.40597E+00
 -1      2951 2.45013E+01 5.73812E+00 9.05728E+00
 -1      2952 2.02868E+01-7.25485E+00 9.12399E+00
 -1      2953 2.05403E+01-5.35408E+00 8.47027E+00
 -1      2954 2.18446E+01-6.33310E+00 9.12399E+00
 -1      2955 2.04517E+01-6.75592E+00 7.59426E+00
 -1      2956 2.49732E+01-7.03360E+00 9.63072E+00
 -1      2957-2.23946E+01 2.13698E+00 2.49668E+00
 -1      2958 2.21947E+01-6.78357E+00 2.12294E+00
 -1      2959-1.69716E+01-1.47636E+01 7.37868E+00
 -1      2960-1.51840E+01-1.65131E+01 7.37868E+00
 -1      2961-1.61059E+01-1.56986E+01 4.75776E+00
 -1      2962 1.55322E+00 2.24374E+01 7.38393E+00
 -1      2963 2.59331E+01 1.49962E+00 5.04988E+00
 -1      2964 2.70836E+01 7.50986E-02 5.19436E+00
 -1      2965 2.72127E+01 1.88703E+00 4.78619E+00
 -1      2966 7.60215E+01 8.69204E+00 7.49997E+00
 -1      2967 7.80672E+01 1.02431E+01 7.49997E+00
 -1      2968-1.34263E+01 1.80342E+01 7.39656E+00
 -1      2969-1.43041E+01 1.72625E+01 4.77285E+00
 -1      2970-1.23550E+01 1.88017E+01 4.78275E+00
 -1      2971 2.08822E+01 4.13308E+00 1.39582E+00
 -1      2972-6.40721E+00-2.15621E+01 2.37355E+00
 -1      2973-1.40030E+00 2.24559E+01 2.38186E+00
 -1      2974 2.14735E+01 3.35375E+00 5.54267E+00
 -1      2975 2.06054E+01-4.49421E+00 7.89074E-01
 -1      2976-1.95310E+01 1.09088E+01 7.37671E+00
 -1      2977 2.71878E+01-2.36036E+00 2.67977E+00
 -1      2978 2.70437E+01-2.13834E+00 8.50807E-01
 -1      2979 2.10389E+01 1.18837E+01 2.69432E+00
 -1      2980 2.14666E+01 1.11228E+01 3.65229E+00
 -1      2981 1.92629E+01 9.94167E+00 2.78098E+00
 -1      2982-9.34170E+00 2.04064E+01 2.37744E+00
 -1      2983 2.25324E+01 5.30356E+00 7.67420E-01
 -1      2984 2.30039E+01 6.46264E+00 7.67420E-01
 -1      2985 2.37640E+01-3.37534E+00 2.57741E+00
 -1      2986 2.50465E+01-4.25416E+00 2.95857E+00
 -1      2987 2.36782E+01-4.23718E+00 3.21803E+00
 -1      2988 7.38712E+01-5.62587E+00 2.45000E+00
 -1      2989 1.90925E+01 9.87940E+00 6.08229E+00
 -1      2990 1.50379E+01 1.66764E+01 2.45021E+00
 -1      2991 8.03263E+01 1.15095E+01 7.49978E+00
 -1      2992 2.54855E+01-7.64005E-01 5.21529E+00
 -1      2993 2.33706E+01-3.46270E-01 5.06365E+00
 -1      2994 2.38907E+01-1.60606E+00 3.94486E+00
 -1      2995 2.42552E+01-1.85537E+00 5.65387E+00
 -1      2996 2.64269E+01-4.69108E+00 5.49364E+00
 -1      2997 2.57262E+01-5.55843E+00 5.34100E+00
 -1      2998 2.55618E+01-3.35634E+00 5.34448E+00
 -1      2999 2.48611E+01-4.22369E+00 5.19183E+00
 -1      3000 2.24462E+01-7.18442E+00 9.12399E+00
 -1      3001 2.15722E+01-7.50127E+00 9.12399E+00
 -1      3002 2.32633E+01-8.17797E+00 4.94135E+00
 -1      3003 2.35955E+01-7.73151E+00 5.19135E+00
 -1      3004 2.35960E+01-7.73114E+00 4.68979E+00
 -1      3005 2.19691E+01-9.95961E+00 2.21461E+00
 -1      3006 2.22415E+01-9.38739E+00 2.63359E+00
 -1      3007 2.12204E+01-9.40431E+00 3.59866E+00
 -1      3008 2.18175E+01-1.01855E+01 3.47832E+00
 -1      3009 2.64511E+01-4.43986E+00 7.26238E+00
 -1      3010 7.80672E+01 1.02431E+01 2.49997E+00
 -1      3011 2.25436E+01-4.95763E+00 7.89074E-01
 -1      3012 2.41100E+01-5.07616E+00 7.90831E-01
 -1      3013 2.29470E+01-4.07810E+00 1.41844E+00
 -1      3014 2.30620E+01-6.54069E+00 5.23274E-01
 -1      3015 2.63871E+01 6.23243E+00 5.54819E+00
 -1      3016 2.68397E+01 6.83198E+00 4.97698E+00
 -1      3017 2.73563E+01 5.90856E+00 4.64155E+00
 -1      3018 6.80531E+01-1.33641E-01 5.00000E+00
 -1      3019 6.98318E+01-3.05110E+00 2.45000E+00
 -1      3020 6.69192E+01-3.16337E+00 5.00000E+00
 -1      3021 2.15864E+01 6.73918E+00 9.17526E+00
 -1      3022 5.50098E+01-3.28487E+00 5.00000E+00
 -1      3023 2.85803E+01-6.32074E+00 9.70032E-01
 -1      3024 2.90724E+01-6.38489E+00 2.06166E+00
 -1      3025 2.43793E+01-3.50689E+00 5.52554E+00
 -1      3026 2.51658E+01-3.74807E+00 6.33494E+00
 -1      3027-1.16067E+01 1.92636E+01 2.38619E+00
 -1      3028 2.66138E+01 2.57839E+00 6.20823E+00
 -1      3029 2.75509E+01 3.21993E+00 7.19774E+00
 -1      3030 1.80427E+01-1.12683E+01 7.57477E+00
 -1      3031 2.52270E+01 6.05001E+00 9.05728E+00
 -1      3032 2.77276E+01-6.50557E+00 5.61349E+00
 -1      3033 2.83644E+01-5.52933E+00 5.24180E+00
 -1      3034 2.79258E+01-6.41490E+00 4.67062E+00
 -1      3035 6.26070E+01 3.12448E+00 5.00000E+00
 -1      3036 6.44413E+01-7.23837E-02 5.00000E+00
 -1      3037 7.90211E+01 1.06549E+01 4.89078E+00
 -1      3038 2.48586E+01-5.33155E+00 7.90831E-01
 -1      3039 2.53348E+01-4.41137E+00 7.90831E-01
 -1      3040 2.55195E+01-5.33279E+00 7.90831E-01
 -1      3041 2.65521E+01-6.93229E+00 3.86020E+00
 -1      3042 2.70173E+01-6.57244E+00 3.46981E+00
 -1      3043 2.69085E+01-6.58753E+00 4.39694E+00
 -1      3044 2.62579E+01-6.11432E+00 3.36954E+00
 -1      3045 2.66142E+01-5.76956E+00 3.90628E+00
 -1      3046 2.24954E+01-4.02326E+00 9.00239E+00
 -1      3047 2.26655E+01-2.43722E+00 9.00239E+00
 -1      3048 2.34504E+01-3.26485E+00 9.00239E+00
 -1      3049 2.91063E+01-4.01191E+00 3.87888E+00
 -1      3050 3.02022E+01-4.84272E+00 3.98780E+00
 -1      3051 2.93191E+01-4.01145E+00 2.82105E+00
 -1      3052 3.07460E+01-3.41597E+00 3.56775E+00
 -1      3053 2.62839E+01-3.95885E+00 8.27924E+00
 -1      3054 2.26910E+01-8.79873E+00 9.50000E+00
 -1      3055 3.11188E+01-4.83380E+00 5.33052E+00
 -1      3056 3.18806E+01-4.77141E+00 6.95358E+00
 -1      3057 3.26037E+01-4.18438E+00 5.29973E+00
 -1      3058 2.56606E+01-6.48099E+00 3.00065E+00
 -1      3059 2.52446E+01-5.80191E+00 2.92029E+00
 -1      3060 2.61258E+01-6.12114E+00 2.61027E+00
 -1      3061 2.58419E+01-5.43524E+00 3.28917E+00
 -1      3062 2.48087E+01 6.99812E+00 5.05000E-01
 -1      3063 2.49743E+01-6.40543E+00 1.29583E+00
 -1      3064 2.51779E+01-5.90679E+00 7.90831E-01
 -1      3065 7.60815E+01-8.75277E+00 2.50004E+00
 -1      3066 3.03821E+01 6.38618E+00 3.95947E+00
 -1      3067 2.89731E+01 5.21660E+00 2.24349E+00
 -1      3068 3.07059E+01 6.06884E+00 1.71598E+00
 -1      3069-3.43342E+00 2.22358E+01 7.38271E+00
 -1      3070 2.53777E+01-6.97210E+00 2.62569E+00
 -1      3071 9.73959E+01 1.24538E+00 4.91651E+00
 -1      3072 2.15836E+01 1.08907E+01 2.80022E+00
 -1      3073 2.30707E+01 8.05331E+00 3.86824E+00
 -1      3074 2.26226E+01 8.97129E+00 4.00035E+00
 -1      3075 2.26226E+01 8.97129E+00 3.50035E+00
 -1      3076 1.42200E+01-1.74115E+01 4.88858E+00
 -1      3077 1.51059E+01-1.66749E+01 7.46333E+00
 -1      3078 2.20858E+01 9.97140E+00 1.87756E+00
 -1      3079 2.21023E+01 9.93784E+00 2.72472E+00
 -1      3080 2.23917E+01 9.30439E+00 2.78456E+00
 -1      3081 2.64275E+01 6.80452E+00 6.50850E+00
 -1      3082 2.54848E+01 6.70355E+00 7.41565E+00
 -1      3083 3.59959E+00 2.22031E+01 7.38732E+00
 -1      3084 9.67155E+01 3.76350E+00 2.41151E+00
 -1      3085 2.70345E+01 6.63214E+00 2.19083E+00
 -1      3086 2.69867E+01 6.44792E+00 1.31815E+00
 -1      3087 2.66206E+01 5.69246E+00 2.18187E+00
 -1      3088 2.64467E+01 6.46501E+00 1.81812E+00
 -1      3089 2.14062E+01-1.10237E+01 4.28807E+00
 -1      3090 2.31258E+01-1.92081E+00 6.01558E+00
 -1      3091 1.54443E+01 1.63570E+01 7.48449E+00
 -1      3092 1.35075E+01 1.79752E+01 7.45021E+00
 -1      3093 2.44593E+01 6.91650E+00 7.82361E+00
 -1      3094 2.51494E+01-6.38310E+00 9.63072E+00
 -1      3095 2.83487E+01 6.14343E+00 6.63555E-01
 -1      3096 2.72895E+01 6.49652E+00 6.63555E-01
 -1      3097 1.94653E+01-9.31874E+00 3.55044E+00
 -1      3098 2.42569E+01 7.18541E+00 6.99711E-01
 -1      3099 2.27468E+01 8.74763E+00 9.50000E+00
 -1      3100 2.69379E+01 6.78837E+00 6.25501E+00
 -1      3101 4.04115E+01-3.58805E+00 2.47052E+00
 -1      3102 4.22958E+01-3.52843E+00 5.00000E+00
 -1      3103 2.80718E+01 4.11268E+00 3.66429E+00
 -1      3104 2.29460E+01-1.19670E+00 1.67732E+00
 -1      3105 2.40216E+01-1.49816E+00 9.04426E-01
 -1      3106 2.43350E+01 6.60518E-01 5.07081E+00
 -1      3107 2.84134E+01-3.22228E+00 3.74420E+00
 -1      3108 2.80825E+01-4.64856E+00 3.10641E+00
 -1      3109 2.78696E+01-4.64902E+00 4.16425E+00
 -1      3110 2.83948E+01-3.18673E+00 2.58023E+00
 -1      3111 5.17420E+01 3.18554E+00 5.00000E+00
 -1      3112 2.61421E+01-2.23074E-02 8.36539E+00
 -1      3113 9.73959E+01 1.24538E+00 7.41151E+00
 -1      3114 9.67312E+01 3.73631E+00 7.41151E+00
 -1      3115-1.98684E+01-1.05577E+01 2.41691E+00
 -1      3116 1.30570E+01-1.83102E+01 2.42525E+00
 -1      3117 1.51059E+01-1.66749E+01 2.46333E+00
 -1      3118 2.66227E+01 2.43337E+00 7.50390E+00
 -1      3119 2.35584E+01-7.58017E+00 6.83255E+00
 -1      3120 2.35680E+01-7.52544E+00 6.19291E+00
 -1      3121 7.34482E+00-2.11211E+01 4.76866E+00
 -1      3122 6.11442E+00-2.16136E+01 7.38516E+00
 -1      3123 3.72719E+01-5.13991E+00 2.41014E+00
 -1      3124 3.62179E+01-2.69405E+00 2.41014E+00
 -1      3125 3.59550E+01-5.18157E+00 4.06200E+00
 -1      3126 2.58796E+01-3.36920E+00 9.09379E+00
 -1      3127 2.49285E+01-3.02498E+00 9.09379E+00
 -1      3128 2.32633E+01-8.17797E+00 5.44135E+00
 -1      3129 2.26596E+01-8.06760E+00 5.42622E+00
 -1      3130 2.28131E+01-8.64462E+00 5.49487E+00
 -1      3131 2.12775E+01 9.97501E+00 3.12313E+00
 -1      3132-1.77219E+01-1.37685E+01 4.75937E+00
 -1      3133-1.81673E+01-1.32467E+01 7.38069E+00
 -1      3134 1.99016E+01 7.26265E+00 1.63688E+00
 -1      3135 1.93303E+01 8.61346E+00 1.65321E+00
 -1      3136 2.36781E+01-4.75335E+00 5.55531E+00
 -1      3137 2.36743E+01-6.12537E+00 7.29173E+00
 -1      3138 2.37586E+01-6.14898E+00 7.84402E+00
 -1      3139 2.30562E+01-6.44631E+00 7.60560E+00
 -1      3140 8.78622E+01 1.21587E+01 7.49857E+00
 -1      3141 2.55098E+01-6.96527E+00 3.38496E+00
 -1      3142 2.55098E+01-6.96527E+00 3.88496E+00
 -1      3143 2.50215E+01-6.56826E+00 3.68488E+00
 -1      3144 2.59947E+01-6.94993E+00 4.14207E+00
 -1      3145 2.60223E+01-6.94905E+00 3.59272E+00
 -1      3146 2.20380E+01-6.58753E+00 6.28003E+00
 -1      3147 2.30536E+01-6.45594E+00 6.00890E+00
 -1      3148 2.22509E+01-6.33690E+00 5.43609E+00
 -1      3149 2.20391E+01-7.32036E+00 6.14311E+00
 -1      3150 2.12364E+01-7.20132E+00 5.57029E+00
 -1      3151 2.22520E+01-7.06973E+00 5.29917E+00
 -1      3152 3.41468E+01-5.63570E+00 5.11325E+00
 -1      3153 3.51738E+01-3.66786E+00 5.87153E+00
 -1      3154 3.44120E+01-3.73026E+00 4.24848E+00
 -1      3155 2.34740E+01 4.05119E+00 9.33252E-01
 -1      3156 2.21585E+01 3.98429E+00 1.39582E+00
 -1      3157 2.39085E+01 5.41218E+00 1.70067E+00
 -1      3158 2.21345E+01 1.01033E+01 3.66780E+00
 -1      3159 2.02811E+01 6.93396E+00 7.60563E+00
 -1      3160 2.02907E+01 6.90967E+00 9.17526E+00
 -1      3161 2.24239E+01 9.46988E+00 3.72764E+00
 -1      3162-1.13262E+01 1.93928E+01 7.39656E+00
 -1      3163 2.12453E+01 9.80952E+00 2.18005E+00
 -1      3164 2.23650E+01 9.60682E+00 4.22764E+00
 -1      3165 3.05149E+01-3.77553E+00 1.83834E+00
 -1      3166 2.46487E+01 6.34909E+00 9.05728E+00
 -1      3167 2.40101E+01 6.27155E+00 9.05728E+00
 -1      3168 2.98370E+01 3.63740E+00 2.61554E+00
 -1      3169 2.54277E+01 6.78833E+00 9.50000E+00
 -1      3170 2.48493E+01 7.08741E+00 9.50000E+00
 -1      3171 4.72316E+01 3.32826E+00 5.00000E+00
 -1      3172 4.56093E+01-2.96553E-01 5.00000E+00
 -1      3173 4.65950E+01 3.34841E+00 2.44185E+00
 -1      3174 4.18385E+01 3.25459E+00 7.44185E+00
 -1      3175 2.79979E+01 6.60165E+00 2.46818E+00
 -1      3176 2.76589E+01 5.70530E+00 3.77076E+00
 -1      3177 2.79826E+01 5.38796E+00 1.52727E+00
 -1      3178 2.49219E+01 5.20548E+00 1.68463E+00
 -1      3179 2.35400E+01 5.78626E+00 7.67420E-01
 -1      3180 2.44816E+01 4.53389E+00 9.33252E-01
 -1      3181-1.33718E+01 1.80775E+01 2.39656E+00
 -1      3182 2.44579E+01-5.20305E+00 8.99269E+00
 -1      3183 2.47852E+01-5.87048E+00 8.62341E+00
 -1      3184 2.42676E+01-6.06922E+00 8.28497E+00
 -1      3185 1.61046E+01-1.56528E+01 4.89733E+00
 -1      3186 4.12719E+01-2.75046E-01 5.00000E+00
 -1      3187 3.98450E+01 4.98019E+00 2.44185E+00
 -1      3188 4.22575E+01 3.36991E+00 2.44185E+00
 -1      3189 8.93569E+00-2.06398E+01 7.38351E+00
 -1      3190 2.25897E+01 6.04245E+00 4.77530E+00
 -1      3191 2.16448E+01 5.39172E+00 5.96933E+00
 -1      3192 2.29630E+01 5.65756E+00 5.78448E+00
 -1      3193 2.33534E+01 6.71085E+00 5.53547E+00
 -1      3194 2.24084E+01 6.06012E+00 6.72950E+00
 -1      3195 2.23250E+01-7.78950E+00 9.12399E+00
 -1      3196 2.18605E+01-8.28871E+00 9.12399E+00
 -1      3197 2.30440E+01-6.51067E+00 6.64854E+00
 -1      3198 2.39639E+01-5.36227E+00 8.02265E+00
 -1      3199 1.95336E+01 8.50597E+00 8.43037E+00
 -1      3200 2.14812E+01 1.02786E+01 8.36388E+00
 -1      3201 1.85244E+01 1.04093E+01 8.26221E+00
 -1      3202 2.05237E+01 9.18372E+00 6.79426E+00
 -1      3203 3.15530E+01-2.56203E+00 1.83834E+00
 -1      3204 3.28891E+01-1.86518E+00 4.32176E+00
 -1      3205 3.17931E+01-1.03438E+00 4.21284E+00
 -1      3206 3.26002E+01-1.80440E-01 2.48342E+00
 -1      3207-2.04146E+01-9.41153E+00 4.89798E+00
 -1      3208-1.92153E+01-1.16329E+01 4.79759E+00
 -1      3209-1.98352E+01-1.06188E+01 7.41691E+00
 -1      3210 2.64875E+01-6.58921E+00 3.20233E+00
 -1      3211 7.18918E+01-1.40253E+00 2.50001E+00
 -1      3212 7.18835E+01 1.27040E+00 2.50000E+00
 -1      3213-1.00901E+01 1.99445E+01 4.77401E+00
 -1      3214 2.27616E+01 7.23252E+00 5.10349E+00
 -1      3215 2.33162E+01 6.82996E+00 4.15847E+00
 -1      3216 2.16410E+01-1.09861E+01 8.52938E+00
 -1      3217 2.07074E+01-1.16663E+01 8.52938E+00
 -1      3218 2.27305E+01 8.63780E+00 7.97953E+00
 -1      3219 3.56915E+01 4.82254E+00 7.07979E+00
 -1      3220 1.08961E+01-1.96775E+01 2.43657E+00
 -1      3221 9.85083E+00-2.02231E+01 4.82008E+00
 -1      3222 2.02972E+01 6.20896E+00 6.91963E+00
 -1      3223-1.32241E+01-1.81681E+01 2.36804E+00
 -1      3224 2.42832E+01-6.71662E+00 5.86307E+00
 -1      3225 2.48904E+01-6.67599E+00 5.58232E+00
 -1      3226 2.46208E+01-6.05456E+00 5.52559E+00
 -1      3227 2.05844E+01 1.03549E+01 1.12778E+00
 -1      3228 7.68093E+01-9.42943E+00 4.89837E+00
 -1      3229 7.60815E+01-8.75277E+00 7.50004E+00
 -1      3230-1.39282E+00-2.24564E+01 7.38808E+00
 -1      3231 1.51306E+00-2.24302E+01 7.38138E+00
 -1      3232 3.27200E+01-4.39252E+00 8.46139E+00
 -1      3233 3.43819E+01-3.62676E+00 8.46139E+00
 -1      3234 6.63208E+01 3.01722E+00 5.00000E+00
 -1      3235 6.98318E+01 2.94890E+00 5.00000E+00
 -1      3236 5.71530E+01 3.29707E+00 5.00000E+00
 -1      3237 8.79076E+01-1.21455E+01 7.50158E+00
 -1      3238 8.66276E+01-1.22925E+01 4.88396E+00
 -1      3239 2.33598E+01-7.15326E+00 7.86792E+00
 -1      3240 9.02477E+01 1.13053E+01 7.47797E+00
 -1      3241 9.24572E+01 9.96371E+00 7.39690E+00
 -1      3242 3.72719E+01-5.13991E+00 7.41014E+00
 -1      3243 3.61901E+01-3.17264E+00 7.41014E+00
 -1      3244 3.62374E+01-5.17264E+00 5.94250E+00
 -1      3245 3.54454E+01-5.13154E+00 8.53236E+00
 -1      3246 2.20828E+01-7.28763E+00 2.83950E+00
 -1      3247 2.48412E+01-5.23524E+00 2.59043E+00
 -1      3248 2.17457E+01-1.03437E+01 4.57478E+00
 -1      3249 2.47640E+01 5.35052E+00 5.10344E+00
 -1      3250 2.53475E+01 6.23521E+00 5.51842E+00
 -1      3251 2.61798E+01 5.17866E+00 5.24090E+00
 -1      3252 2.69766E+01 6.78715E+00 6.81780E+00
 -1      3253 2.34259E+01 7.58995E+00 4.11695E+00
 -1      3254 2.40176E+01 7.06828E+00 4.54893E+00
 -1      3255 2.49294E+01 6.82181E+00 5.62536E+00
 -1      3256 2.42699E+01 6.24777E+00 5.41558E+00
 -1      3257 2.34560E+01 7.47590E+00 6.49738E+00
 -1      3258 2.34459E+01 7.48334E+00 7.00658E+00
 -1      3259 2.37153E+01 6.65033E+00 6.36060E+00
 -1      3260 7.15252E+01 1.23896E+00 7.50000E+00
 -1      3261 2.40757E+01 3.86166E+00 4.58186E+00
 -1      3262 2.35816E+01 4.75890E+00 4.89400E+00
 -1      3263 2.35576E+01 4.26991E+00 3.37890E+00
 -1      3264 2.30635E+01 5.16715E+00 3.69104E+00
 -1      3265 2.19184E+01-9.85106E+00 6.90237E+00
 -1      3266 2.28615E+01-8.82197E+00 4.67755E+00
 -1      3267 2.33805E+01-6.30134E+00 8.32225E+00
 -1      3268 2.30822E+01-7.39486E+00 5.37234E+00
 -1      3269 2.32137E+01-6.39842E+00 5.23330E+00
 -1      3270 2.32412E+01-6.60451E+00 4.73365E+00
 -1      3271 2.22795E+01-7.27582E+00 4.79953E+00
 -1      3272 2.24111E+01-6.27939E+00 4.66048E+00
 -1      3273 3.06061E+01-3.52785E+00 5.27024E+00
 -1      3274 3.16532E+01-1.14626E+00 5.91532E+00
 -1      3275 2.21608E+01-9.25060E+00 7.04265E+00
 -1      3276 2.73358E+01-5.70232E+00 5.50904E+00
 -1      3277 2.72573E+01-4.60876E+00 6.16927E+00
 -1      3278 2.65791E+01-5.85067E+00 5.65173E+00
 -1      3279 2.68972E+01-6.58789E+00 4.93786E+00
 -1      3280 2.35486E+01-7.71270E+00 3.97555E+00
 -1      3281 2.30623E+01-7.58251E+00 4.15846E+00
 -1      3282 2.36801E+01-7.13166E+00 4.24127E+00
 -1      3283 2.69568E+01-3.88859E+00 6.85506E+00
 -1      3284 2.43471E+01-4.27229E+00 8.99269E+00
 -1      3285 2.87682E+01-4.21447E+00 6.52423E+00
 -1      3286 3.74667E+00-2.21689E+01 7.38516E+00
 -1      3287 2.58902E+01-6.95588E+00 2.83345E+00
 -1      3288 2.36786E+01 6.60221E+00 7.67420E-01
 -1      3289 2.43636E+01 7.01943E+00 5.87557E+00
 -1      3290 2.40016E+01 7.07996E+00 5.05044E+00
 -1      3291 2.56451E+01 6.86978E+00 5.40306E+00
 -1      3292 2.70701E+01 6.63101E+00 3.52417E+00
 -1      3293 2.81755E+01-6.51464E+00 9.16079E+00
 -1      3294 8.52412E+01 1.24975E+01 7.39596E+00
 -1      3295 2.07514E+01 1.14619E+01 9.19430E+00
 -1      3296 2.22915E+01-9.27352E+00 3.18949E+00
 -1      3297 3.13679E+01-3.46546E+00 6.89329E+00
 -1      3298 3.36509E+01-1.80279E+00 5.94481E+00
 -1      3299 2.61653E+01 6.85332E+00 4.67299E+00
 -1      3300 2.67674E+01 6.83427E+00 4.39496E+00
 -1      3301 2.67284E+01-4.54969E+00 8.50807E-01
 -1      3302 2.65137E+01-5.64428E+00 7.39542E-01
 -1      3303-1.87528E+01-1.24301E+01 2.38069E+00
 -1      3304 2.64459E+01 6.80394E+00 5.92674E+00
 -1      3305 2.63490E+01-6.97406E+00 8.59905E+00
 -1      3306 2.58070E+01-6.99121E+00 8.46308E+00
 -1      3307 2.61220E+01 6.85469E+00 5.17467E+00
 -1      3308 2.11137E+01-9.14572E+00 1.37697E+00
 -1      3309 2.33317E+01-5.64842E+00 5.23274E-01
 -1      3310 2.24136E+01-7.09024E+00 6.60407E-01
 -1      3311 2.15960E+01-7.57216E+00 6.60407E-01
 -1      3312 2.98830E+01-4.11488E+00 6.92409E+00
 -1      3313 2.77064E+01 6.37492E+00 7.50002E+00
 -1      3314 2.10517E+01-9.99978E+00 8.54265E+00
 -1      3315 2.01181E+01-1.06800E+01 8.54265E+00
 -1      3316 1.87724E+01-9.93841E+00 8.78036E+00
 -1      3317 2.23027E+01-9.24755E+00 2.06771E+00
 -1      3318 2.80639E+01-4.61301E+00 1.94244E+00
 -1      3319-1.41460E+01-1.73536E+01 4.74712E+00
 -1      3320 8.79076E+01-1.21455E+01 2.50158E+00
 -1      3321 2.19152E+01-5.47424E+00 3.85424E+00
 -1      3322 2.02050E+01-5.45440E+00 4.02324E+00
 -1      3323 2.47893E+01 3.48687E+00 6.70489E+00
 -1      3324 3.54591E+01-1.34867E+00 4.89356E+00
 -1      3325-2.11098E+01-7.70783E+00 2.48107E+00
 -1      3326 2.45356E+01-5.95583E+00 7.90831E-01
 -1      3327 2.47883E+01-7.00678E+00 5.05000E-01
 -1      3328 3.69239E+01-7.64570E-02 2.41014E+00
 -1      3329 3.93365E+01-1.68673E+00 2.41014E+00
 -1      3330 3.89175E+01-1.80205E+00 7.41014E+00
 -1      3331 2.51448E+01-2.04611E+00 2.06340E+00
 -1      3332 2.40091E+01-2.84437E+00 1.15897E+00
 -1      3333 2.55402E+01-3.43029E+00 1.15897E+00
 -1      3334 2.55527E+01-2.08408E+00 9.04426E-01
 -1      3335 2.23371E+01-4.18262E+00 7.47324E+00
 -1      3336 2.30672E+01-4.35482E+00 8.03236E+00
 -1      3337 1.84157E+01 1.29229E+01 8.26221E+00
 -1      3338 2.69499E+01-4.80693E+00 3.50436E+00
 -1      3339 3.07224E+01-3.73600E+00 8.43190E+00
 -1      3340 2.31067E+01-6.11414E+00 9.02996E+00
 -1      3341 2.25050E+01-5.26282E+00 9.02996E+00
 -1      3342 2.35709E+01-5.43517E+00 9.02996E+00
 -1      3343 2.52621E+01-6.91397E+00 4.36949E+00
 -1      3344 2.47738E+01-6.51696E+00 4.16941E+00
 -1      3345 2.26408E+01-2.82740E+00 1.41844E+00
 -1      3346 2.37765E+01-2.02913E+00 2.32286E+00
 -1      3347 2.16155E+01 7.77107E+00 8.97953E+00
 -1      3348 2.56157E+01 2.99537E+00 4.52733E+00
 -1      3349 2.39436E+01 4.69838E+00 5.71913E+00
 -1      3350 2.33250E+01 5.59704E+00 6.60961E+00
 -1      3351 2.26367E+01 4.10817E+00 6.08803E+00
 -1      3352 2.25151E+01 9.39358E+00 6.75741E-01
 -1      3353 2.27304E+01 8.85610E+00 5.05000E-01
 -1      3354 2.17143E+01 9.88870E+00 6.75741E-01
 -1      3355 2.79370E+01-6.41454E+00 4.12970E+00
 -1      3356 2.75339E+01-5.61165E+00 4.56617E+00
 -1      3357 2.59277E+01-4.57340E+00 2.64855E+00
 -1      3358 3.80570E+01-5.11506E+00 4.88066E+00
 -1      3359 2.35505E+01-7.88164E+00 8.79229E+00
 -1      3360 2.35505E+01-7.88164E+00 8.29229E+00
 -1      3361 2.38852E+01-7.43332E+00 8.59617E+00
 -1      3362 2.43153E+01-4.09508E+00 1.15897E+00
 -1      3363 2.67895E+01-3.40759E+00 7.87192E+00
 -1      3364 2.78593E+01-3.20323E+00 6.50883E+00
 -1      3365 2.34470E+01 7.48251E+00 5.99546E+00
 -1      3366 2.45440E+01-7.16496E+00 1.54570E+00
 -1      3367 2.47493E+01-7.05637E+00 6.26677E+00
 -1      3368 2.47609E+01-7.11664E+00 5.60630E+00
 -1      3369 2.76702E+01-6.53063E+00 8.54722E+00
 -1      3370 2.67954E+01-6.17989E+00 7.39542E-01
 -1      3371 2.50932E+01 2.14608E+00 5.96416E+00
 -1      3372 2.47758E+01 3.64182E+00 5.44161E+00
 -1      3373 2.38592E+01-2.24710E+00 6.64433E+00
 -1      3374 2.32126E+01-5.66559E+00 5.37021E+00
 -1      3375 2.24215E+01 7.81702E+00 7.21978E+00
 -1      3376 2.23923E+01 6.78512E+00 7.41551E+00
 -1      3377 2.49538E+01-5.22411E+00 4.72389E+00
 -1      3378 2.41599E+01-5.47015E+00 5.22160E+00
 -1      3379 2.41765E+01-7.25923E+00 6.51869E+00
 -1      3380 2.47493E+01-7.05637E+00 6.76177E+00
 -1      3381 2.54736E+01-7.00176E+00 8.21262E+00
 -1      3382 2.47021E+01-6.77772E+00 8.50490E+00
 -1      3383 2.60694E+01-6.24589E+00 6.21604E+00
 -1      3384 2.63658E+01 6.07993E+00 3.92534E+00
 -1      3385 2.37022E+01-7.18892E+00 5.03765E+00
 -1      3386 2.36747E+01-6.98283E+00 5.53729E+00
 -1      3387 2.35680E+01-7.52542E+00 5.69100E+00
 -1      3388 1.98519E+01 1.15042E+01 1.12778E+00
 -1      3389 2.01642E+01 1.26254E+01 1.56655E+00
 -1      3390 2.27870E+01-3.18065E+00 6.63165E+00
 -1      3391 7.33122E+01-4.35143E+00 2.50001E+00
 -1      3392 2.59266E+01 6.77255E+00 9.06147E+00
 -1      3393 2.50263E+01 6.71806E+00 7.55728E+00
 -1      3394 2.46920E+01 6.39550E+00 7.51378E-01
 -1      3395 2.64828E+01-6.96983E+00 7.91616E+00
 -1      3396 2.61370E+01-5.91467E+00 8.39806E+00
 -1      3397 9.02825E+01-1.12808E+01 7.38238E+00
 -1      3398 2.33950E+01 5.34145E-01 8.38633E+00
 -1      3399 2.14349E+01-9.29435E+00 8.54265E+00
 -1      3400-2.06951E+01-8.82653E+00 7.48107E+00
 -1      3401 2.49270E+01-4.37340E+00 1.94980E+00
 -1      3402 2.61901E+01 6.85254E+00 4.11754E+00
 -1      3403 2.57469E+01-6.89862E+00 4.62660E+00
 -1      3404 2.39570E+01 4.54343E+00 6.98241E+00
 -1      3405 2.34600E+01-4.50442E+00 9.02996E+00
 -1      3406 2.54511E+01-6.96323E+00 7.11110E+00
 -1      3407 2.32262E+01-8.02661E+00 7.07563E+00
 -1      3408 2.42955E+01 7.27624E+00 9.30473E+00
 -1      3409 2.03199E+01 7.94156E+00 8.97953E+00
 -1      3410 2.32262E+01-8.02661E+00 7.57563E+00
 -1      3411 2.25864E+01-8.24496E+00 8.12399E+00
 -1      3412 2.23957E+01-7.51659E+00 7.69962E+00
 -1      3413 2.25864E+01-8.24496E+00 7.62399E+00
 -1      3414 3.12460E+01 4.80698E+00 4.33153E+00
 -1      3415 2.15671E+01 1.09243E+01 1.95306E+00
 -1      3416 2.69311E+01-2.78545E+00 9.09379E+00
 -1      3417 2.59957E+01-6.17986E+00 5.39772E+00
 -1      3418 2.70729E+01-6.88711E+00 6.73821E-01
 -1      3419 2.53565E+01-7.01573E+00 6.48102E+00
 -1      3420 2.14249E+01 1.05168E+01 8.25286E-01
 -1      3421-1.57097E+01 1.61071E+01 2.37629E+00
 -1      3422-1.71681E+01 1.45428E+01 2.40101E+00
 -1      3423 2.34058E+01 6.21829E+00 8.23254E+00
 -1      3424 2.14064E+01-3.11719E+00 6.83267E+00
 -1      3425 2.36632E+01-6.92256E+00 6.19776E+00
 -1      3426 2.36736E+01-6.25000E+00 5.67421E+00
 -1      3427 2.31938E+01-6.58607E+00 4.01941E+00
 -1      3428 2.57571E+01-6.79468E+00 9.64129E+00
 -1      3429 2.56498E+01-6.35126E+00 9.21262E+00
 -1      3430 2.17749E+01-5.09062E+00 8.47085E+00
 -1      3431 2.41690E+01-7.25982E+00 3.55491E+00
 -1      3432 2.32159E+01-8.15952E+00 2.72711E+00
 -1      3433 1.96797E+01-7.71954E+00 5.73969E+00
 -1      3434 2.00855E+01-6.61443E+00 6.67739E+00
 -1      3435-2.24021E+01 2.06779E+00 7.49668E+00
 -1      3436 2.41765E+01-7.25921E+00 6.01678E+00
 -1      3437 2.08442E+01-4.02520E+00 7.83028E+00
 -1      3438 2.59191E+01-6.98766E+00 8.04401E+00
 -1      3439 2.62786E+01-6.77818E+00 9.38643E+00
 -1      3440 2.67659E+01-6.34159E+00 8.57188E+00
 -1      3441 2.22374E+01-3.70693E+00 7.89074E-01
 -1      3442 2.45586E+01 7.04104E+00 1.45109E+00
 -1      3443 2.51103E+01 6.85376E+00 1.25638E+00
 -1      3444 2.20492E+01 9.74866E+00 6.18396E+00
 -1      3445 2.52621E+01-6.91397E+00 4.86949E+00
 -1      3446 2.64883E+01-6.90561E+00 6.74505E-01
 -1      3447 2.70841E+01-6.49804E+00 9.38643E+00
 -1      3448 2.63257E+01 9.95769E-01 2.32523E+00
 -1      3449 2.03102E+01 7.96586E+00 7.40991E+00
 -1      3450 2.35662E+01-7.69968E+00 2.96108E+00
 -1      3451 2.94791E+01-5.42975E+00 5.64165E+00
 -1      3452 2.35513E+01-7.71067E+00 3.47210E+00
 -1      3453-1.54807E+01-1.63241E+01 2.37908E+00
 -1      3454 2.67922E+01-2.26498E+00 4.90590E+00
 -1      3455 2.71582E+01-3.82384E+00 2.86559E+00
 -1      3456 2.61359E+01-3.59030E+00 2.00978E+00
 -1      3457 2.94015E+01-3.88119E+00 8.43190E+00
 -1      3458 3.15628E+01 2.82678E+00 2.61554E+00
 -1      3459 2.23137E+01-8.91467E+00 8.22243E+00
 -1      3460 2.25864E+01-8.24496E+00 8.62399E+00
 -1      3461 2.34219E+01 5.49328E+00 7.54653E+00
 -1      3462 2.18881E+01-9.92031E+00 7.64109E+00
 -1      3463 2.32633E+01-8.17797E+00 4.44135E+00
 -1      3464 2.27079E+01-8.24495E+00 4.60890E+00
 -1      3465 2.28615E+01-8.82197E+00 4.17755E+00
 -1      3466 2.67626E+01-3.72845E+00 5.09172E+00
 -1      3467 2.63510E+01-6.60517E+00 4.67882E+00
 -1      3468 2.63656E+01-6.60471E+00 5.19238E+00
 -1      3469 2.57615E+01-6.89816E+00 5.14017E+00
 -1      3470 2.49386E+01 6.85682E+00 2.45578E+00
 -1      3471 2.54854E+01 6.83952E+00 2.61431E+00
 -1      3472 2.27201E+01-7.37162E+00 8.41627E+00
 -1      3473 2.24164E+01-6.66467E+00 8.15395E+00
 -1      3474 2.32891E+01-7.42617E+00 9.29229E+00
 -1      3475 2.54000E+01 6.78131E+00 5.05000E-01
 -1      3476 2.23261E+01-6.27411E+00 7.04648E+00
 -1      3477 2.20295E+01-7.37509E+00 6.78275E+00
 -1      3478 2.13201E+01-6.35097E+00 6.67797E+00
 -1      3479 2.35456E+01 7.24744E+00 7.67420E-01
 -1      3480 2.19853E+01-6.45986E+00 3.82571E+00
 -1      3481 2.28432E+01-6.23401E+00 1.98581E+00
 -1      3482 1.81551E+01 1.32870E+01 1.51853E+00
 -1      3483 1.21369E+01-1.88505E+01 4.86182E+00
 -1      3484 1.71954E+01 1.45076E+01 7.50884E+00
 -1      3485 2.61484E+01-2.24409E+00 1.75523E+00
 -1      3486 2.51221E+01-5.85188E+00 5.28878E+00
 -1      3487 2.43350E+01-5.98982E+00 4.66180E+00
 -1      3488 2.47960E+01-6.57422E+00 4.96579E+00
 -1      3489 2.38337E+01-6.19249E+00 4.89861E+00
 -1      3490 2.06860E+01-4.18456E+00 6.30113E+00
 -1      3491 2.34347E+01 5.14164E+00 2.84660E+00
 -1      3492 2.47502E+01 5.20854E+00 2.38403E+00
 -1      3493 2.68721E+01-5.43865E+00 9.18544E+00
 -1      3494 3.03724E+01-2.04007E+00 8.43190E+00
 -1      3495 2.51103E+01 6.85376E+00 1.75638E+00
 -1      3496 2.77764E+01-5.62769E+00 9.16079E+00
 -1      3497 2.58311E+01 6.06390E+00 2.27865E+00
 -1      3498 2.57592E+01 5.01824E+00 2.46053E+00
 -1      3499 2.03821E+01-5.51344E+00 6.94112E+00
 -1      3500 2.16863E+01-6.49246E+00 7.59484E+00
 -1      3501 1.98893E+01-8.52067E+00 2.70571E+00
 -1      3502 2.09100E+01-8.82716E+00 5.42881E+00
 -1      3503 2.11229E+01-8.57653E+00 4.58488E+00
 -1      3504 1.98926E+01-7.46891E+00 4.89575E+00
 -1      3505 2.18294E+01-7.74247E+00 5.35305E+00
 -1      3506 2.70595E+01-4.73093E+00 7.96357E+00
 -1      3507 2.32159E+01-8.15952E+00 3.72711E+00
 -1      3508 2.56571E+01 6.83646E+00 1.91491E+00
 -1      3509 2.72011E+01-4.10879E+00 9.18544E+00
 -1      3510 2.02984E+01-6.36380E+00 5.83345E+00
 -1      3511 2.15330E+01-6.10034E+00 5.83403E+00
 -1      3512 2.53916E+01-6.47332E+00 5.34551E+00
 -1      3513 2.03726E+01-7.26779E+00 3.00850E+00
 -1      3514 2.11979E+01-1.67918E+00 1.41844E+00
 -1      3515 2.02283E+01-5.37818E+00 5.86198E+00
 -1      3516 2.14629E+01-5.11472E+00 5.86256E+00
 -1      3517 2.13793E+01-5.96507E+00 4.75489E+00
 -1      3518 2.48337E+01-7.07998E+00 7.31405E+00
 -1      3519 2.59690E+01 6.81903E+00 6.15513E+00
 -1      3520 2.18675E+01-1.00716E+01 4.03422E+00
 -1      3521 2.02751E+01-6.44002E+00 3.99471E+00
 -1      3522 1.99902E+01-8.29668E+00 3.90954E+00
 -1      3523 2.39434E+01-5.92674E+00 1.31410E+00
 -1      3524 2.49663E+01-1.90753E+00 3.17197E+00
 -1      3525 3.99925E+01-3.70338E+00 7.47052E+00
 -1      3526 2.22634E+01 4.49306E+00 5.07884E+00
 -1      3527 2.38122E+01 6.54657E+00 7.29753E+00
 -1      3528 2.54511E+01-6.96323E+00 7.61110E+00
 -1      3529 2.89664E+01-4.12380E+00 5.58137E+00
 -1      3530-1.89510E+01 1.20929E+01 2.37671E+00
 -1      3531-2.01486E+01 9.93237E+00 2.38573E+00
 -1      3532 2.76715E+01-4.73969E+00 5.10711E+00
 -1      3533 1.89583E+01-1.42713E+01 2.43400E+00
 -1      3534 1.78020E+01-1.36722E+01 5.00877E+00
 -1      3535 1.69676E+01-1.47766E+01 7.43400E+00
 -1      3536 1.67577E+01-1.50103E+01 2.43400E+00
 -1      3537 3.23701E+01-2.69660E+00 8.46139E+00
 -1      3538 2.13178E+01 1.14019E+01 1.12778E+00
 -1      3539 2.82735E+01-3.33416E+00 5.44668E+00
 -1      3540 2.21808E+01-5.35128E+00 5.46462E+00
 -1      3541-2.11483E+01 7.63174E+00 2.55409E+00
 -1      3542 2.53565E+01-7.01573E+00 5.48602E+00
 -3
    3C                          1805                                     1
 -1      1288    6    0    1
 -2       486       271       231       459      2149      2150      2029      2092      2151      1929
 -1      1289    6    0    1
 -2       590       330       562       517      2152      2153      2155      2156      2154      2157
 -1      1290    6    0    1
 -2        36       263        37       110       926       925       635      1435      2158      1437
 -1      1291    6    0    1
 -2       337       438       423       537      2159      1850      2161      2162      2160      2163
 -1      1292    6    0    1
 -2       552       588       596       553      2164      2165      2167      2168      2166      2169
 -1      1293    6    0    1
 -2       329       324       312       538      1236      1251      1218      2171      2170      2172
 -1      1294    6    0    1
 -2       333       583       334       323      2173      2174      1234      1246      2175      1241
 -1      1295    6    0    1
 -2        39       114       301         1      1441      1104      2176       638      1444      2177
 -1      1296    6    0    1
 -2       267       376       514         2      2178      2179      2180       938      1470      2181
 -1      1297    6    0    1
 -2       427       538       517       312      2182      2183      2184      2185      2172      2186
 -1      1298    6    0    1
 -2       303       258       120       304      2187      2188      1109      1112      2189      1147
 -1      1299    6    0    1
 -2       311       456       551       517      2190      2191      2193      2194      2192      2195
 -1      1300    6    0    1
 -2       205       140       585       595      1635      2196      2198      2199      2197      2200
 -1      1301    6    0    1
 -2       354       355       352       610      1346      1347      1333      2202      2201      2203
 -1      1302    6    0    1
 -2       284       248       494        58      2204      2060      2205       986      1718      2206
 -1      1303    6    0    1
 -2       329       323       515       583      1235      2207      2208      2209      2175      2210
 -1      1304    6    0    1
 -2       329       538       312       517      2171      2172      1218      2211      2183      2186
 -1      1305    6    0    1
 -2       481       524       572       504      2212      2213      2215      2128      2214      2216
 -1      1306    6    0    1
 -2       269       270       294       458      1043      1056      1059      2218      2217      2219
 -1      1307    6    0    1
 -2       572       509       504       524      2220      1213      2216      2213      2221      2214
 -1      1308    6    0    1
 -2       478       548       510       477      2222      2223      2147      1975      2224      2146
 -1      1309    6    0    1
 -2        56       244       281        55      1712      2225       978       656      1711       977
 -1      1310    6    0    1
 -2       147       128       146       424      1160      1207       755      2226      1759      2227
 -1      1311    6    0    1
 -2       567       602       603       604      2228      2229      2231      2232      2230      2233
 -1      1312    6    0    1
 -2       372         2        66       518      1458       667      1459      2235      2234      2236
 -1      1313    6    0    1
 -2       607       550       544       611      2237      2238      2240      2241      2239      2242
 -1      1314    6    0    1
 -2        57       493       245       246      2243      2057      1714      1715      2056       865
 -1      1315    6    0    1
 -2       548       361       546       409      2244      2245      2247      2248      2246      2249
 -1      1316    6    0    1
 -2        28        17       301         7       878      2250      2251       626       613      2252
 -1      1317    6    0    1
 -2        28         7       301        99       626      2252      2251      1778      1779      1094
 -1      1318    6    0    1
 -2       593       399       136       400      2253      1618      2254      2255      1601      1621
 -1      1319    6    0    1
 -2       518       266        66       545      2256       935      2236      2258      2257      2259
 -1      1320    6    0    1
 -2       357       478       548       373      2260      2222      2262      1538      2261      2263
 -1      1321    6    0    1
 -2        27       265        98        28       929      2264      1776       625       912      1777
 -1      1322    6    0    1
 -2        64       558       292       554      2265      2266      1048      2268      2267      2269
 -1      1323    6    0    1
 -2       134       588       133       404      2270      2271       741      1632      2272      1629
 -1      1324    6    0    1
 -2       478       174       510       373      1979      2089      2147      2261      1515      2273
 -1      1325    6    0    1
 -2       538       324       312       327      2170      1251      2172      2274      1237      1215
 -1      1326    6    0    1
 -2       402       584       585       139      2275      2276      2278      1624      2277      2279
 -1      1327    6    0    1
 -2       478       357       174       373      2260      1350      1979      2261      1538      1515
 -1      1328    6    0    1
 -2       548       549       476       223      2280      2281      2283      2284      2282      1968
 -1      1329    6    0    1
 -2       137       599       319       318      2285      2286      1177      1175      2287      1179
 -1      1330    6    0    1
 -2       561       591       513       579      2288      2289      2291      2292      2290      2293
 -1      1331    6    0    1
 -2       430       148       130       131      2294      1201      1762      1763      1220       737
 -1      1332    6    0    1
 -2         2       266        66       518       932       935       667      2234      2256      2236
 -1      1333    6    0    1
 -2       518       545        66       389      2258      2259      2236      2296      2295      1525
 -1      1334    6    0    1
 -2       143       541       369       515      2297      2298      1425      2300      2299      2301
 -1      1335    6    0    1
 -2       143       541       515       323      2297      2299      2300      1192      2302      2207
 -1      1336    6    0    1
 -2       149         3        92       371       758       695      1190      1430      1429      2303
 -1      1337    6    0    1
 -2       583       515       541       323      2210      2299      2304      2175      2207      2302
 -1      1338    6    0    1
 -2       329       515       323       324      2208      2207      1235      1236      2305      1195
 -1      1339    6    0    1
 -2        77       490       463       277      2306      2100      2308      1016      2307      2309
 -1      1340    6    0    1
 -2       188        78       490       187      1374      2310      2046       800      1375      2101
 -1      1341    6    0    1
 -2       566       519       543       602      2311      2312      2314      2315      2313      2316
 -1      1342    6    0    1
 -2       507       575       499       480      2317      2318      2135      1614      2319      2077
 -1      1343    6    0    1
 -2        77       490       277        78      2306      2307      1016       679      2310      1018
 -1      1344    6    0    1
 -2       522       542       541       334      2320      2321      2323      2324      2322      2325
 -1      1345    6    0    1
 -2       342       550       366       544      2326      2327      2328      2329      2238      2330
 -1      1346    6    0    1
 -2       324       144       325       520      1194      1196      1198      2332      2331      2333
 -1      1347    6    0    1
 -2       218       569       219       564      2334      2335       837      2337      2336      2338
 -1      1348    6    0    1
 -2       152       336       151       422      1263      1262       761      1740      2339      1741
 -1      1349    6    0    1
 -2       601       289       547       549      2340      2341      2343      2344      2342      2345
 -1      1350    6    0    1
 -2        78        79       189       278       680      1378      1376      1020      1019      2346
 -1      1351    6    0    1
 -2       543       602       607       571      2316      2347      2349      2350      2348      2351
 -1      1352    6    0    1
 -2        57       467       283       282      2352      2353       983       981      2354       985
 -1      1353    6    0    1
 -2       542       583       541       334      2355      2304      2321      2322      2174      2325
 -1      1354    6    0    1
 -2       217       568       564       417      2356      2357      2359      2360      2358      2361
 -1      1355    6    0    1
 -2       405       218       568       411      1642      2362      2363      1677      1665      2364
 -1      1356    6    0    1
 -2         7       100       301        99      1780      1093      2252      1779       704      1094
 -1      1357    6    0    1
 -2       567       406       411       569      2365      1663      2367      2368      2366      2369
 -1      1358    6    0    1
 -2        42       290        41       433      1042      1041       642      1796      2370      1797
 -1      1359    6    0    1
 -2       383       595       585       391      2371      2200      2373      1533      2372      2374
 -1      1360    6    0    1
 -2       572       288       415       497      2375      2376      2378      2379      2377      2380
 -1      1361    6    0    1
 -2       506       358       483       294      2381      2382      1586      2384      2383      2385
 -1      1362    6    0    1
 -2       102       302       256        18      1095      2386      2388      1783      2387       882
 -1      1363    6    0    1
 -2       542       333       583       334      2389      2173      2355      2322      1234      2174
 -1      1364    6    0    1
 -2       359       201        88       502      1398      1478      1463      2390      2114      2391
 -1      1365    6    0    1
 -2        54        53       241       279       654      1706      1707       973       972      2392
 -1      1366    6    0    1
 -2       217       568       417       405      2356      2358      2360      1641      2363      2393
 -1      1367    6    0    1
 -2       453       543       422       563      2394      2395      1886      2397      2396      2398
 -1      1368    6    0    1
 -2       178        71       179       271      1359      1358       791      2399      1004      2400
 -1      1369    6    0    1
 -2       598       542       334       319      2401      2322      2403      2404      2402      1232
 -1      1370    6    0    1
 -2        38       265        39       113       911       910       637      1440      2405      1442
 -1      1371    6    0    1
 -2       342       606       550       544      2406      2407      2326      2329      2408      2238
 -1      1372    6    0    1
 -2        45       485       459       271      2409      2023      2411       948      2410      2151
 -1      1373    6    0    1
 -2       285       468        59       249      2412      2413       989      2414      1947      1720
 -1      1374    6    0    1
 -2       269       484       294       268      2415      2416      1059       945      2417      1068
 -1      1375    6    0    1
 -2       483       505       294       484      1585      2418      2385      2144      1581      2416
 -1      1376    6    0    1
 -2       522       542       334       598      2320      2322      2324      2419      2401      2403
 -1      1377    6    0    1
 -2        13       215       363       205       832      2420      1406       819      1611      1405
 -1      1378    6    0    1
 -2       512       577       580       532      2421      2422      2424      2425      2423      2426
 -1      1379    6    0    1
 -2       309        39       113       114      2427      1442      1142      1130      1441       719
 -1      1380    6    0    1
 -2        20       104       257        19      1787      2428       886       617      1786       885
 -1      1381    6    0    1
 -2       543       446       539       530      2429      2430      2432      2433      2431      2434
 -1      1382    6    0    1
 -2       307        27       264       300      2435       907      2437      1125      2436      2438
 -1      1383    6    0    1
 -2       309        28       301        99      2439      2251      1127      1128      1778      1094
 -1      1384    6    0    1
 -2       100       306       101         7      1117      1119       705      1780      2440      1781
 -1      1385    6    0    1
 -2       284       494        84       283      2205      2441      1032       988      2442      1029
 -1      1386    6    0    1
 -2       539       530       447       540      2434      2443      2445      2446      2444      2447
 -1      1387    6    0    1
 -2       289       549       290       268      2342      2448      1077      1070      2449      1060
 -1      1388    6    0    1
 -2       467        83       282       194      2450      1027      2354      2009      1387      2451
 -1      1389    6    0    1
 -2       551       314       596       425      2452      2453      2455      2456      2454      2457
 -1      1390    6    0    1
 -2       559       529        40       580      2458      2459      2461      2462      2460      2463
 -1      1391    6    0    1
 -2       609       529       570       519      2464      2465      2467      2468      2466      2469
 -1      1392    6    0    1
 -2        40       518       514       609      2470      2471      2473      2474      2472      2475
 -1      1393    6    0    1
 -2       572       288       524       296      2375      2476      2213      2477      1075      2478
 -1      1394    6    0    1
 -2       419       207       554       416      2479      2480      2482      1819      2481      2483
 -1      1395    6    0    1
 -2       445       453       563       566      1904      2397      2485      2486      2484      2487
 -1      1396    6    0    1
 -2       439       456       560       454      1915      2488      2489      1914      1923      2490
 -1      1397    6    0    1
 -2        86       199       286        87      1393      2491      1036       688      1396      1035
 -1      1398    6    0    1
 -2       444       543       530       446      2492      2433      2493      1922      2429      2431
 -1      1399    6    0    1
 -2        60       285       249       495       990      2414      1721      2495      2494      2065
 -1      1400    6    0    1
 -2       111       299       110        37      1101      1100       716      1436      2496      1437
 -1      1401    6    0    1
 -2       605       290       268       564      2497      1060      2499      2500      2498      2501
 -1      1402    6    0    1
 -2       263       299        95        26      2502      1090      2504       904      2503      1772
 -1      1403    6    0    1
 -2       601       266       290       570      2505      1069      2507      2508      2506      2509
 -1      1404    6    0    1
 -2       570       529        40         8      2465      2459      2511      2512      2510       639
 -1      1405    6    0    1
 -2        36       308       298       263      2513      1126      2515       926      2514      2516
 -1      1406    6    0    1
 -2        25       263       308        95       903      2514      2517      1771      2504      1123
 -1      1407    6    0    1
 -2       218       564       498       217      2337      2518      2073       836      2359      2075
 -1      1408    6    0    1
 -2       460       232        47       233      1932      1691      2519      1931       852      1692
 -1      1409    6    0    1
 -2        45       230       231       459      1687       850      1688      2411      1930      1929
 -1      1410    6    0    1
 -2        94       298       308        25      1088      1126      1124      1770      2520      2517
 -1      1411    6    0    1
 -2       160       571       161       567      2521      2522       771      2524      2523      2525
 -1      1412    6    0    1
 -2       581       525       526       524      2526      2527      2529      2530      2528      2531
 -1      1413    6    0    1
 -2       193       282       194       493      2532      2451       806      2107      2533      2058
 -1      1414    6    0    1
 -2       263       299       308        95      2502      1138      2514      2504      1090      1123
 -1      1415    6    0    1
 -2       607       539       610       550      2534      2535      2537      2237      2536      2538
 -1      1416    6    0    1
 -2       529       570       432         8      2465      2539      2540      2510      2512      1816
 -1      1417    6    0    1
 -2        75       276       185       462      1015      2541      1369      2543      2542      2000
 -1      1418    6    0    1
 -2       486        46       231       271      2544      1689      2029      2149       949      2150
 -1      1419    6    0    1
 -2       182       274        74       461      2545      1010      1366      1997      2546      2547
 -1      1420    6    0    1
 -2       314       315       551       596      1167      2548      2452      2453      2549      2455
 -1      1421    6    0    1
 -2       548       476       506       477      2283      2133      2550      2224      1972      2145
 -1      1422    6    0    1
 -2       487       461        48       274      2031      2551      2552      2553      2546       957
 -1      1423    6    0    1
 -2       259        10         4       297      2554       696      2555      2556      1081      1080
 -1      1424    6    0    1
 -2       537       388       370       367      2557      1561      2558      2559      1560      1527
 -1      1425    6    0    1
 -2        53       464       241       279      2560      1939      1706       972      2561      2392
 -1      1426    6    0    1
 -2       572       288       502       524      2375      2562      2563      2213      2476      2564
 -1      1427    6    0    1
 -2       501       581       213       212      2565      2566      2083      2084      2567       829
 -1      1428    6    0    1
 -2       485        45       270       271      2409       947      2568      2410       948       950
 -1      1429    6    0    1
 -2       222       547       223       549      2569      2570       841      2571      2345      2282
 -1      1430    6    0    1
 -2       383       595       391       364      2371      2372      1533      1506      2572      1532
 -1      1431    6    0    1
 -2       519       453       574       432      2573      2574      2575      2576      1910      2577
 -1      1432    6    0    1
 -2       262        35       261        92       924       921       902      2579      2578      2580
 -1      1433    6    0    1
 -2       423       337       537       381      2161      2162      2163      2582      2581      2583
 -1      1434    6    0    1
 -2       490       277       278        52      2307       971      2584      2585       967       969
 -1      1435    6    0    1
 -2       276       489       277        76      2586      2587       968      1014      2588      1017
 -1      1436    6    0    1
 -2       302       256        29       117      2386       880      2590      1107      2589      1446
 -1      1437    6    0    1
 -2       595       322       140       600      2591      1186      2197      2593      2592      2594
 -1      1438    6    0    1
 -2       550       378       539       349      2595      2596      2536      2598      2597      2599
 -1      1439    6    0    1
 -2       572       434       471       415      2600      2601      2602      2378      1813      2603
 -1      1440    6    0    1
 -2       259        10       297       107      2554      1081      2556      2604       712      1082
 -1      1441    6    0    1
 -2       552       558       557       559      2605      2606      2608      2609      2607      2610
 -1      1442    6    0    1
 -2        71       486       179       271      2611      2093      1358      1004      2149      2400
 -1      1443    6    0    1
 -2       102       256       305        19      2388      2612      1114      1784       884      2613
 -1      1444    6    0    1
 -2       279       190       189       491      2614       802      2615      2616      2050      2103
 -1      1445    6    0    1
 -2       181       273       487       460      2617      2618      2095      1996      2619      2094
 -1      1446    6    0    1
 -2       409       361       546       382      2246      2245      2249      2620      1503      2621
 -1      1447    6    0    1
 -2       259         4        10       260      2555       696      2554       896      2622      2623
 -1      1448    6    0    1
 -2       352       355       356       610      1347      1349      1344      2203      2201      2624
 -1      1449    6    0    1
 -2       150       563       421       437      2625      2626      1738      1824      2627      1845
 -1      1450    6    0    1
 -2       567       406       604       161      2365      2628      2232      2525      1651      2629
 -1      1451    6    0    1
 -2       485       269       458       270      2630      2218      2079      2568      1043      2217
 -1      1452    6    0    1
 -2        37       263       299       110       925      2502      2496      1437      2158      1100
 -1      1453    6    0    1
 -2        45       459       485       230      2411      2023      2409      1687      1930      2024
 -1      1454    6    0    1
 -2       241       464       491       279      1939      2102      2049      2392      2561      2616
 -1      1455    6    0    1
 -2       574       432       453       444      2577      1910      2574      2631      1855      1911
 -1      1456    6    0    1
 -2       232        46       486       272      1690      2544      2028      2632       951      2633
 -1      1457    6    0    1
 -2       352       356       606       610      1344      2634      2635      2203      2624      2636
 -1      1458    6    0    1
 -2        66       546       389       545      2637      2638      1525      2259      2639      2295
 -1      1459    6    0    1
 -2       394       611       395       518      2640      2641      1579      2643      2642      2644
 -1      1460    6    0    1
 -2       186       463        77       187      2001      2308      1373       799      2002      1372
 -1      1461    6    0    1
 -2       423       438       428       537      1850      1867      1866      2163      2160      2645
 -1      1462    6    0    1
 -2       201       359       202       502      1398      1397       814      2114      2390      1255
 -1      1463    6    0    1
 -2       218       219       472       564       837      1957      1956      2337      2338      2646
 -1      1464    6    0    1
 -2       168       550       378       366      2647      2595      1485      1412      2327      1553
 -1      1465    6    0    1
 -2       475       549       505       605      2648      2649      2131      2651      2650      2652
 -1      1466    6    0    1
 -2       605       505       268       549      2652      2653      2499      2650      2649      2449
 -1      1467    6    0    1
 -2       257       310       305        19      2654      1151      2656       885      2655      2613
 -1      1468    6    0    1
 -2       163       346       164       608      1296      1298       774      2658      2657      2659
 -1      1469    6    0    1
 -2       162       604       161       603      2660      2629       772      2661      2233      2662
 -1      1470    6    0    1
 -2       104        20       257       303      1787       886      2428      1098      2663      2664
 -1      1471    6    0    1
 -2       256       257       305        19       887      2656      2612       884       885      2613
 -1      1472    6    0    1
 -2       133       314       132       596      1164      1163       740      2665      2453      2666
 -1      1473    6    0    1
 -2       288       295       524       296      1076      2667      2476      1075      1073      2478
 -1      1474    6    0    1
 -2        92         3       261       371       695      2668      2580      2303      1429      2669
 -1      1475    6    0    1
 -2       515       369       143       380      2301      1425      2300      2670      1508      1493
 -1      1476    6    0    1
 -2       189       278       279       464      2346      1044      2615      2004      2671      2561
 -1      1477    6    0    1
 -2       324       515       143       380      2305      2300      1193      2672      2670      1493
 -1      1478    6    0    1
 -2       572       471       497       415      2602      2122      2379      2378      2603      2380
 -1      1479    6    0    1
 -2       221       549       222       475      2673      2571       840      1964      2648      1965
 -1      1480    6    0    1
 -2       284       248        59       468      2204      1719       987      2674      1948      2413
 -1      1481    6    0    1
 -2       554       556       440       558      2675      2676      2678      2267      2677      2679
 -1      1482    6    0    1
 -2       445       450       565       421      1876      2680      2681      1859      1874      2682
 -1      1483    6    0    1
 -2       189       279       278        79      2615      1044      2346      1378      1022      1019
 -1      1484    6    0    1
 -2       536       516       592       514      2683      2684      2686      2687      2685      2688
 -1      1485    6    0    1
 -2       279       189       190        79      2615       802      2614      1022      1378      1377
 -1      1486    6    0    1
 -2       534       512       532       523      2689      2425      2691      2692      2690      2693
 -1      1487    6    0    1
 -2       209       575       587       555      2694      2695      2697      2698      2696      2699
 -1      1488    6    0    1
 -2       279       242       465       491      2700      1942      2701      2616      2048      2047
 -1      1489    6    0    1
 -2       557       292       559       558      2702      2703      2610      2606      2266      2607
 -1      1490    6    0    1
 -2       464       189       491       279      2004      2103      2102      2561      2615      2616
 -1      1491    6    0    1
 -2       203       482       377       360      2085      2704      1479      1400      2705      1497
 -1      1492    6    0    1
 -2       530       539       521       540      2434      2706      2707      2444      2446      2708
 -1      1493    6    0    1
 -2       542       511       541       583      2709      2710      2321      2355      2711      2304
 -1      1494    6    0    1
 -2       337       438       537       345      2159      2160      2162      1312      2712      2713
 -1      1495    6    0    1
 -2       568       570       290       433      2714      2509      2716      2717      2715      2370
 -1      1496    6    0    1
 -2       394       544       518       389      2718      2719      2643      1536      2720      2296
 -1      1497    6    0    1
 -2        36       308       263       110      2513      2514       926      1435      1137      2158
 -1      1498    6    0    1
 -2       309       265       300       113      2721      2722      1140      1142      2405      1103
 -1      1499    6    0    1
 -2       299       263       308       110      2502      2514      1138      1100      2158      1137
 -1      1500    6    0    1
 -2       291       434       415        63      2723      1813      2724      1046      1803      1814
 -1      1501    6    0    1
 -2       605       290       564       569      2497      2498      2500      2726      2725      2336
 -1      1502    6    0    1
 -2       199       496        87       200      2113      2727      1396       812      2070      1395
 -1      1503    6    0    1
 -2       519       453       432       566      2573      1910      2576      2311      2484      2728
 -1      1504    6    0    1
 -2       534       532       594       523      2691      2729      2730      2692      2693      2731
 -1      1505    6    0    1
 -2       580       559       533       576      2462      2732      2734      2735      2733      2736
 -1      1506    6    0    1
 -2       605       290       569       549      2497      2725      2726      2650      2448      2737
 -1      1507    6    0    1
 -2       580       559       513       533      2462      2738      2739      2734      2732      2740
 -1      1508    6    0    1
 -2       208       555       588       554      2741      2742      2744      2745      2743      2746
 -1      1509    6    0    1
 -2       433       564       290       568      2747      2498      2370      2717      2357      2716
 -1      1510    6    0    1
 -2        38       265       300       264       911      2722      2748       927       930      2438
 -1      1511    6    0    1
 -2       562       551       330       315      2749      2750      2153      2751      2548      1221
 -1      1512    6    0    1
 -2       569       221       605       549      2752      2753      2726      2737      2673      2650
 -1      1513    6    0    1
 -2       584       600       598       523      2754      2755      2757      2758      2756      2759
 -1      1514    6    0    1
 -2       469        60       250       495      2760      1722      1950      2063      2495      2064
 -1      1515    6    0    1
 -2       559       580        40       267      2462      2463      2461      2762      2761       937
 -1      1516    6    0    1
 -2       327       427       538       428      2763      2182      2274      2764      1755      2765
 -1      1517    6    0    1
 -2       542       332       333       318      2766      1231      2389      2767      1227      1229
 -1      1518    6    0    1
 -2       408       412       164       608      1671      1674      1654      2769      2768      2659
 -1      1519    6    0    1
 -2       564       413       448       414      2770      1903      2771      2772      1685      1868
 -1      1520    6    0    1
 -2       568       290       570       569      2716      2509      2714      2773      2725      2774
 -1      1521    6    0    1
 -2       344       378       539       367      2775      2596      2776      2777      1484      2778
 -1      1522    6    0    1
 -2       396       536       516       521      2779      2683      2781      2782      2780      2783
 -1      1523    6    0    1
 -2       320       598       334       319      2784      2403      1233      1182      2404      1232
 -1      1524    6    0    1
 -2       529       519       530       574      2466      2785      2786      2787      2575      2788
 -1      1525    6    0    1
 -2       370       537       367       381      2558      2559      1527      1509      2583      1418
 -1      1526    6    0    1
 -2       344       367       539       537      2777      2778      2776      2789      2559      2790
 -1      1527    6    0    1
 -2       258       105        21       304      2791      1789       889      2189      1111      2792
 -1      1528    6    0    1
 -2       530       447       540       439      2443      2447      2444      2793      1864      2794
 -1      1529    6    0    1
 -2        43       269       436        44       943      2795      1837       644       944      1836
 -1      1530    6    0    1
 -2       408       548       546       409      2796      2247      2797      1667      2248      2249
 -1      1531    6    0    1
 -2       572       509       524       502      2220      2221      2213      2563      1253      2564
 -1      1532    6    0    1
 -2       419       554       397       556      2482      2798      2799      2800      2675      2801
 -1      1533    6    0    1
 -2        21       105       106       304      1789       710      1790      2792      1111      1113
 -1      1534    6    0    1
 -2       588       587       553       557      2802      2803      2166      2805      2804      2806
 -1      1535    6    0    1
 -2       390       511       521       541      2807      2808      2809      2810      2710      2811
 -1      1536    6    0    1
 -2       584       586       594       402      2812      2813      2815      2275      2814      2816
 -1      1537    6    0    1
 -2       302        17       256        18      2817       881      2386      2387       876       882
 -1      1538    6    0    1
 -2       368       387       522       523      1521      2818      2820      2821      2819      2822
 -1      1539    6    0    1
 -2       593       135       399       553      2823      1619      2253      2825      2824      2826
 -1      1540    6    0    1
 -2       291       554        64       292      2827      2268      1047      1051      2269      1048
 -1      1541    6    0    1
 -2       444       543       446       453      2492      2429      1922      1911      2394      1901
 -1      1542    6    0    1
 -2       397       207       208       554      1591       824      1593      2798      2480      2745
 -1      1543    6    0    1
 -2       434       291        64        63      2723      1047      1802      1803      1046       664
 -1      1544    6    0    1
 -2       416       434       479       554      1881      2828      2830      2483      2829      2831
 -1      1545    6    0    1
 -2       434       291       554        64      2723      2827      2829      1802      1047      2268
 -1      1546    6    0    1
 -2       133       397       404       588      1592      1630      1629      2271      2832      2272
 -1      1547    6    0    1
 -2       573       530       513       591      2833      2834      2836      2837      2835      2289
 -1      1548    6    0    1
 -2       301       265       309        39      2838      2721      1127      2176       910      2427
 -1      1549    6    0    1
 -2       419       397       554       207      2799      2798      2482      2479      1591      2480
 -1      1550    6    0    1
 -2       536       392       514       531      2839      2840      2687      2842      2841      2843
 -1      1551    6    0    1
 -2       525       295       524       374      2844      2667      2528      2846      2845      2847
 -1      1552    6    0    1
 -2       556       397       420       588      2801      2848      2849      2850      2832      2851
 -1      1553    6    0    1
 -2       561       557       553       533      2852      2806      2854      2855      2853      2856
 -1      1554    6    0    1
 -2       295       525       524       526      2844      2528      2667      2857      2527      2531
 -1      1555    6    0    1
 -2       586       212       581       582      2858      2567      2860      2861      2859      2862
 -1      1556    6    0    1
 -2       560       551       562       552      2863      2749      2865      2866      2864      2867
 -1      1557    6    0    1
 -2       534       542       592       523      2868      2869      2871      2692      2870      2872
 -1      1558    6    0    1
 -2       601       569       570       290      2873      2774      2508      2507      2725      2509
 -1      1559    6    0    1
 -2       167       343       168       366      1284      1283       779      1411      2874      1412
 -1      1560    6    0    1
 -2       611       550       366       378      2239      2327      2875      2876      2595      1553
 -1      1561    6    0    1
 -2       512       577       532       528      2421      2423      2425      2878      2877      2879
 -1      1562    6    0    1
 -2       355       610       349       356      2201      2880      1338      1349      2624      1342
 -1      1563    6    0    1
 -2        43       269       268       436       943       945       942      1837      2795      2881
 -1      1564    6    0    1
 -2       550       343       168       349      2882      1283      2647      2598      1310      1307
 -1      1565    6    0    1
 -2       395       516       378       396      2883      2884      1556      1554      2781      1555
 -1      1566    6    0    1
 -2       485       269       229       458      2630      2885      2025      2079      2218      1927
 -1      1567    6    0    1
 -2       516       521       539       396      2783      2706      2886      2781      2782      2887
 -1      1568    6    0    1
 -2       361       225       409       548      2888      1658      2246      2244      2889      2248
 -1      1569    6    0    1
 -2       168       169       378       349       780      1483      1485      1307      1306      2597
 -1      1570    6    0    1
 -2        65       267       559        40       940      2762      2890       936       937      2461
 -1      1571    6    0    1
 -2       388       396       378       539      1577      1555      1567      2891      2887      2596
 -1      1572    6    0    1
 -2       559       580       267       576      2462      2761      2762      2733      2735      2892
 -1      1573    6    0    1
 -2       456       439       517       125      1915      2893      2192      1833      1831      2894
 -1      1574    6    0    1
 -2       556       397       206       420      2801      1590      2895      2849      2848      1736
 -1      1575    6    0    1
 -2       407       569       549       221      2896      2737      2897      1646      2752      2673
 -1      1576    6    0    1
 -2       606       356       550       610      2634      2898      2407      2636      2624      2538
 -1      1577    6    0    1
 -2       414        43       268       436      1798       942      2899      1812      1837      2881
 -1      1578    6    0    1
 -2       536       512       523       531      2900      2690      2902      2842      2901      2903
 -1      1579    6    0    1
 -2       411       565       567       568      2904      2905      2367      2364      2906      2907
 -1      1580    6    0    1
 -2       555       587       527       575      2699      2908      2909      2696      2695      2910
 -1      1581    6    0    1
 -2       519       432       574       529      2576      2577      2575      2466      2540      2787
 -1      1582    6    0    1
 -2       134       588       404       553      2270      2272      1632      2911      2166      2912
 -1      1583    6    0    1
 -2       314       123       132       425      1244      1152      1163      2454      1747      2913
 -1      1584    6    0    1
 -2       340       347       351       571      1308      1318      1324      2915      2914      2916
 -1      1585    6    0    1
 -2       336       351       610       355      1323      2917      2918      1334      1337      2201
 -1      1586    6    0    1
 -2       419       397       206       556      2799      1590      1735      2800      2801      2895
 -1      1587    6    0    1
 -2       460       232       486       272      1932      2028      2027      2919      2632      2633
 -1      1588    6    0    1
 -2       166       409       165       544      1660      1680       776      2921      2920      2922
 -1      1589    6    0    1
 -2       494       467       195       283      2108      2010      2109      2442      2353      2923
 -1      1590    6    0    1
 -2       265       309        39       113      2721      2427       910      2405      1142      1442
 -1      1591    6    0    1
 -2       607       544       606       608      2240      2408      2925      2926      2924      2927
 -1      1592    6    0    1
 -2       432       570       519       566      2539      2469      2576      2728      2928      2311
 -1      1593    6    0    1
 -2       160       161       571       340       771      2522      2521      1277      1276      2915
 -1      1594    6    0    1
 -2       516       518       514       395      2929      2471      2685      2883      2644      2930
 -1      1595    6    0    1
 -2       599       594       598       534      2931      2932      2933      2934      2730      2935
 -1      1596    6    0    1
 -2       590       330       517       329      2152      2154      2156      2936      1252      2211
 -1      1597    6    0    1
 -2        84       494       195       283      2441      2109      1389      1029      2442      2923
 -1      1598    6    0    1
 -2       597       535       579       561      2937      2938      2940      2941      2939      2292
 -1      1599    6    0    1
 -2       575       572       481       581      2942      2215      2944      2945      2943      2946
 -1      1600    6    0    1
 -2       339       421       563       565      2947      2626      2948      2949      2682      2950
 -1      1601    6    0    1
 -2       386       544       394       389      2951      2718      1551      1572      2720      1536
 -1      1602    6    0    1
 -2       375        90       293       525      1467      1054      2953      2954      2952      2955
 -1      1603    6    0    1
 -2         5       364       595       205      1407      2572      2956       820      1408      2199
 -1      1604    6    0    1
 -2       240       490       278        52      2044      2584      2957      1704      2585       969
 -1      1605    6    0    1
 -2       530       447       439       444      2443      1864      2793      2493      1913      1912
 -1      1606    6    0    1
 -2       284       248        58        59      2204      1718       986       987      1719       659
 -1      1607    6    0    1
 -2       554       292       557       558      2269      2702      2958      2267      2266      2606
 -1      1608    6    0    1
 -2       193       192       281       466       805      2959      2960      2008      2007      2961
 -1      1609    6    0    1
 -2       460       181        72       180      1996      1361      2962      1995       793      1362
 -1      1610    6    0    1
 -2       519       516       530       543      2963      2964      2785      2312      2965      2433
 -1      1611    6    0    1
 -2       122       259       121        32      2966      2967       727      1455       918      1453
 -1      1612    6    0    1
 -2        43        42       414       268       643      1799      1798       942       941      2899
 -1      1613    6    0    1
 -2       184       275       462       488      2968      2969      1999      2038      2970      2035
 -1      1614    6    0    1
 -2       570       266        41        40      2506       934      2971      2511       933       931
 -1      1615    6    0    1
 -2       467       247       283       494      1945      2972      2353      2108      2061      2442
 -1      1616    6    0    1
 -2       233       273        48        47      2973       955      1693      1692       954       648
 -1      1617    6    0    1
 -2        40       518       609       266      2470      2472      2474       933      2256      2974
 -1      1618    6    0    1
 -2       292        65       559       558      1049      2890      2703      2266      2975      2607
 -1      1619    6    0    1
 -2       489        77       463       277      2976      2308      2039      2587      1016      2309
 -1      1620    6    0    1
 -2       439       560       530       444      2489      2977      2793      1912      2978      2493
 -1      1621    6    0    1
 -2       484       612       505       268      2979      2980      1581      2417      2981      2653
 -1      1622    6    0    1
 -2       494       247       283        58      2061      2972      2442      2206      1717       984
 -1      1623    6    0    1
 -2       461        48       274        49      2551       957      2546      2982       649       958
 -1      1624    6    0    1
 -2       433       568       455       441      2717      2983      1906      1892      2984      1909
 -1      1625    6    0    1
 -2       559       573       513       561      2985      2836      2738      2987      2986      2291
 -1      1626    6    0    1
 -2        77       490        78       187      2306      2310       679      1372      2101      1375
 -1      1627    6    0    1
 -2       221       549       407       222      2673      2897      1646       840      2571      1645
 -1      1628    6    0    1
 -2       182       461        74       183      1997      2547      1366       795      1998      1365
 -1      1629    6    0    1
 -2       262        24        92       261       900      2988      2579       902       898      2580
 -1      1630    6    0    1
 -2       549       505       268       294      2649      2653      2449      2989      2418      1068
 -1      1631    6    0    1
 -2        45       485       270        44      2409      2568       947       645      2990       946
 -1      1632    6    0    1
 -2       258       121        32       120      2991      1453       915      2188       726      1454
 -1      1633    6    0    1
 -2       529       530       514       513      2786      2992      2993      2994      2834      2995
 -1      1634    6    0    1
 -2       104       310       257        19      1133      2654      2428      1786      2655       885
 -1      1635    6    0    1
 -2       592       579       534       513      2996      2997      2871      2998      2293      2999
 -1      1636    6    0    1
 -2       375       383       393       525      1568      1552      1564      2954      3000      3001
 -1      1637    6    0    1
 -2       211       578       400       399      3002      3003      1599      1597      3004      1601
 -1      1638    6    0    1
 -2       555       471       500       572      3005      2138      3006      3007      2602      3008
 -1      1639    6    0    1
 -2       542       522       592       523      2320      3009      2869      2870      2822      2872
 -1      1640    6    0    1
 -2       259       106        21       107      3010      1790       891      2604       711      1791
 -1      1641    6    0    1
 -2       552       558       559       452      2605      2607      2609      3012      3011      3013
 -1      1642    6    0    1
 -2       556       420       206       442      2849      1736      2895      3014      1847      1846
 -1      1643    6    0    1
 -2       352       606       603       610      2635      3015      3016      2203      2636      3017
 -1      1644    6    0    1
 -2       131       431       371        92      1764      3018      3020      1162      3019      2303
 -1      1645    6    0    1
 -2       546       384       389       382      3021      1526      2638      2621      1574      1571
 -1      1646    6    0    1
 -2       148       430       130       424      2294      1762      1201      3022      1835      1761
 -1      1647    6    0    1
 -2       456       311       326       517      2190      1208      3023      2192      2194      3024
 -1      1648    6    0    1
 -2       512       534       513       592      2689      2999      3025      3026      2871      2998
 -1      1649    6    0    1
 -2        38       112       300       113      1438      1102      2748      1440       718      1103
 -1      1650    6    0    1
 -2       235       461       488        49      1933      2096      2037      1696      2982      3027
 -1      1651    6    0    1
 -2       607       539       550       516      2534      2536      2237      3028      2886      3029
 -1      1652    6    0    1
 -2       288        89        88       359      1039       690      1040      3030      1464      1463
 -1      1653    6    0    1
 -2       175       358       176       483      1353      1352       788      1989      2382      1990
 -1      1654    6    0    1
 -2       386       394       544       365      1551      2718      2951      1519      1543      3031
 -1      1655    6    0    1
 -2       133       314       596       315      1164      2453      2665      1165      1167      2549
 -1      1656    6    0    1
 -2       583       329       332       590      2209      1257      3032      3033      2936      3034
 -1      1657    6    0    1
 -2       550       168       378       349      2647      1485      2595      2598      1307      2597
 -1      1658    6    0    1
 -2       148       430       173       371      2294      3035      1422      1522      3036      1488
 -1      1659    6    0    1
 -2       259       122       121       297      2966       727      2967      2556      1083      1110
 -1      1660    6    0    1
 -2       304       259       121       297      3037      2967      1150      1136      2556      1110
 -1      1661    6    0    1
 -2       454       449       451       552      1918      1894      1921      3039      3038      3040
 -1      1662    6    0    1
 -2       460       273       272        72      2619       956      2919      2962      1009      1006
 -1      1663    6    0    1
 -2       597       331       562       579      3041      3042      3044      2940      3043      3045
 -1      1664    6    0    1
 -2       607       539       516       543      2534      2886      3028      2349      2432      2965
 -1      1665    6    0    1
 -2       376       375       531       385      1498      3046      3047      1517      1516      3048
 -1      1666    6    0    1
 -2       540       590       517       538      3049      2156      3051      3052      3050      2183
 -1      1667    6    0    1
 -2       326       311       330       517      1208      1243      1250      3024      2194      2154
 -1      1668    6    0    1
 -2       522       536       592       523      3053      2686      3009      2822      2902      2872
 -1      1669    6    0    1
 -2        13       203       360       215       816      1400      1399       832      1988      3054
 -1      1670    6    0    1
 -2       515       324       538       520      2305      2170      3055      3056      2332      3057
 -1      1671    6    0    1
 -2       597       596       561       562      3058      3059      2941      3044      3060      3061
 -1      1672    6    0    1
 -2        12       216       418       158       834      1733      1732       768      1637      3062
 -1      1673    6    0    1
 -2       132       552       596       425      3063      2167      2666      2913      3064      2457
 -1      1674    6    0    1
 -2       262        93        92        24      3065      1078      2579       900      1768      2988
 -1      1675    6    0    1
 -2       610       336       345       422      2918      1325      3066      3067      2339      3068
 -1      1676    6    0    1
 -2       425       551       552       596      2456      2864      3064      2457      2455      2167
 -1      1677    6    0    1
 -2       273       181       487        73      2617      2095      2618      1008      1364      3069
 -1      1678    6    0    1
 -2       559       561       533       557      2987      2855      2732      2610      2852      2853
 -1      1679    6    0    1
 -2       273       460       233       487      2619      1931      2973      2618      2094      2033
 -1      1680    6    0    1
 -2       131       148       371       430      1220      1522      3020      1763      2294      3036
 -1      1681    6    0    1
 -2        82       193        81       281      1385      1383       683      1025      2960      1026
 -1      1682    6    0    1
 -2       134       588       553       596      2270      2166      2911      3070      2165      2169
 -1      1683    6    0    1
 -2       601       289       549       290      2340      2342      2344      2507      1077      2448
 -1      1684    6    0    1
 -2         7       301       306        17      2252      1118      2440       613      2250      3071
 -1      1685    6    0    1
 -2       505       612       484       503      2980      2979      1581      1582      3072      1583
 -1      1686    6    0    1
 -2       299        95        26        96      1090      1772      2503      1089       700      1773
 -1      1687    6    0    1
 -2       569       220       219       605      3073       838      2335      2726      3074      3075
 -1      1688    6    0    1
 -2       496       287        87       200      3076      1038      2727      2070      3077      1395
 -1      1689    6    0    1
 -2       457       472       503       564      2126      1977      2125      3078      2646      3079
 -1      1690    6    0    1
 -2       219       472       564       473      1957      2646      2338      1958      1960      3080
 -1      1691    6    0    1
 -2       259        21        22       107       891       619       892      2604      1791      1792
 -1      1692    6    0    1
 -2       259       106       107       297      3010       711      2604      2556      1099      1082
 -1      1693    6    0    1
 -2       342       606       544       346      2406      2408      2329      1303      3081      3082
 -1      1694    6    0    1
 -2       486        71       180       272      2611      1360      2030      2633      1007      3083
 -1      1695    6    0    1
 -2        71        72       180       272       673      1362      1360      1007      1006      3083
 -1      1696    6    0    1
 -2       271        45       231       459       948      1688      2150      2151      2411      1929
 -1      1697    6    0    1
 -2       133       596       134       315      2665      3070       741      1165      2549      1166
 -1      1698    6    0    1
 -2       101       306        18         7      1119      3084      1782      1781      2440       615
 -1      1699    6    0    1
 -2       493       467        57       282      2055      2352      2243      2533      2354       981
 -1      1700    6    0    1
 -2       571       335       563       347      3085      3086      3087      2914      1315      3088
 -1      1701    6    0    1
 -2       500       572       471       508      3008      2602      2138      2017      3089      2139
 -1      1702    6    0    1
 -2       218       569       564       568      2334      2336      2337      2362      2773      2357
 -1      1703    6    0    1
 -2       603       567       604       161      2231      2232      2233      2662      2525      2629
 -1      1704    6    0    1
 -2       529       580       514        40      2460      3090      2993      2459      2463      2473
 -1      1705    6    0    1
 -2       485       177        70       270      2091      1357      3092      2568      3091      1002
 -1      1706    6    0    1
 -2       408       544       165       409      3093      2922      1655      1667      2920      1680
 -1      1707    6    0    1
 -2       364       368       595       391      1487      3094      2572      1532      1531      2372
 -1      1708    6    0    1
 -2        27        97        98       300      1775       702      1776      2436      1092      1091
 -1      1709    6    0    1
 -2       336       355       610       345      1334      2201      2918      1325      1335      3066
 -1      1710    6    0    1
 -2       335       151       422       437      1261      1741      3095      3096      1823      1851
 -1      1711    6    0    1
 -2       572       291       288       296      3097      1063      2375      2477      1074      1075
 -1      1712    6    0    1
 -2       216       405       418       158      1638      3098      1733      1637      1639      3062
 -1      1713    6    0    1
 -2       357       225       361       548      3099      2888      1500      2262      2889      2244
 -1      1714    6    0    1
 -2       352       606       356       350      2635      2634      1344      1322      3100      1345
 -1      1715    6    0    1
 -2       337       438       345       153      2159      2712      1312      1265      1825      1294
 -1      1716    6    0    1
 -2       146       313       429       128      1200      3101      3102      1207      1157      1757
 -1      1717    6    0    1
 -2       607       539       543       610      2534      2432      2349      2537      2535      3103
 -1      1718    6    0    1
 -2       529       435       432       574      3104      1817      2540      2787      3105      2577
 -1      1719    6    0    1
 -2       519       530       514       529      2785      2992      3106      2466      2786      2993
 -1      1720    6    0    1
 -2       540       591       517       590      3107      3108      3051      3049      3109      2156
 -1      1721    6    0    1
 -2       540       560       530       439      3110      2977      2444      2794      2489      2793
 -1      1722    6    0    1
 -2       424       148       172       147      3022      1421      3111      2226       756      1420
 -1      1723    6    0    1
 -2       335       336       422       151      1264      2339      3095      1261      1262      1741
 -1      1724    6    0    1
 -2       493        57       467       246      2243      2352      2055      2056      1715      1946
 -1      1725    6    0    1
 -2       395       516       392       514      2883      3112      1558      2930      2685      2840
 -1      1726    6    0    1
 -2        29         1       306       116       627      3113      3114      1447      1445      1146
 -1      1727    6    0    1
 -2       266       570        41       290      2506      2971       934      1069      2509      1041
 -1      1728    6    0    1
 -2       388       537       539       367      2557      2790      2891      1560      2559      2778
 -1      1729    6    0    1
 -2       595       322         5       140      2591      1187      2956      2197      1186       748
 -1      1730    6    0    1
 -2       243       280        55        54      3115       975      1710      1709       974       655
 -1      1731    6    0    1
 -2       287       496        61       252      3076      3116       994      3117      2068      1725
 -1      1732    6    0    1
 -2       254       471       415       497      1954      2603      1727      2071      2122      2380
 -1      1733    6    0    1
 -2       611       516       378       395      3118      2884      2876      2641      2883      1556
 -1      1734    6    0    1
 -2       611       550       378       516      2239      2595      2876      3118      3029      2884
 -1      1735    6    0    1
 -2       433       570       290        41      2715      2509      2370      1797      2971      1041
 -1      1736    6    0    1
 -2       279       242       491       241      2700      2048      2616      2392       861      2049
 -1      1737    6    0    1
 -2       586       212       582       401      2858      2859      2861      3119      1602      3120
 -1      1738    6    0    1
 -2       419       556       206       442      2800      2895      1735      1848      3014      1846
 -1      1739    6    0    1
 -2       259       106       297       304      3010      1099      2556      3037      1113      1136
 -1      1740    6    0    1
 -2       279       242       241        54      2700       861      2392       973      1708      1707
 -1      1741    6    0    1
 -2       344       337       537       345      1340      2162      2789      1341      1312      2713
 -1      1742    6    0    1
 -2       530       521       539       516      2707      2706      2434      2964      2783      2886
 -1      1743    6    0    1
 -2       469       285       495       198      3121      2494      2063      2013      3122      2066
 -1      1744    6    0    1
 -2       461        48        49       235      2551       649      2982      1933      1695      1696
 -1      1745    6    0    1
 -2       428       127       589       327      1754      3123      3124      2764      1205      3125
 -1      1746    6    0    1
 -2        36       308       110       109      2513      1137      1435      1433      1141       715
 -1      1747    6    0    1
 -2       285        60       469       495       990      2760      3121      2494      2495      2063
 -1      1748    6    0    1
 -2       327       427       428       126      2763      1755      2764      1206      1752      1753
 -1      1749    6    0    1
 -2       387       392       536       385      1578      2839      3126      1569      1562      3127
 -1      1750    6    0    1
 -2       126       127       428       327       733      1754      1753      1206      1205      2764
 -1      1751    6    0    1
 -2       578       212       581       211      3128      2567      3129      3002       828      3130
 -1      1752    6    0    1
 -2       505       612       605       268      2980      3131      2652      2653      2981      2499
 -1      1753    6    0    1
 -2       192       281       492        81      2959      3132      2054      1381      1026      3133
 -1      1754    6    0    1
 -2       578       212       211       400      3128       828      3002      3003      1600      1599
 -1      1755    6    0    1
 -2       392       376       514       531      1539      2179      2840      2841      3047      2843
 -1      1756    6    0    1
 -2       448       290       564       268      3134      2498      2771      3135      1060      2501
 -1      1757    6    0    1
 -2        71       486       271       272      2611      2149      1004      1007      2633       953
 -1      1758    6    0    1
 -2       533       512       513       580      3136      3025      2740      2734      2424      2739
 -1      1759    6    0    1
 -2       528       594       584       586      3137      2815      3138      3139      2813      2812
 -1      1760    6    0    1
 -2       310       119       303       257      1135      1108      1132      2654      3140      2664
 -1      1761    6    0    1
 -2       597       134       135       553      3141       742      3142      3143      2911      2824
 -1      1762    6    0    1
 -2       285       468       249       495      2412      1947      2414      2494      2110      2065
 -1      1763    6    0    1
 -2       331       317       597       316      1224      3144      3041      1223      1173      3145
 -1      1764    6    0    1
 -2       526       532       582       527      3146      3147      3149      3150      3148      3151
 -1      1765    6    0    1
 -2       520       327       538       589      3152      2274      3057      3153      3125      3154
 -1      1766    6    0    1
 -2       302       306       116        29      1131      1146      1106      2590      3114      1447
 -1      1767    6    0    1
 -2       566       455       570       568      3155      3156      2928      3157      2983      2714
 -1      1768    6    0    1
 -2       184       275        75       462      2968      1012      1367      1999      2969      2543
 -1      1769    6    0    1
 -2       605       612       505       503      3131      2980      2652      3158      3072      1582
 -1      1770    6    0    1
 -2       218       569       568       411      2334      2773      2362      1665      2369      2364
 -1      1771    6    0    1
 -2       218       569       411       219      2334      2369      1665       837      2335      1664
 -1      1772    6    0    1
 -2       569       219       564       605      2335      2338      2336      2726      3075      2500
 -1      1773    6    0    1
 -2        67       289       546        66      1001      3159      3160       668      1066      2637
 -1      1774    6    0    1
 -2       605       219       564       473      3075      2338      2500      3161      1958      3080
 -1      1775    6    0    1
 -2       605       219       473       220      3075      1958      3161      3074       838      1959
 -1      1776    6    0    1
 -2       184       275       488       183      2968      2970      2038       796      3162      2097
 -1      1777    6    0    1
 -2       605       612       564       268      3131      3163      2500      2499      2981      2501
 -1      1778    6    0    1
 -2       460       273        47       272      2619       954      2519      2919       956       952
 -1      1779    6    0    1
 -2       474       221       605       220      1962      2753      3164      1961       839      3074
 -1      1780    6    0    1
 -2       485       271       178       459      2410      2399      2026      2023      2151      1993
 -1      1781    6    0    1
 -2       439       427       538       517      1832      2182      3165      2893      2184      2183
 -1      1782    6    0    1
 -2       500       555       209       208      3006      2698      2080      2081      2741       825
 -1      1783    6    0    1
 -2       247       467       283        57      1945      2353      2972      1716      2352       983
 -1      1784    6    0    1
 -2       544       386       362       382      2951      1518      3166      3167      1570      1502
 -1      1785    6    0    1
 -2        27        97       307        96      1775      1122      2435      1774       701      1120
 -1      1786    6    0    1
 -2       543       446       422       539      2429      1861      2395      2432      2430      3168
 -1      1787    6    0    1
 -2       152       336       422       345      1263      2339      1740      1293      1325      3068
 -1      1788    6    0    1
 -2       166       365         6       362      3169      1409       777      3170      1481      1404
 -1      1789    6    0    1
 -2       564       612       605       503      3163      3131      2500      3079      3072      3158
 -1      1790    6    0    1
 -2       583       332       329       333      3032      1257      2209      2173      1231      1258
 -1      1791    6    0    1
 -2       438       152       422       345      1826      1740      1849      2712      1293      3068
 -1      1792    6    0    1
 -2       171       424       381       338      3171      3172      1417      1287      3173      3174
 -1      1793    6    0    1
 -2       122       259        32        33      2966       918      1455      1457       917       631
 -1      1794    6    0    1
 -2       550       610       356       349      2538      2624      2898      2598      2880      1342
 -1      1795    6    0    1
 -2       571       336       610       422      3175      2918      3176      3177      2339      3067
 -1      1796    6    0    1
 -2       170       337       338       381      1336      1269      1288      1416      2581      3174
 -1      1797    6    0    1
 -2       571       336       422       335      3175      2339      3177      3085      1264      3095
 -1      1798    6    0    1
 -2       166       342       544       165      1317      2329      2921       776      1280      2922
 -1      1799    6    0    1
 -2       171       170       338       381       782      1288      1287      1417      1416      3174
 -1      1800    6    0    1
 -2       564       413       417       448      2770      1820      2361      2771      1903      1900
 -1      1801    6    0    1
 -2       414        42       448       268      1799      1869      1868      2899       941      3135
 -1      1802    6    0    1
 -2       564       414       448       268      2772      1868      2771      2501      2899      3135
 -1      1803    6    0    1
 -2       450       565       568       566      2680      2906      3179      3180      3178      3157
 -1      1804    6    0    1
 -2       182       274       461       487      2545      2546      1997      2034      2553      2031
 -1      1805    6    0    1
 -2       236       275       488       462      3181      2970      2036      1936      2969      2035
 -1      1806    6    0    1
 -2       595       391       523       585      2372      3182      3183      2200      2374      3184
 -1      1807    6    0    1
 -2       287       496       470       200      3076      2067      3185      3077      2070      2015
 -1      1808    6    0    1
 -2       489       276       185        76      2586      2541      2099      2588      1014      1371
 -1      1809    6    0    1
 -2       273       460        47       233      2619      2519       954      2973      1931      1692
 -1      1810    6    0    1
 -2       570       433       455        41      2715      1906      3156      2971      1797      1795
 -1      1811    6    0    1
 -2       423       381       429       338      2582      3186      1882      3187      3174      3188
 -1      1812    6    0    1
 -2        86       199       198       469      1393       811      1394      3189      2014      2013
 -1      1813    6    0    1
 -2       423       337       381       338      2161      2581      2582      3187      1269      3174
 -1      1814    6    0    1
 -2       493       467       282       194      2055      2354      2533      2058      2009      2451
 -1      1815    6    0    1
 -2        94        25       308        95      1770      2517      1124       699      1771      1123
 -1      1816    6    0    1
 -2       604       601       545       547      3190      3191      3192      3193      2343      3194
 -1      1817    6    0    1
 -2       525       363       393       360      3195      1541      3001      3196      1482      1542
 -1      1818    6    0    1
 -2       102       302       305       256      1095      1115      1114      2388      2386      2612
 -1      1819    6    0    1
 -2       528       594       586       532      3137      2813      3139      2879      2729      3197
 -1      1820    6    0    1
 -2       528       594       532       523      3137      2729      2879      3198      2731      2693
 -1      1821    6    0    1
 -2       528       594       523       584      3137      2731      3198      3138      2815      2758
 -1      1822    6    0    1
 -2        90       375       393       525      1467      1564      1563      2952      2954      3001
 -1      1823    6    0    1
 -2       570        40        41         8      2511       931      2971      2512       639       641
 -1      1824    6    0    1
 -2       432       570       455         8      2539      3156      1905      1816      2512      1794
 -1      1825    6    0    1
 -2       435       529       432         8      3104      2540      1817      1804      2510      1816
 -1      1826    6    0    1
 -2       289       373       506       294      3199      3200      3202      1065      3201      2384
 -1      1827    6    0    1
 -2       540       538       447       537      3052      3203      2447      3205      3204      3206
 -1      1828    6    0    1
 -2       280       465       492       191      3207      2104      3208      3209      2006      2105
 -1      1829    6    0    1
 -2        71       486       180       179      2611      2030      1360      1358      2093       792
 -1      1830    6    0    1
 -2       331       597       562       316      3041      3044      3042      1223      3145      3210
 -1      1831    6    0    1
 -2        23       431       261       260      1808      3211       897       895      3212       899
 -1      1832    6    0    1
 -2       488       461       275        49      2096      3213      2970      3027      2982       960
 -1      1833    6    0    1
 -2       569       547       601       604      3214      2343      2873      3215      3193      3190
 -1      1834    6    0    1
 -2       489        77       277        76      2976      1016      2587      2588       678      1017
 -1      1835    6    0    1
 -2       377       509       202       359      3216      1254      1480      1566      3217      1397
 -1      1836    6    0    1
 -2       248       247       494        58       867      2061      2060      1718      1717      2206
 -1      1837    6    0    1
 -2       259        10       107        22      2554       712      2604       892      1793      1792
 -1      1838    6    0    1
 -2       548       408       224       409      2796      1647      3218      2248      1667      1659
 -1      1839    6    0    1
 -2       461       183       275        74      1998      3162      3213      2547      1365      1013
 -1      1840    6    0    1
 -2       276        75       275       462      1015      1012       965      2542      2543      2969
 -1      1841    6    0    1
 -2        49       236        50       275      1697      1698       650       960      3181       961
 -1      1842    6    0    1
 -2       274       461       275        74      2546      3213       962      1010      2547      1013
 -1      1843    6    0    1
 -2       485       269       270        44      2630      1043      2568      2990       944       946
 -1      1844    6    0    1
 -2       337       367       537       381      3219      2559      2162      2581      1418      2583
 -1      1845    6    0    1
 -2       478       548       477       224      2222      2224      1975      1973      3218      1971
 -1      1846    6    0    1
 -2        66       389       546       384      1525      2638      2637      1514      1526      3021
 -1      1847    6    0    1
 -2       251        60       469       286      1723      2760      1949      3220       991      3221
 -1      1848    6    0    1
 -2        60       251        61       286      1723      1724       661       991      3220       992
 -1      1849    6    0    1
 -2       545       601       289       547      3191      2340      3222      3194      2343      2341
 -1      1850    6    0    1
 -2        56        57       282       245       657       981       980      1713      1714      3223
 -1      1851    6    0    1
 -2       601       289       290       266      2340      1077      2507      2505      1067      1069
 -1      1852    6    0    1
 -2         4       259       297       122      2555      2556      1080       728      2966      1083
 -1      1853    6    0    1
 -2       599       594       534       593      2931      2730      2934      3225      3224      3226
 -1      1854    6    0    1
 -2       548       223       477       224      2284      1970      2224      3218       842      1971
 -1      1855    6    0    1
 -2       564       612       414       268      3163      3227      2772      2501      2981      2899
 -1      1856    6    0    1
 -2       419       207       416        15      2479      2481      1819      1734       823      1729
 -1      1857    6    0    1
 -2       108       298       262        36      1085      3228      3229      1434      2515       923
 -1      1858    6    0    1
 -2       225       548       224       409      2889      3218       843      1658      2248      1659
 -1      1859    6    0    1
 -2       361       225       204       409      2888      1649      1402      2246      1658      1657
 -1      1860    6    0    1
 -2         4       259       122        33      2555      2966       728      1456       917      1457
 -1      1861    6    0    1
 -2       274       182        73       487      2545      1363      1011      2553      2034      3069
 -1      1862    6    0    1
 -2       447       538       428       537      3203      2765      1890      3206      3204      2645
 -1      1863    6    0    1
 -2       223       548       477       476      2284      2224      1970      1968      2283      1972
 -1      1864    6    0    1
 -2       357       225        14       361      3099       844      1351      1500      2888      1401
 -1      1865    6    0    1
 -2       225       357        14       174      3099      1351       844      1976      1350       786
 -1      1866    6    0    1
 -2       101       302       102        18      1096      1095       706      1782      2387      1783
 -1      1867    6    0    1
 -2       236        49       235       488      1697      1696       855      2036      3027      2037
 -1      1868    6    0    1
 -2        49       236       275       488      1697      3181       960      3027      2036      2970
 -1      1869    6    0    1
 -2       196       284        85       468      3230      1031      1391      2011      2674      3231
 -1      1870    6    0    1
 -2       199        86       286       469      1393      1036      2491      2014      3189      3221
 -1      1871    6    0    1
 -2       380       144       520       370      1492      2331      3232      1512      1428      3233
 -1      1872    6    0    1
 -2       431       157       371         4      1830      3234      3018      3235      1316      1489
 -1      1873    6    0    1
 -2       430       148       173       172      2294      1422      3035      3236      1421       784
 -1      1874    6    0    1
 -2       298       262        36       263      3228       923      2515      2516       905       926
 -1      1875    6    0    1
 -2       489        77        76       186      2976       678      2588      2042      1373      1370
 -1      1876    6    0    1
 -2       299       111       264        37      1101      3237      3238      2496      1436       928
 -1      1877    6    0    1
 -2       111       299       264       307      1101      3238      3237      1139      1121      2437
 -1      1878    6    0    1
 -2       585       586       584       402      3239      2812      2276      2278      2814      2275
 -1      1879    6    0    1
 -2       310       257       305        30      2654      2656      1151      3240       914      3241
 -1      1880    6    0    1
 -2       302        17        29       256      2817       877      2590      2386       881       880
 -1      1881    6    0    1
 -2       589       145       370       325      3242      1427      3243      3244      1197      3245
 -1      1882    6    0    1
 -2       588       587       557       555      2802      2804      2805      2742      2699      3246
 -1      1883    6    0    1
 -2       596       562       552       561      3060      2867      2167      3059      3061      3247
 -1      1884    6    0    1
 -2       447       428       538       427      1890      2765      3203      1865      1755      2182
 -1      1885    6    0    1
 -2       575       481       572       507      2944      2215      2942      2317      2134      3248
 -1      1886    6    0    1
 -2       157       430       371       173      1828      3036      3234      1273      3035      1488
 -1      1887    6    0    1
 -2       602       608       607       603      3249      2926      2347      2229      3250      3251
 -1      1888    6    0    1
 -2       606       356       350       353      2634      1345      3100      3252      1348      1327
 -1      1889    6    0    1
 -2       342       606       346       353      2406      3081      1303      1328      3252      1326
 -1      1890    6    0    1
 -2       604       569       410       406      3215      3253      3254      2628      2366      1669
 -1      1891    6    0    1
 -2       608       162       603       604      3255      2661      3250      3256      2660      2233
 -1      1892    6    0    1
 -2       407       569       221       410      2896      2752      1646      1662      3253      1670
 -1      1893    6    0    1
 -2       572       507       481       504      3248      2134      2215      2216      1628      2128
 -1      1894    6    0    1
 -2       408       412       608       547      1671      2768      2769      3258      3257      3259
 -1      1895    6    0    1
 -2       260        34         4       371       919      1471      2622      3260      1473      1489
 -1      1896    6    0    1
 -2       327       427       312       538      2763      2185      1215      2274      2182      2172
 -1      1897    6    0    1
 -2       570       609       602       604      2467      3261      3263      3264      3262      2230
 -1      1898    6    0    1
 -2       481       524       504       501      2212      2214      2128      2119      3265      2127
 -1      1899    6    0    1
 -2       387       522       523       536      2818      2822      2819      3126      3053      2902
 -1      1900    6    0    1
 -2       569       221       410       220      2752      1670      3253      3073       839      1668
 -1      1901    6    0    1
 -2       575       481       211       581      2944      1985      3266      2945      2946      3130
 -1      1902    6    0    1
 -2       284       494       283        58      2205      2442       988       986      2206       984
 -1      1903    6    0    1
 -2       584       528       585       523      3138      3267      2276      2758      3198      3184
 -1      1904    6    0    1
 -2       578       582       533       527      3268      3269      3270      3271      3151      3272
 -1      1905    6    0    1
 -2       540       521       538       537      2708      3273      3052      3205      3274      3204
 -1      1906    6    0    1
 -2       581       213       524       501      2566      3275      2530      2565      2083      3265
 -1      1907    6    0    1
 -2        81       192       191       492      1381       804      1382      3133      2054      2105
 -1      1908    6    0    1
 -2       542       583       579       592      2355      3276      3278      2869      3277      2996
 -1      1909    6    0    1
 -2       178        71       271        70      1359      1004      2399      1356       672      1005
 -1      1910    6    0    1
 -2       542       332       579       583      2766      3279      3278      2355      3032      3276
 -1      1911    6    0    1
 -2       399       587       578       553      3280      3281      3004      2826      2803      3282
 -1      1912    6    0    1
 -2       595         5       205       140      2956       820      2199      2197       748      1635
 -1      1913    6    0    1
 -2       511       542       592       583      2709      2869      3283      2711      2355      3277
 -1      1914    6    0    1
 -2        57       493       282       245      2243      2533       981      1714      2057      3223
 -1      1915    6    0    1
 -2       385       387       523       536      1569      2819      3284      3127      3126      2902
 -1      1916    6    0    1
 -2       439       427       517       125      1832      2184      2893      1831      1751      2894
 -1      1917    6    0    1
 -2         4       157       371       173      1316      3234      1489       785      1273      1488
 -1      1918    6    0    1
 -2       511       583       521       541      2711      3285      2808      2710      2304      2811
 -1      1919    6    0    1
 -2       507       575       481       499      2317      2944      2134      2135      2318      2082
 -1      1920    6    0    1
 -2       468       197       285        85      2012      3286      2412      3231      1390      1034
 -1      1921    6    0    1
 -2       596       597       316       562      3058      3145      3287      3060      3044      3210
 -1      1922    6    0    1
 -2       450       441       568       418      1880      2984      3179      1875      1844      3288
 -1      1923    6    0    1
 -2       610       550       606       607      2538      2407      2636      2537      2237      2925
 -1      1924    6    0    1
 -2       353       346       350       606      1326      1313      1327      3252      3081      3100
 -1      1925    6    0    1
 -2       357       225       548       478      3099      2889      2262      2260      1974      2222
 -1      1926    6    0    1
 -2       570       609       266        40      2467      2974      2506      2511      2474       933
 -1      1927    6    0    1
 -2       177       270        69        70      3091      1003      1354      1357      1002       671
 -1      1928    6    0    1
 -2       569       221       220       605      2752       839      3073      2726      2753      3074
 -1      1929    6    0    1
 -2       474       475       505       605      1966      2131      2130      3164      2651      2652
 -1      1930    6    0    1
 -2       154       423       429       338      1742      1882      1863      1267      3187      3188
 -1      1931    6    0    1
 -2       608       162       604       407      3255      2660      3256      3289      1652      3290
 -1      1932    6    0    1
 -2       163       603       608       162      3291      3250      2658       773      2661      3255
 -1      1933    6    0    1
 -2       354       351       610       571      1332      2917      2202      3292      2916      3176
 -1      1934    6    0    1
 -2       143       541       323       142      2297      2302      1192       751      3293      1191
 -1      1935    6    0    1
 -2       258        31       303       120       916      3294      2187      2188      1451      1109
 -1      1936    6    0    1
 -2       506       358       294       373      2381      2383      2384      3200      1474      3201
 -1      1937    6    0    1
 -2       177       485       458       270      2091      2079      1992      3091      2568      2217
 -1      1938    6    0    1
 -2       506       358       373       510      2381      1474      3200      2120      3295      2273
 -1      1939    6    0    1
 -2       555       500       209       480      3006      2080      2698      3296      2018      1983
 -1      1940    6    0    1
 -2       134       597       135       316      3141      3142       742      1168      3145      1169
 -1      1941    6    0    1
 -2       196       494       195        84      2062      2109       808      1388      2441      1389
 -1      1942    6    0    1
 -2       520       538       521       537      3057      3273      3297      3298      3204      3274
 -1      1943    6    0    1
 -2       358       175       510       483      1353      2087      3295      2382      1989      2088
 -1      1944    6    0    1
 -2       354       348       603       352      1330      3299      3300      1333      1321      3016
 -1      1945    6    0    1
 -2       560       451       456       551      3301      1919      2488      2863      3302      2191
 -1      1946    6    0    1
 -2       482       203       377       202      2085      1479      2704      2086       815      1480
 -1      1947    6    0    1
 -2       489       276       462       185      2586      2542      2098      2099      2541      2000
 -1      1948    6    0    1
 -2       281       244       492        55      2225      2052      3132       977      1711      3303
 -1      1949    6    0    1
 -2       281       244       466       492      2225      1944      2961      3132      2052      2051
 -1      1950    6    0    1
 -2       352       606       350       341      2635      3100      1322      1320      3304      1314
 -1      1951    6    0    1
 -2       322       600       328       321      2592      3305      1249      1189      3306      1248
 -1      1952    6    0    1
 -2         2       376        91       267      1470      1469       693       938      2178       939
 -1      1953    6    0    1
 -2       348       603       352       341      3299      3016      1321      1305      3307      1320
 -1      1954    6    0    1
 -2       555       471       572       434      3005      2602      3007      3308      2601      2600
 -1      1955    6    0    1
 -2       452       442       556       440      1885      3014      3309      1917      1899      2676
 -1      1956    6    0    1
 -2       525        90       374       393      2952      1466      2846      3001      1563      1557
 -1      1957    6    0    1
 -2       175       358       510       373      1353      3295      2087      1475      1474      2273
 -1      1958    6    0    1
 -2       554       442       443       440      3310      1879      3311      2678      1899      1898
 -1      1959    6    0    1
 -2       190       465       491       279      2005      2047      2050      2614      2701      2616
 -1      1960    6    0    1
 -2       520       521       538       515      3297      3273      3057      3056      3312      3055
 -1      1961    6    0    1
 -2       280       243        55       492      3115      1710       975      3208      2053      3303
 -1      1962    6    0    1
 -2       243       244        55       492       863      1711      1710      2053      2052      3303
 -1      1963    6    0    1
 -2       374       525       393       360      2846      3001      1557      1547      3196      1542
 -1      1964    6    0    1
 -2       606       356       353       550      2634      1348      3252      2407      2898      3313
 -1      1965    6    0    1
 -2       478       548       373       510      2222      2263      2261      2147      2223      2273
 -1      1966    6    0    1
 -2       281       280       492        81       979      3208      3132      1026      1023      3133
 -1      1967    6    0    1
 -2       524       377       374       359      3314      1548      2847      3315      1566      1477
 -1      1968    6    0    1
 -2       295       359       524       374      3316      3315      2667      2845      1477      2847
 -1      1969    6    0    1
 -2        89       295        90       374      1062      1061       691      1465      2845      1466
 -1      1970    6    0    1
 -2        64       434       443       554      1802      1871      1870      2268      2829      3311
 -1      1971    6    0    1
 -2       555       471       434       479      3005      2601      3308      3317      2115      2828
 -1      1972    6    0    1
 -2       540       560       439       517      3110      2489      2794      3051      3318      2893
 -1      1973    6    0    1
 -2       282       193       281       466      2532      2960       982      3319      2008      2961
 -1      1974    6    0    1
 -2       299       307        96       264      1121      1120      1089      3238      2437      3320
 -1      1975    6    0    1
 -2       265        27        98       300       929      1776      2264      2722      2436      1091
 -1      1976    6    0    1
 -2        97        27       307       300      1775      2435      1122      1092      2436      1125
 -1      1977    6    0    1
 -2       569       220       410       406      3073      1668      3253      2366      1643      1669
 -1      1978    6    0    1
 -2       605       290       549       268      2497      2448      2650      2499      1060      2449
 -1      1979    6    0    1
 -2       430       148       172       424      2294      1421      3236      1835      3022      3111
 -1      1980    6    0    1
 -2       295       359       374        89      3316      1477      2845      1062      1464      1465
 -1      1981    6    0    1
 -2       576       557       292       559      3321      2702      3322      2733      2610      2703
 -1      1982    6    0    1
 -2       611       516       518       607      3118      2929      2642      2241      3028      3323
 -1      1983    6    0    1
 -2       196       284        84        85      3230      1032      1388      1391      1031       686
 -1      1984    6    0    1
 -2       370       520       537       589      3233      3298      2558      3243      3153      3324
 -1      1985    6    0    1
 -2       538       428       537       589      2765      2645      3204      3154      3124      3324
 -1      1986    6    0    1
 -2       279       242        54       465      2700      1708       973      2701      1942      3325
 -1      1987    6    0    1
 -2       132       552       425       420      3063      3064      2913      3327      3326      1821
 -1      1988    6    0    1
 -2       572       291       434       415      3097      2723      2600      2378      2724      1813
 -1      1989    6    0    1
 -2       423       589       429       381      3328      3329      1882      2582      3330      3186
 -1      1990    6    0    1
 -2       574       573       435       454      3331      3332      3105      3334      3333      1896
 -1      1991    6    0    1
 -2       512       577       528       531      2421      2877      2878      2901      3335      3336
 -1      1992    6    0    1
 -2       295        90       525       293      1061      2952      2844      1064      1054      2955
 -1      1993    6    0    1
 -2        86       285       198        85      1033      3122      1394       687      1034      1392
 -1      1994    6    0    1
 -2       483       358       176       294      2382      1352      1990      2385      2383      3337
 -1      1995    6    0    1
 -2       517       329       326       312      2211      1219      3024      2186      1218      1216
 -1      1996    6    0    1
 -2       484       505       294       268      1581      2418      2416      2417      2653      1068
 -1      1997    6    0    1
 -2       561       591       579       562      2288      2290      2292      3061      3338      3045
 -1      1998    6    0    1
 -2       417        16       217       216      1731       835      2360      1730       833      1636
 -1      1999    6    0    1
 -2       419       397       207       206      2799      1591      2479      1735      1590      1587
 -1      2000    6    0    1
 -2       380       521       520       515      3339      3297      3232      2670      3312      3056
 -1      2001    6    0    1
 -2       375       383       528       391      1568      3340      3341      1549      1533      3342
 -1      2002    6    0    1
 -2       535       135       553       597      3343      2824      3344      2937      3142      3143
 -1      2003    6    0    1
 -2       485        45       229        44      2409      1686      2025      2990       645      1800
 -1      2004    6    0    1
 -2       435       573       574       559      3332      3331      3105      3345      2985      3346
 -1      2005    6    0    1
 -2       284       468        59       285      2674      2413       987      1045      2412       989
 -1      2006    6    0    1
 -2       361       357       548       384      1500      2262      2244      1546      1545      3347
 -1      2007    6    0    1
 -2       306       301         1        17      1118      2177      3113      3071      2250       614
 -1      2008    6    0    1
 -2       354       340       351       571      1331      1324      1332      3292      2915      2916
 -1      2009    6    0    1
 -2       543       446       453       422      2429      1901      2394      2395      1861      1886
 -1      2010    6    0    1
 -2       519       516       543       607      2963      2965      2312      3348      3028      2349
 -1      2011    6    0    1
 -2       609       608       604       545      3349      3256      3262      3351      3350      3192
 -1      2012    6    0    1
 -2       564       413       498       217      2770      3352      2518      2359      3353      2075
 -1      2013    6    0    1
 -2       395       611       366       378      2641      2875      1580      1556      2876      1553
 -1      2014    6    0    1
 -2       217       568       405       218      2356      2363      1641       836      2362      1642
 -1      2015    6    0    1
 -2       387       368       391       523      1521      1531      1534      2819      2821      3182
 -1      2016    6    0    1
 -2       413       226       414       498      1682      1683      1685      3352      2116      3354
 -1      2017    6    0    1
 -2       331       590       579       332      3355      3356      3043      1228      3034      3279
 -1      2018    6    0    1
 -2       572       509       502       508      2220      1253      2563      3089      1214      2148
 -1      2019    6    0    1
 -2        31       258        32       120       916       915       630      1451      2188      1454
 -1      2020    6    0    1
 -2        30       310       118       305      3240      1149      1448      3241      1151      1148
 -1      2021    6    0    1
 -2       295       359        89       288      3316      1464      1062      1076      3030      1039
 -1      2022    6    0    1
 -2       595       368       523       391      3094      2821      3183      2372      1531      3182
 -1      2023    6    0    1
 -2       592       534       579       542      2871      2997      2996      2869      2868      3278
 -1      2024    6    0    1
 -2       561       591       562       573      2288      3338      3061      2986      2837      3357
 -1      2025    6    0    1
 -2       262        93        24        25      3065      1768       900       901      1769       622
 -1      2026    6    0    1
 -2       589       145       325       313      3242      1197      3244      3358      1199      1239
 -1      2027    6    0    1
 -2       585       215       214       403      3359       831      3360      3361      1609      1608
 -1      2028    6    0    1
 -2       576       557       559       533      3321      2610      2733      2736      2853      2732
 -1      2029    6    0    1
 -2        60       285        59       249       990       989       660      1721      2414      1720
 -1      2030    6    0    1
 -2       162       161       604       410       772      2629      2660      1661      1676      3254
 -1      2031    6    0    1
 -2       435       573       452       454      3332      3362      1895      1896      3333      1897
 -1      2032    6    0    1
 -2       511       536       521       592      3363      2780      2808      3283      2686      3364
 -1      2033    6    0    1
 -2       408       412       547       223      1671      3257      3258      1648      1672      2570
 -1      2034    6    0    1
 -2       412       608       547       407      2768      3259      3257      1678      3289      3365
 -1      2035    6    0    1
 -2       217       568       218       564      2356      2362       836      2359      2357      2337
 -1      2036    6    0    1
 -2       298        93        25        94      1087      1769      2520      1088       698      1770
 -1      2037    6    0    1
 -2       560       451       551       552      3301      3302      2863      2866      3040      2864
 -1      2038    6    0    1
 -2       307        27        96       264      2435      1774      1120      2437       907      3320
 -1      2039    6    0    1
 -2       132       552       420       588      3063      3326      3327      3366      2164      2851
 -1      2040    6    0    1
 -2       424       171       147       172      3171      1419      2226      3111       783      1420
 -1      2041    6    0    1
 -2       139       403       140       585      1627      1626       747      2279      3361      2196
 -1      2042    6    0    1
 -2       599       594       593       137      2931      3224      3225      2285      3367      3368
 -1      2043    6    0    1
 -2       142       328       541       323      1210      3369      3293      1191      1217      2302
 -1      2044    6    0    1
 -2       310       104       257       303      1133      2428      2654      1132      1098      2664
 -1      2045    6    0    1
 -2       456       551       451       426      2191      3302      1919      1920      3370      1878
 -1      2046    6    0    1
 -2       609       516       519       607      3371      2963      2468      3372      3028      3348
 -1      2047    6    0    1
 -2       298       262       263        25      3228       905      2516      2520       901       903
 -1      2048    6    0    1
 -2       590       330       329       331      2152      1252      2936      3355      1225      1256
 -1      2049    6    0    1
 -2       544       611       394       518      2242      2640      2718      2719      2642      2643
 -1      2050    6    0    1
 -2       259       106       304        21      3010      1113      3037       891      1790      2792
 -1      2051    6    0    1
 -2       452       573       435       559      3362      3332      1895      3013      2985      3345
 -1      2052    6    0    1
 -2       580       512       513       514      2424      3025      2739      3090      3373      2995
 -1      2053    6    0    1
 -2       383       528       391       585      3340      3342      1533      2373      3267      2374
 -1      2054    6    0    1
 -2       171       424       147       381      3171      2226      1419      1417      3172      1486
 -1      2055    6    0    1
 -2       582       532       533       527      3147      3374      3269      3151      3148      3272
 -1      2056    6    0    1
 -2       408       548       547       546      2796      3375      3258      2797      2247      3376
 -1      2057    6    0    1
 -2       534       561       533       513      3377      2855      3378      2999      2291      2740
 -1      2058    6    0    1
 -2       137       401       138       594      1623      1622       745      3367      3379      3380
 -1      2059    6    0    1
 -2       139       321       600       140      1183      3306      3381       747      1184      2594
 -1      2060    6    0    1
 -2        34       260         4        33       919      2622      1471       632       920      1456
 -1      2061    6    0    1
 -2       584       600       523       585      2754      2756      2758      2276      3382      3184
 -1      2062    6    0    1
 -2       542       599       318       319      3383      2287      2767      2402      2286      1179
 -1      2063    6    0    1
 -2       602       567       603       571      2228      2231      2229      2348      2523      3384
 -1      2064    6    0    1
 -2       582       578       593       400      3268      3385      3386      3387      3003      2255
 -1      2065    6    0    1
 -2       147       128       424       129      1160      1759      2226      1159       735      1760
 -1      2066    6    0    1
 -2       325       370       589       520      3245      3243      3244      2333      3233      3153
 -1      2067    6    0    1
 -2       288       291       415        63      1063      2724      2376       998      1046      1814
 -1      2068    6    0    1
 -2       407       569       410       604      2896      3253      1662      3290      3215      3254
 -1      2069    6    0    1
 -2       394       611       366       395      2640      2875      1544      1579      2641      1580
 -1      2070    6    0    1
 -2       612       436       268       484      3388      2881      2981      2979      3389      2417
 -1      2071    6    0    1
 -2       512       580       531       514      2424      3390      2901      3373      3090      2843
 -1      2072    6    0    1
 -2       156       430       173       172      1829      3035      1272      1271      3236       784
 -1      2073    6    0    1
 -2        24         9        92       261      1767       694      2988       898      3391      2580
 -1      2074    6    0    1
 -2       611       544       366       550      2242      2330      2875      2239      2238      2327
 -1      2075    6    0    1
 -2       342       167       365       366      1290      1410      3392      2328      1411      1413
 -1      2076    6    0    1
 -2       544       408       164       608      3093      1654      3393      2924      2769      2659
 -1      2077    6    0    1
 -2       342       606       353       550      2406      3252      1328      2326      2407      3313
 -1      2078    6    0    1
 -2       565       450       568       418      2680      3179      2906      3394      1875      3288
 -1      2079    6    0    1
 -2       334       600       522       598      3395      3396      2324      2403      2755      2419
 -1      2080    6    0    1
 -2       111        38       112       307      1439      1438       717      1139      3397      1143
 -1      2081    6    0    1
 -2        68       358       294        69      1496      2383      1058       670      1476      1057
 -1      2082    6    0    1
 -2       372         2       518       514      1458      2234      2235      3398      2181      2471
 -1      2083    6    0    1
 -2       259        10        22       260      2554      1793       892       896      2623       894
 -1      2084    6    0    1
 -2       306         1       301       115      3113      2177      1118      1144      1443      1105
 -1      2085    6    0    1
 -2        46       232       486       231      1690      2028      2544      1689       851      2029
 -1      2086    6    0    1
 -2       524       525       374       360      2528      2846      2847      3399      3196      1547
 -1      2087    6    0    1
 -2       485       178       271        70      2026      2399      2410      3092      1356      1005
 -1      2088    6    0    1
 -2       357       225       478       174      3099      1974      2260      1350      1976      1979
 -1      2089    6    0    1
 -2       372       518        66       389      2235      2236      1459      1535      2296      1525
 -1      2090    6    0    1
 -2       127       313       429       589      1158      3101      1756      3123      3358      3329
 -1      2091    6    0    1
 -2       385       536       523       531      3127      2902      3284      3048      2842      2903
 -1      2092    6    0    1
 -2       190        80       465       279      1380      3400      2005      2614      1021      2701
 -1      2093    6    0    1
 -2       520       327       589       325      3152      3125      3153      2333      1238      3244
 -1      2094    6    0    1
 -2       452       573       552       454      3362      3401      3012      1897      3333      3039
 -1      2095    6    0    1
 -2       340       161       603       348      1276      2662      3402      1309      1302      3299
 -1      2096    6    0    1
 -2       179       486       459       271      2093      2092      1994      2400      2149      2151
 -1      2097    6    0    1
 -2       127       313       589       327      1158      3358      3123      1205      1211      3125
 -1      2098    6    0    1
 -2       561       591       573       513      2288      2837      2986      2291      2289      2836
 -1      2099    6    0    1
 -2        29       306         1        17      3114      3113       627       877      3071       614
 -1      2100    6    0    1
 -2       324       515       538       329      2305      3055      2170      1236      2208      2171
 -1      2101    6    0    1
 -2       581       211       212       481      3130       828      2567      2946      1985      1984
 -1      2102    6    0    1
 -2        64       554       443       440      2268      3311      1870      1841      2678      1898
 -1      2103    6    0    1
 -2       535       135       597       317      3343      3142      2937      3403      1171      3144
 -1      2104    6    0    1
 -2       545       266        66       289      2257       935      2259      3222      1067      1066
 -1      2105    6    0    1
 -2       607       544       608       518      2240      2924      2926      3323      2719      3404
 -1      2106    6    0    1
 -2       542       599       319       598      3383      2286      2402      2401      2933      2404
 -1      2107    6    0    1
 -2       391       385       523       528      1550      3284      3182      3342      3405      3198
 -1      2108    6    0    1
 -2       138       320       319       598      1180      1182      1178      3406      2784      2404
 -1      2109    6    0    1
 -2       401       586       213       402      3119      3407      1603      1607      2814      1605
 -1      2110    6    0    1
 -2       409       204       382       362      1657      1501      2620      3408      1403      1502
 -1      2111    6    0    1
 -2        64       558       554       440      2265      2267      2268      1841      2679      2678
 -1      2112    6    0    1
 -2        67       548       373       384      3409      2263      1460      1510      3347      1511
 -1      2113    6    0    1
 -2       586       214       525       213      3410      3411      3412      3407       830      3413
 -1      2114    6    0    1
 -2        64       558       440        65      2265      2679      1841       665      2975      1840
 -1      2115    6    0    1
 -2       607       544       518       611      2240      2719      3323      2241      2242      2642
 -1      2116    6    0    1
 -2       144       324       143       380      1194      1193       752      1492      2672      1493
 -1      2117    6    0    1
 -2       569       547       604       407      3214      3193      3215      2896      3365      3290
 -1      2118    6    0    1
 -2       458       483       176       294      2143      1990      1991      2219      2385      3337
 -1      2119    6    0    1
 -2       345       610       422       539      3066      3067      3068      3414      2535      3168
 -1      2120    6    0    1
 -2       564       457       612       503      3078      3415      3163      3079      2125      3072
 -1      2121    6    0    1
 -2       396       536       521       390      2779      2780      2782      1576      3416      2809
 -1      2122    6    0    1
 -2       424       146       147       381      2227       755      2226      3172      1494      1486
 -1      2123    6    0    1
 -2       166       167         6       365      1282       778       777      3169      1410      1409
 -1      2124    6    0    1
 -2       167       342       343       366      1290      1291      1284      1411      2328      2874
 -1      2125    6    0    1
 -2       552       573       452       559      3401      3362      3012      2609      2985      3013
 -1      2126    6    0    1
 -2       512       592       536       523      3026      2686      2900      2690      2872      2902
 -1      2127    6    0    1
 -2       225       361       204        14      2888      1402      1649       844      1401       817
 -1      2128    6    0    1
 -2       612       436       414       268      3388      1812      3227      2981      2881      2899
 -1      2129    6    0    1
 -2       599       579       534       542      3417      2997      2934      3383      3278      2868
 -1      2130    6    0    1
 -2       124       456       426       311      1834      1920      1749      1153      2190      3418
 -1      2131    6    0    1
 -2       542       534       598       523      2868      2935      2401      2870      2692      2759
 -1      2132    6    0    1
 -2       409       361       382       204      2246      1503      2620      1657      1402      1501
 -1      2133    6    0    1
 -2       484       457       503       612      2121      2125      1583      2979      3415      3072
 -1      2134    6    0    1
 -2       468       197       495       285      2012      2111      2110      2412      3286      2494
 -1      2135    6    0    1
 -2       599       138       319       598      3419      1178      2286      2933      3406      2404
 -1      2136    6    0    1
 -2       262       108        35        92      3229      1431       924      2579      1079      2578
 -1      2137    6    0    1
 -2        80       280       191       465      1024      3209      1379      3400      3207      2006
 -1      2138    6    0    1
 -2       564       612       457       414      3163      3415      3078      2772      3227      3420
 -1      2139    6    0    1
 -2       190        80       191       465      1380      1379       803      2005      3400      2006
 -1      2140    6    0    1
 -2        31       258       303       257       916      2187      3294       913       890      2664
 -1      2141    6    0    1
 -2       344       378       367       169      2775      1484      2777      1286      1483      1414
 -1      2142    6    0    1
 -2       236        50       462       237      1698      3421      1936       856      1699      1935
 -1      2143    6    0    1
 -2       301       265        39        17      2838       910      2176      2250       909       879
 -1      2144    6    0    1
 -2       280        81       191       492      1023      1382      3209      3208      3133      2105
 -1      2145    6    0    1
 -2       193       281       192        81      2960      2959       805      1383      1026      1381
 -1      2146    6    0    1
 -2        36       308       109       298      2513      1141      1433      2515      1126      1086
 -1      2147    6    0    1
 -2       245       493       282       466      2057      2533      3223      1943      2106      3319
 -1      2148    6    0    1
 -2       276       489       462       237      2586      2098      2542      3422      2041      1935
 -1      2149    6    0    1
 -2       185        75       462       184      1369      2543      2000       797      1367      1999
 -1      2150    6    0    1
 -2        27       265       264       300       929       930       907      2436      2722      2438
 -1      2151    6    0    1
 -2       344       378       169       349      2775      1483      1286      1311      2597      1306
 -1      2152    6    0    1
 -2       347       160       571       340      1299      2521      2914      1308      1277      2915
 -1      2153    6    0    1
 -2       358        69       176       294      1476      1355      1352      2383      1057      3337
 -1      2154    6    0    1
 -2       256        29       117        30       880      1446      2589       883       628      1449
 -1      2155    6    0    1
 -2       344       378       349       539      2775      2597      1311      2776      2596      2599
 -1      2156    6    0    1
 -2       519       453       566       543      2573      2484      2311      2312      2394      2314
 -1      2157    6    0    1
 -2       544       408       546       409      3093      2797      3423      2920      1667      2249
 -1      2158    6    0    1
 -2       397       208       588       554      1593      2744      2832      2798      2745      2746
 -1      2159    6    0    1
 -2        83        84       195       283       685      1389      1386      1030      1029      2923
 -1      2160    6    0    1
 -2       376       267       514       531      2178      2180      2179      3047      3424      2843
 -1      2161    6    0    1
 -2       542       534       599       598      2868      2934      3383      2401      2935      2933
 -1      2162    6    0    1
 -2       474       605       505       503      3164      2652      2130      2129      3158      1582
 -1      2163    6    0    1
 -2       609       516       607       518      3371      3028      3372      2472      2929      3323
 -1      2164    6    0    1
 -2       601       569       290       549      2873      2725      2507      2344      2737      2448
 -1      2165    6    0    1
 -2        93       298        25       262      1087      2520      1769      3065      3228       901
 -1      2166    6    0    1
 -2       586       532       594       582      3197      2729      2813      2861      3147      3425
 -1      2167    6    0    1
 -2       582       532       594       593      3147      2729      3425      3386      3426      3224
 -1      2168    6    0    1
 -2       226       457       414       498      1926      3420      1683      2116      2118      3354
 -1      2169    6    0    1
 -2       564       605       473       503      2500      3161      3080      3079      3158      1978
 -1      2170    6    0    1
 -2       557       587       553       533      2804      2803      2806      2853      3427      2856
 -1      2171    6    0    1
 -2       548       357       373       384      2262      1538      2263      3347      1545      1511
 -1      2172    6    0    1
 -2       181       273       460        72      2617      2619      1996      1361      1009      2962
 -1      2173    6    0    1
 -2       532       534       594       593      2691      2730      2729      3426      3226      3224
 -1      2174    6    0    1
 -2       595       322       600       368      2591      2592      2593      3094      3428      3429
 -1      2175    6    0    1
 -2       375       528       577       531      3341      2877      3430      3046      3336      3335
 -1      2176    6    0    1
 -2       134       398       135       553      1617      1616       742      2911      3431      2824
 -1      2177    6    0    1
 -2       208       587       555       209      3432      2699      2741       825      2697      2698
 -1      2178    6    0    1
 -2       383       595       364       205      2371      2572      1506      1504      2199      1408
 -1      2179    6    0    1
 -2       586       214       213       402      3410       830      3407      2814      1606      1605
 -1      2180    6    0    1
 -2        23         9        24       261      1807      1767       621       897      3391       898
 -1      2181    6    0    1
 -2       295       526       296       293      2857      3433      1073      1064      3434      1072
 -1      2182    6    0    1
 -2       375        90        91       293      1467       692      1468      2953      1054      1053
 -1      2183    6    0    1
 -2        28       309        98        99      2439      1129      1777      1778      1128       703
 -1      2184    6    0    1
 -2       301       265        17        28      2838       909      2250      2251       912       878
 -1      2185    6    0    1
 -2       464       188       278       490      2003      3435      2671      2043      2046      2584
 -1      2186    6    0    1
 -2       188        78       278       490      1374      1020      3435      2046      2310      2584
 -1      2187    6    0    1
 -2       188       189       464       278       801      2004      2003      3435      2346      2671
 -1      2188    6    0    1
 -2       188        78       189       278      1374      1376       801      3435      1020      2346
 -1      2189    6    0    1
 -2       233       234        48       487       853      1694      1693      2033      2032      2552
 -1      2190    6    0    1
 -2       594       400       593       137      3436      2255      3224      3367      1620      3368
 -1      2191    6    0    1
 -2       340       161       571       603      1276      2522      2915      3402      2662      3384
 -1      2192    6    0    1
 -2       192       281       466       492      2959      2961      2007      2054      3132      2051
 -1      2193    6    0    1
 -2       605       474       473       503      3164      1963      3161      3158      2129      1978
 -1      2194    6    0    1
 -2       545       289       601       266      3222      2340      3191      2257      1067      2505
 -1      2195    6    0    1
 -2       555       479       554       208      3317      2831      2743      2741      1980      2745
 -1      2196    6    0    1
 -2       375        91       267       293      1468       939      3437      2953      1053      1052
 -1      2197    6    0    1
 -2       564       472       503       473      2646      1977      3079      3080      1960      1978
 -1      2198    6    0    1
 -2       214       402       585       403      1606      2278      3360      1608      1610      3361
 -1      2199    6    0    1
 -2       295       525       526       293      2844      2527      2857      1064      2955      3434
 -1      2200    6    0    1
 -2       334       600       598       320      3395      2755      2403      1233      3438      2784
 -1      2201    6    0    1
 -2       265        38       300       113       911      2748      2722      2405      1440      1103
 -1      2202    6    0    1
 -2       171       424       338       172      3171      3173      1287       783      3111      1295
 -1      2203    6    0    1
 -2       112        38       300       307      1438      2748      1102      1143      3397      1125
 -1      2204    6    0    1
 -2       254       434       415       471      1818      1813      1727      1954      2601      2603
 -1      2205    6    0    1
 -2       328       368       522       600      3439      2820      3440      3305      3429      3396
 -1      2206    6    0    1
 -2       435       452       559       558      1895      3013      3345      3441      3011      2607
 -1      2207    6    0    1
 -2       564       413       414       498      2770      1685      2772      2518      3352      3354
 -1      2208    6    0    1
 -2       565       405       158       418      3442      1639      3443      3394      3098      3062
 -1      2209    6    0    1
 -2       475       549       506       505      2648      3444      2132      2131      2649      1584
 -1      2210    6    0    1
 -2       344       367       537       337      2777      2559      2789      1340      3219      2162
 -1      2211    6    0    1
 -2        50       276       462       237       963      2542      3421      1699      3422      1935
 -1      2212    6    0    1
 -2        17        39       301         1       879      2176      2250       614       638      2177
 -1      2213    6    0    1
 -2       588       133       132       596      2271       740      3366      2165      2665      2666
 -1      2214    6    0    1
 -2       265       309       300        98      2721      1140      2722      2264      1129      1091
 -1      2215    6    0    1
 -2       535       135       317       136      3343      1171      3403      3445       743      1172
 -1      2216    6    0    1
 -2       551       314       426       311      2452      3446      3370      2193      1245      3418
 -1      2217    6    0    1
 -2       314       551       426       425      2452      3370      3446      2454      2456      1750
 -1      2218    6    0    1
 -2       425       551       426       451      2456      3370      1750      1877      3302      1878
 -1      2219    6    0    1
 -2       562       590       579       331      2155      3356      3045      3042      3355      3043
 -1      2220    6    0    1
 -2       258       121       120       304      2991       726      2188      2189      1150      1147
 -1      2221    6    0    1
 -2       200       287        87        88      3077      1038      1395      1462      1037       689
 -1      2222    6    0    1
 -2       368       328       379       141      3439      3447      1507      1423      1209      1491
 -1      2223    6    0    1
 -2       368       328       141       322      3439      1209      1423      3428      1249      1188
 -1      2224    6    0    1
 -2       368       328       322       600      3439      1249      3428      3429      3305      2592
 -1      2225    6    0    1
 -2       590       330       331       562      2152      1225      3355      2155      2153      3042
 -1      2226    6    0    1
 -2       433       564       448       290      2747      2771      1891      2370      2498      3134
 -1      2227    6    0    1
 -2       345       355       610       349      1335      2201      3066      1339      1338      2880
 -1      2228    6    0    1
 -2       519       543       530       574      2312      2433      2785      2575      3448      2788
 -1      2229    6    0    1
 -2       156       430       172       424      1829      3236      1271      1744      1835      3111
 -1      2230    6    0    1
 -2       549       548       506       289      2280      2550      3444      2342      3449      3202
 -1      2231    6    0    1
 -2       208       587       209       404      3432      2697       825      1631      3450      1633
 -1      2232    6    0    1
 -2       298       263       308        25      2516      2514      1126      2520       903      2517
 -1      2233    6    0    1
 -2        10       431         4       157      1809      3235       696       767      1830      1316
 -1      2234    6    0    1
 -2       548       373       510       506      2263      2273      2223      2550      3200      2120
 -1      2235    6    0    1
 -2       373        68       294       289      1461      1058      3201      3199      1000      1065
 -1      2236    6    0    1
 -2       590       515       583       329      3451      2210      3033      2936      2208      2209
 -1      2237    6    0    1
 -2       590       515       329       538      3451      2208      2936      3050      3055      2171
 -1      2238    6    0    1
 -2       553       587       404       398      2803      3450      2912      3431      3452      1634
 -1      2239    6    0    1
 -2       332       542       333       583      2766      2389      1231      3032      2355      2173
 -1      2240    6    0    1
 -2       430       156       173       157      1829      1272      3035      1828       766      1273
 -1      2241    6    0    1
 -2       536       516       521       592      2683      2783      2780      2686      2684      3364
 -1      2242    6    0    1
 -2       105       258       303       304      2791      2187      1097      1111      2189      1112
 -1      2243    6    0    1
 -2       344       170       367       337      1285      1415      2777      1340      1336      3219
 -1      2244    6    0    1
 -2       548       373       506       289      2263      3200      2550      3449      3199      3202
 -1      2245    6    0    1
 -2       244        56       466       245      1712      3453      1944       864      1713      1943
 -1      2246    6    0    1
 -2       205       215       585       403      1611      3359      2198      1615      1609      3361
 -1      2247    6    0    1
 -2       428       127       429       589      1754      1756      1758      3124      3123      3329
 -1      2248    6    0    1
 -2       285       197       495       198      3286      2111      2494      3122       810      2066
 -1      2249    6    0    1
 -2       562       590       517       591      2155      2156      2157      3338      3109      3108
 -1      2250    6    0    1
 -2       533       512       580       532      3136      2424      2734      3374      2425      2426
 -1      2251    6    0    1
 -2       381       424       429       338      3172      1827      3186      3174      3173      3188
 -1      2252    6    0    1
 -2       163       603       162       341      3291      2661       773      1278      3307      1279
 -1      2253    6    0    1
 -2       514       530       592       513      2992      3454      2688      2995      2834      2998
 -1      2254    6    0    1
 -2       270       485       271        70      2568      2410       950      1002      3092      1005
 -1      2255    6    0    1
 -2       346       350       606       341      1313      3100      3081      1297      1314      3304
 -1      2256    6    0    1
 -2       515       324       143       323      2305      1193      2300      2207      1195      1192
 -1      2257    6    0    1
 -2       313       325       589       327      1239      3244      3358      1211      1238      3125
 -1      2258    6    0    1
 -2       591       562       573       560      3338      3357      2837      3455      2865      3456
 -1      2259    6    0    1
 -2       591       562       560       517      3338      2865      3455      3108      2157      3318
 -1      2260    6    0    1
 -2        56       244       466       281      1712      1944      3453       978      2225      2961
 -1      2261    6    0    1
 -2       529       559       513       580      2458      2738      2994      2460      2462      2739
 -1      2262    6    0    1
 -2       380       521       515       369      3339      3312      2670      1508      3457      2301
 -1      2263    6    0    1
 -2       520       327       325       324      3152      1238      2333      2332      1237      1198
 -1      2264    6    0    1
 -2       438       345       422       539      2712      3068      1849      3458      3414      3168
 -1      2265    6    0    1
 -2       482       525       360       215      3459      3196      2705      2137      3460      3054
 -1      2266    6    0    1
 -2       411       565       568       405      2904      2906      2364      1677      3442      2363
 -1      2267    6    0    1
 -2       544       518       545       608      2719      2258      3461      2924      3404      3350
 -1      2268    6    0    1
 -2       607       603       608       606      3251      3250      2926      2925      3015      2927
 -1      2269    6    0    1
 -2       166         6       204       362       777       818      1656      3170      1404      1403
 -1      2270    6    0    1
 -2       569       547       407       549      3214      3365      2896      2737      2345      2897
 -1      2271    6    0    1
 -2       343       550       168       366      2882      2647      1283      2874      2327      1412
 -1      2272    6    0    1
 -2       534       561       513       579      3377      2291      2999      2997      2292      2293
 -1      2273    6    0    1
 -2       280       243       465        54      3115      1941      3207       974      1709      3325
 -1      2274    6    0    1
 -2       482       524       377       360      3462      3314      2704      2705      3399      1497
 -1      2275    6    0    1
 -2       482       203       215       360      2085      1988      2137      2705      1400      3054
 -1      2276    6    0    1
 -2       433       564       417       448      2747      2361      1893      1891      2771      1900
 -1      2277    6    0    1
 -2       361       384       546       382      1546      3021      2245      1503      1574      2621
 -1      2278    6    0    1
 -2       392       376       531       385      1539      3047      2841      1562      1517      3048
 -1      2279    6    0    1
 -2       273       274        73       487       959      1011      1008      2618      2553      3069
 -1      2280    6    0    1
 -2       310       119       257        30      1135      3140      2654      3240      1450       914
 -1      2281    6    0    1
 -2       147       130       424       148      1161      1761      2226       756      1201      3022
 -1      2282    6    0    1
 -2       399       587       553       398      3280      2803      2826      1598      3452      3431
 -1      2283    6    0    1
 -2       211       578       210       575      3002      3463       827      3266      3464      3465
 -1      2284    6    0    1
 -2       147       130       129       424      1161       736      1159      2226      1761      1760
 -1      2285    6    0    1
 -2       405       417       217       216      2393      2360      1641      1638      1730      1636
 -1      2286    6    0    1
 -2       211       578       399       210      3002      3004      1597       827      3463      1596
 -1      2287    6    0    1
 -2       177       485        70       178      2091      3092      1357       790      2026      1356
 -1      2288    6    0    1
 -2       579       591       513       592      2290      2289      2293      2996      3466      2998
 -1      2289    6    0    1
 -2       479       434       555       554      2828      3308      3317      2831      2829      2743
 -1      2290    6    0    1
 -2       108       298        92       262      1085      1084      1079      3229      3228      2579
 -1      2291    6    0    1
 -2       533       512       532       534      3136      2425      3374      3378      2689      2691
 -1      2292    6    0    1
 -2       562       315       330       316      2751      1221      2153      3210      1170      1222
 -1      2293    6    0    1
 -2       596       551       562       315      2455      2749      3060      2549      2548      2751
 -1      2294    6    0    1
 -2       556       452       420       442      3309      1883      2849      3014      1885      1847
 -1      2295    6    0    1
 -2       579       317       318       535      3467      1176      3468      2938      3403      3469
 -1      2296    6    0    1
 -2       207       416       479       554      2481      2830      1981      2480      2483      2831
 -1      2297    6    0    1
 -2       555       471       479       500      3005      2115      3317      3006      2138      2090
 -1      2298    6    0    1
 -2       512       534       592       523      2689      2871      3026      2690      2692      2872
 -1      2299    6    0    1
 -2       248       284       494       468      2204      2205      2060      1948      2674      2059
 -1      2300    6    0    1
 -2       592       512       514       513      3026      3373      2688      2998      3025      2995
 -1      2301    6    0    1
 -2       159       567       347       160      3470      3471      1300       770      2524      1299
 -1      2302    6    0    1
 -2       448       290       268        42      3134      1060      3135      1869      1042       941
 -1      2303    6    0    1
 -2       608       162       407       163      3255      1652      3289      2658       773      1653
 -1      2304    6    0    1
 -2       585       586       525       528      3239      3412      3472      3267      3139      3473
 -1      2305    6    0    1
 -2       342       164       544       165      1281      3393      2329      1280       775      2922
 -1      2306    6    0    1
 -2       205       383       585       363      1504      2373      2198      1405      1505      3474
 -1      2307    6    0    1
 -2       421       450       565       418      1874      2680      2682      1822      1875      3394
 -1      2308    6    0    1
 -2       549       475       506       476      2648      2132      3444      2281      1969      2133
 -1      2309    6    0    1
 -2       265       309        98        28      2721      1129      2264       912      2439      1777
 -1      2310    6    0    1
 -2       174       175       510       373       787      2087      2089      1515      1475      2273
 -1      2311    6    0    1
 -2        12       421       150       158      1739      1738       759       768      3475      1259
 -1      2312    6    0    1
 -2       127       429       313       128      1756      3101      1158       734      1757      1157
 -1      2313    6    0    1
 -2       205       585       140       403      2198      2196      1635      1615      3361      1626
 -1      2314    6    0    1
 -2       577       586       526       532      3476      3477      3478      2423      3197      3146
 -1      2315    6    0    1
 -2       571       336       335       351      3175      1264      3085      2916      1323      1319
 -1      2316    6    0    1
 -2       568       216       418       441      3479      1733      3288      2984      1842      1844
 -1      2317    6    0    1
 -2       461        48       235       234      2551      1695      1933      1934      1694       854
 -1      2318    6    0    1
 -2       431       260         4       371      3212      2622      3235      3018      3260      1489
 -1      2319    6    0    1
 -2       577       586       532       528      3476      3197      2423      2877      3139      2879
 -1      2320    6    0    1
 -2       243        54       242       465      1709      1708       862      1941      3325      1942
 -1      2321    6    0    1
 -2       607       609       602       519      3372      3261      2347      3348      2468      2313
 -1      2322    6    0    1
 -2       383       528       585       525      3340      3267      2373      3000      3473      3472
 -1      2323    6    0    1
 -2       516       536       392       514      2683      2839      3112      2685      2687      2840
 -1      2324    6    0    1
 -2       144       325       520       370      1196      2333      2331      1428      3245      3233
 -1      2325    6    0    1
 -2       441       417       433       568      1843      1893      1892      2984      2358      2717
 -1      2326    6    0    1
 -2       587       557       527       533      2804      3480      2908      3427      2853      3272
 -1      2327    6    0    1
 -2       438       446       539       422      1860      2430      3458      1849      1861      3168
 -1      2328    6    0    1
 -2       467        83       283       282      2450      1030      2353      2354      1027       985
 -1      2329    6    0    1
 -2       284       196        84       494      3230      1388      1032      2205      2062      2441
 -1      2330    6    0    1
 -2        34       260       261       371       919       899       922      1473      3260      2669
 -1      2331    6    0    1
 -2        23       431       260        10      1808      3212       895      1806      1809      2623
 -1      2332    6    0    1
 -2       539       447       530       446      2445      2443      2434      2430      1889      2431
 -1      2333    6    0    1
 -2       436       227       228       484      1810       847      1811      3389      2022      2021
 -1      2334    6    0    1
 -2       554       556       558       557      2675      2677      2267      2958      3481      2606
 -1      2335    6    0    1
 -2       269       484       228       458      2415      2021      3482      2218      2020      1928
 -1      2336    6    0    1
 -2       196       468        85       197      2011      3231      1391       809      2012      1390
 -1      2337    6    0    1
 -2       496       287       286        87      3076       996      3483      2727      1038      1035
 -1      2338    6    0    1
 -2        50       236       462       275      1698      1936      3421       961      3181      2969
 -1      2339    6    0    1
 -2        69       458       176       294      3484      1991      1355      1057      2219      3337
 -1      2340    6    0    1
 -2       452       435       440       558      1895      1839      1917      3011      3441      2679
 -1      2341    6    0    1
 -2       199       496       286        87      2113      3483      2491      1396      2727      1035
 -1      2342    6    0    1
 -2       285       197       198        85      3286       810      3122      1034      1390      1392
 -1      2343    6    0    1
 -2       285        86       198       469      1033      1394      3122      3121      3189      2013
 -1      2344    6    0    1
 -2       444       543       453       574      2492      2394      1911      2631      3448      2574
 -1      2345    6    0    1
 -2       435       454       444       574      1896      1902      1856      3105      3334      2631
 -1      2346    6    0    1
 -2       432       435       444       574      1817      1856      1855      2577      3105      2631
 -1      2347    6    0    1
 -2       454       560       444       574      2490      2978      1902      3334      3485      2631
 -1      2348    6    0    1
 -2       474       605       473       220      3164      3161      1963      1961      3074      1959
 -1      2349    6    0    1
 -2       421       339       150       158      2947      1289      1738      3475      1275      1259
 -1      2350    6    0    1
 -2       535       534       533       593      3486      3378      3487      3488      3226      3489
 -1      2351    6    0    1
 -2       269       228       484       436      3482      2021      2415      2795      1811      3389
 -1      2352    6    0    1
 -2       445       453       566       432      1904      2484      2486      1916      1910      2728
 -1      2353    6    0    1
 -2        67        68       373       289       669      1461      1460      1001      1000      3199
 -1      2354    6    0    1
 -2       267       580       531       577      2761      3390      3424      3490      2422      3335
 -1      2355    6    0    1
 -2       450       441       455       568      1880      1909      1907      3179      2984      2983
 -1      2356    6    0    1
 -2       280       281       492        55       979      3132      3208       975       977      3303
 -1      2357    6    0    1
 -2       281        56       282       466       978       980       982      2961      3453      3319
 -1      2358    6    0    1
 -2       256       102        18        19      2388      1783       882       884      1784       616
 -1      2359    6    0    1
 -2        56       245       282       466      1713      3223       980      3453      1943      3319
 -1      2360    6    0    1
 -2       280       243       492       465      3115      2053      3208      3207      1941      2104
 -1      2361    6    0    1
 -2       593       553       533       535      2825      2856      3489      3488      3344      3487
 -1      2362    6    0    1
 -2       416       207       255        15      2481      1955      1728      1729       823       875
 -1      2363    6    0    1
 -2       597       553       535       561      3143      3344      2937      2941      2854      2939
 -1      2364    6    0    1
 -2       282       281       193        82       982      2960      2532      1028      1025      1385
 -1      2365    6    0    1
 -2       562       573       560       552      3357      3456      2865      2867      3401      2866
 -1      2366    6    0    1
 -2        65       435       559       558      1805      3345      2890      2975      3441      2607
 -1      2367    6    0    1
 -2       222       549       476       475      2571      2281      1967      1965      2648      1969
 -1      2368    6    0    1
 -2       586       212       401       213      2858      1602      3119      3407       829      1603
 -1      2369    6    0    1
 -2       602       570       567       566      3263      3491      2228      2315      2928      3492
 -1      2370    6    0    1
 -2       379       368       387       522      1507      1521      1520      3493      2820      2818
 -1      2371    6    0    1
 -2       549       505       294       506      2649      2418      2989      3444      1584      2384
 -1      2372    6    0    1
 -2       581       525       524       213      2526      2528      2530      2566      3413      3275
 -1      2373    6    0    1
 -2       388       390       396       521      1530      1576      1577      3494      2809      2782
 -1      2374    6    0    1
 -2       391       387       523       385      1534      2819      3182      1550      1569      3284
 -1      2375    6    0    1
 -2       593       578       533       553      3385      3270      3489      2825      3282      2856
 -1      2376    6    0    1
 -2       269       436       484       268      2795      3389      2415       945      2881      2417
 -1      2377    6    0    1
 -2       548       506       510       477      2550      2120      2223      2224      2145      2146
 -1      2378    6    0    1
 -2       289       549       294       506      2342      2989      1065      3202      3444      2384
 -1      2379    6    0    1
 -2       566       455       568       450      3155      2983      3157      3180      1907      3179
 -1      2380    6    0    1
 -2       339       421       565       158      2947      2682      2949      1275      3475      3443
 -1      2381    6    0    1
 -2       485       269        44       229      2630       944      2990      2025      2885      1800
 -1      2382    6    0    1
 -2       421       565       158       418      2682      3443      3475      1822      3394      3062
 -1      2383    6    0    1
 -2       221       474       605       475      1962      3164      2753      1964      1966      2651
 -1      2384    6    0    1
 -2       405       565       568       418      3442      2906      2363      3098      3394      3288
 -1      2385    6    0    1
 -2        16       226       413       217       845      1682      1681       835      1924      3353
 -1      2386    6    0    1
 -2       411       565       405       159      2904      3442      1677      1675      3495      1640
 -1      2387    6    0    1
 -2       372       394       518       389      1537      2643      2235      1535      1536      2296
 -1      2388    6    0    1
 -2       457       472       564       498      2126      2646      3078      2118      2074      2518
 -1      2389    6    0    1
 -2       460        72       272       180      2962      1006      2919      1995      1362      3083
 -1      2390    6    0    1
 -2       467        83       195       283      2450      1386      2010      2353      1030      2923
 -1      2391    6    0    1
 -2        40       518       266         2      2470      2256       933       640      2234       932
 -1      2392    6    0    1
 -2       379       369       142       541      1513      1426      1490      3496      2298      3293
 -1      2393    6    0    1
 -2       568       216       441       417      3479      1842      2984      2358      1730      1843
 -1      2394    6    0    1
 -2       335       563       437       422      3086      2627      3096      3095      2398      1851
 -1      2395    6    0    1
 -2       586       401       594       402      3119      3379      2813      2814      1607      2816
 -1      2396    6    0    1
 -2       599       579       542       318      3417      3278      3383      2287      3468      2767
 -1      2397    6    0    1
 -2       328       379       142       541      3447      1490      1210      3369      3496      3293
 -1      2398    6    0    1
 -2       516       611       518       395      3118      2642      2929      2883      2641      2644
 -1      2399    6    0    1
 -2       567       570       568       566      3491      2714      2907      3492      2928      3157
 -1      2400    6    0    1
 -2       565       571       567       566      3497      2523      2905      3178      3498      3492
 -1      2401    6    0    1
 -2       570       602       567       604      3263      2228      3491      3264      2230      2232
 -1      2402    6    0    1
 -2       542       318       333       319      2767      1229      2389      2402      1179      1230
 -1      2403    6    0    1
 -2       573       530       591       560      2833      2835      2837      3456      2977      3455
 -1      2404    6    0    1
 -2       572       288       497       502      2375      2377      2379      2563      2562      2136
 -1      2405    6    0    1
 -2       550       353       343       356      3313      1329      2882      2898      1348      1343
 -1      2406    6    0    1
 -2       505       483       294       506      1585      2385      2418      1584      1586      2384
 -1      2407    6    0    1
 -2       594       400       137       401      3436      1620      3367      3379      1604      1623
 -1      2408    6    0    1
 -2       529       570       519       432      2465      2469      2466      2540      2539      2576
 -1      2409    6    0    1
 -2       358        68       294       373      1496      1058      2383      1474      1461      3201
 -1      2410    6    0    1
 -2       159       405       158       565      1640      1639       769      3495      3442      3443
 -1      2411    6    0    1
 -2       293       526       577       525      3434      3478      3499      2955      2527      3500
 -1      2412    6    0    1
 -2       565       567       568       566      2905      2907      2906      3178      3492      3157
 -1      2413    6    0    1
 -2       517       329       330       326      2211      1252      2154      3024      1219      1250
 -1      2414    6    0    1
 -2       152       438       153       345      1826      1825       762      1293      2712      1294
 -1      2415    6    0    1
 -2       229       269       228       458      2885      3482       848      1927      2218      1928
 -1      2416    6    0    1
 -2       421        12       418       158      1739      1732      1822      3475       768      3062
 -1      2417    6    0    1
 -2       291       434       554       555      2723      2829      2827      3501      3308      2743
 -1      2418    6    0    1
 -2       376       375       267       531      1498      3437      2178      3047      3046      3424
 -1      2419    6    0    1
 -2       434       471       255       479      2601      1953      1857      2828      2115      2019
 -1      2420    6    0    1
 -2       572       507       504       508      3248      1628      2216      3089      1612      1212
 -1      2421    6    0    1
 -2       602       543       607       519      2316      2349      2347      2313      2312      3348
 -1      2422    6    0    1
 -2       496       251        61       252      2069      1724      3116      2068       871      1725
 -1      2423    6    0    1
 -2       565       571       566       563      3497      3498      3178      2950      3087      2487
 -1      2424    6    0    1
 -2       572       526       527       296      3502      3150      3503      2477      3433      3504
 -1      2425    6    0    1
 -2       572       526       296       524      3502      3433      2477      2213      2531      2478
 -1      2426    6    0    1
 -2       572       526       524       581      3502      2531      2213      2943      2529      2530
 -1      2427    6    0    1
 -2       572       526       581       527      3502      2529      2943      3503      3150      3505
 -1      2428    6    0    1
 -2       592       512       536       514      3026      2900      2686      2688      3373      2687
 -1      2429    6    0    1
 -2       572       575       555       527      2942      2696      3007      3503      2910      2909
 -1      2430    6    0    1
 -2       449       452       552       454      1884      3012      3038      1918      1897      3039
 -1      2431    6    0    1
 -2       559       573       561       552      2985      2986      2987      2609      3401      3247
 -1      2432    6    0    1
 -2       511       542       541       522      2709      2321      2710      3506      2320      2323
 -1      2433    6    0    1
 -2       583       541       334       323      2304      2325      2174      2175      2302      1241
 -1      2434    6    0    1
 -2       210       587       575       578      3507      2695      3465      3463      3281      3464
 -1      2435    6    0    1
 -2       567       159       347       565      3470      1300      3471      2905      3495      3508
 -1      2436    6    0    1
 -2        79        80       190       279       681      1380      1377      1022      1021      2614
 -1      2437    6    0    1
 -2       467       247       246        57      1945       866      1946      2352      1716      1715
 -1      2438    6    0    1
 -2       579       318       317       332      3468      1176      3467      3279      1227      1226
 -1      2439    6    0    1
 -2       326       456       517       125      3023      2192      3024      1203      1833      2894
 -1      2440    6    0    1
 -2       392       385       531       536      1562      3048      2841      2839      3127      2842
 -1      2441    6    0    1
 -2       317       331       579       332      1224      3043      3467      1226      1228      3279
 -1      2442    6    0    1
 -2       455       570        41         8      3156      2971      1795      1794      2512       641
 -1      2443    6    0    1
 -2       332       590       579       583      3034      3356      3279      3032      3033      3276
 -1      2444    6    0    1
 -2       317       135       597       316      1171      3142      3144      1173      1169      3145
 -1      2445    6    0    1
 -2       597       561       596       553      2941      3059      3058      3143      2854      2169
 -1      2446    6    0    1
 -2       390       511       541       522      2807      2710      2810      3509      3506      2323
 -1      2447    6    0    1
 -2       117        30       118       305      1449      1448       723      1145      3241      1148
 -1      2448    6    0    1
 -2       526       293       577       527      3434      3499      3478      3150      3510      3511
 -1      2449    6    0    1
 -2       146       424       429       381      2227      1827      3102      1494      3172      3186
 -1      2450    6    0    1
 -2       347       339       563       565      1304      2948      3088      3508      2949      2950
 -1      2451    6    0    1
 -2       485        45       230       229      2409      1687      2024      2025      1686       849
 -1      2452    6    0    1
 -2       549       548       289       547      2280      3449      2342      2345      3375      2341
 -1      2453    6    0    1
 -2       571       335       347       351      3085      1315      2914      2916      1319      1318
 -1      2454    6    0    1
 -2       326       517       312       125      3024      2186      1216      1203      2894      1156
 -1      2455    6    0    1
 -2       609       516       518       514      3371      2929      2472      2475      2685      2471
 -1      2456    6    0    1
 -2       599       579       318       535      3417      3468      2287      3512      2938      3469
 -1      2457    6    0    1
 -2       578       212       400       582      3128      1600      3003      3268      2859      3387
 -1      2458    6    0    1
 -2       215       525       360       363      3460      3196      3054      2420      3195      1482
 -1      2459    6    0    1
 -2       497       254       253       415      2071       873      2072      2380      1727      1726
 -1      2460    6    0    1
 -2       434       254       255       471      1818       874      1857      2601      1954      1953
 -1      2461    6    0    1
 -2       521       537       539       388      3274      2790      2706      3494      2557      2891
 -1      2462    6    0    1
 -2       390       511       522       536      2807      3506      3509      3416      3363      3053
 -1      2463    6    0    1
 -2       578       587       533       553      3281      3427      3270      3282      2803      2856
 -1      2464    6    0    1
 -2       416       434       255       479      1881      1857      1728      2830      2828      2019
 -1      2465    6    0    1
 -2       302       256       117       305      2386      2589      1107      1115      2612      1145
 -1      2466    6    0    1
 -2       551       311       517       330      2193      2194      2195      2750      1243      2154
 -1      2467    6    0    1
 -2       567       160       411       406      2524      1666      2367      2365      1650      1663
 -1      2468    6    0    1
 -2       399       587       398       210      3280      3452      1598      1596      3507      1595
 -1      2469    6    0    1
 -2       291       554       292       555      2827      2269      1051      3501      2743      3513
 -1      2470    6    0    1
 -2       575       211       481       499      3266      1985      2944      2318      2078      2082
 -1      2471    6    0    1
 -2       438       447       537       539      1888      3206      2160      3458      2445      2790
 -1      2472    6    0    1
 -2        65       559         8        40      2890      3514       666       936      2461       639
 -1      2473    6    0    1
 -2       166       342       365       544      1317      3392      3169      2921      2329      3031
 -1      2474    6    0    1
 -2       365       166       544       362      3169      2921      3031      1481      3170      3166
 -1      2475    6    0    1
 -2       386       365       544       362      1519      3031      2951      1518      1481      3166
 -1      2476    6    0    1
 -2       529       559        40         8      2458      2461      2459      2510      3514       639
 -1      2477    6    0    1
 -2       240        53       464       241      1705      2560      1940       860      1706      1939
 -1      2478    6    0    1
 -2       496       199       286       469      2113      2491      3483      2112      2014      3221
 -1      2479    6    0    1
 -2       193       194       282        82       806      2451      2532      1385      1384      1028
 -1      2480    6    0    1
 -2       481       524       501       581      2212      3265      2119      2946      2530      2565
 -1      2481    6    0    1
 -2       597       317       579       535      3144      3467      2940      2937      3403      2938
 -1      2482    6    0    1
 -2       433       564       568       417      2747      2357      2717      1893      2361      2358
 -1      2483    6    0    1
 -2       143       541       142       369      2297      3293       751      1425      2298      1426
 -1      2484    6    0    1
 -2       594       400       401       582      3436      1604      3379      3425      3387      3120
 -1      2485    6    0    1
 -2       293       576       577       527      3515      3516      3499      3510      3517      3511
 -1      2486    6    0    1
 -2       209       575       555       480      2694      2696      2698      1983      2319      3296
 -1      2487    6    0    1
 -2       529       435       559         8      3104      3345      2458      2510      1804      3514
 -1      2488    6    0    1
 -2       166       409       544       362      1660      2920      2921      3170      3408      3166
 -1      2489    6    0    1
 -2       320       328       600       321      1247      3305      3438      1185      1248      3306
 -1      2490    6    0    1
 -2       581       525       213       586      2526      3413      2566      2860      3412      3407
 -1      2491    6    0    1
 -2        38       111       264       307      1439      3237       927      3397      1139      2437
 -1      2492    6    0    1
 -2       222       547       549       407      2569      2345      2571      1645      3365      2897
 -1      2493    6    0    1
 -2       567       569       411       568      2368      2369      2367      2907      2773      2364
 -1      2494    6    0    1
 -2       568       564       290       569      2357      2498      2716      2773      2336      2725
 -1      2495    6    0    1
 -2       390       379       522       541      1529      3493      3509      2810      3496      2323
 -1      2496    6    0    1
 -2       208       587       404       588      3432      3450      1631      2744      2802      2272
 -1      2497    6    0    1
 -2       377       524       374       360      3314      2847      1548      1497      3399      1547
 -1      2498    6    0    1
 -2       163       412       407       608      1679      1678      1653      2658      2768      3289
 -1      2499    6    0    1
 -2       123       314       311       426      1244      1245      1154      1748      3446      3418
 -1      2500    6    0    1
 -2       569       219       406       411      2335      1644      2366      2369      1664      1663
 -1      2501    6    0    1
 -2       530       447       444       446      2443      1913      2493      2431      1889      1922
 -1      2502    6    0    1
 -2       549       221       605       475      2673      2753      2650      2648      1964      2651
 -1      2503    6    0    1
 -2       516       550       378       539      3029      2595      2884      2886      2536      2596
 -1      2504    6    0    1
 -2       581       578       575       527      3129      3464      2945      3505      3271      2910
 -1      2505    6    0    1
 -2       375       525       577       528      2954      3500      3430      3341      3473      2877
 -1      2506    6    0    1
 -2       448       290        42       433      3134      1042      1869      1891      2370      1796
 -1      2507    6    0    1
 -2       593       135       553       535      2823      2824      2825      3488      3343      3344
 -1      2508    6    0    1
 -2       138       584       402       139      3518      2275      1625       746      2277      1624
 -1      2509    6    0    1
 -2       163       603       341       606      3291      3307      1278      3519      3015      3304
 -1      2510    6    0    1
 -2       117       256        30       305      2589       883      1449      1145      2612      3241
 -1      2511    6    0    1
 -2       572       507       480       575      3248      1614      3520      2942      2317      2319
 -1      2512    6    0    1
 -2       411       565       159       567      2904      3495      1675      2367      2905      3470
 -1      2513    6    0    1
 -2       377       509       359       524      3216      3217      1566      3314      2221      3315
 -1      2514    6    0    1
 -2       134       596       316       315      3070      3287      1168      1166      2549      1170
 -1      2515    6    0    1
 -2       594       400       582       593      3436      3387      3425      3224      2255      3386
 -1      2516    6    0    1
 -2       593       135       535       136      2823      3343      3488      2254       743      3445
 -1      2517    6    0    1
 -2       568       216       417       405      3479      1730      2358      2363      1638      2393
 -1      2518    6    0    1
 -2       454       573       560       574      3333      3456      2490      3334      3331      3485
 -1      2519    6    0    1
 -2       556       452       440       558      3309      1917      2676      2677      3011      2679
 -1      2520    6    0    1
 -2       209       575       480       210      2694      2319      1983       826      3465      1982
 -1      2521    6    0    1
 -2       570       602       519       566      3263      2313      2469      2928      2315      2311
 -1      2522    6    0    1
 -2       512       528       523       531      2878      3198      2690      2901      3336      2903
 -1      2523    6    0    1
 -2       134       588       596       133      2270      2165      3070       741      2271      2665
 -1      2524    6    0    1
 -2       567       160       571       347      2524      2521      2523      3471      1299      2914
 -1      2525    6    0    1
 -2       482       214       525       215      1986      3411      3459      2137       831      3460
 -1      2526    6    0    1
 -2       289       545       546        66      3222      2639      3159      1066      2259      2637
 -1      2527    6    0    1
 -2       478       225       548       224      1974      2889      2222      1973       843      3218
 -1      2528    6    0    1
 -2       296       292       527       555      1071      3521      3504      3522      3513      2909
 -1      2529    6    0    1
 -2       376       375        91       267      1498      1468      1469      2178      3437       939
 -1      2530    6    0    1
 -2       456       124       326       311      1834      1204      3023      2190      1153      1208
 -1      2531    6    0    1
 -2       310       103       305        19      1134      1116      1151      2655      1785      2613
 -1      2532    6    0    1
 -2       332       542       579       318      2766      3278      3279      1227      2767      3468
 -1      2533    6    0    1
 -2       446       438       539       447      1860      3458      2430      1889      1888      2445
 -1      2534    6    0    1
 -2       523       534       598       594      2692      2935      2759      2731      2730      2932
 -1      2535    6    0    1
 -2       552       452       420       556      3012      1883      3326      3523      3309      2849
 -1      2536    6    0    1
 -2       559       573       574       513      2985      3331      3346      2738      2836      3524
 -1      2537    6    0    1
 -2       551       425       552       451      2456      3064      2864      3302      1877      3040
 -1      2538    6    0    1
 -2       453       543       563       566      2394      2396      2397      2484      2314      2487
 -1      2539    6    0    1
 -2       589       145       313       381      3242      1199      3358      3330      1495      3525
 -1      2540    6    0    1
 -2       552       420       452       449      3326      1883      3012      3038      1872      1884
 -1      2541    6    0    1
 -2       608       604       545       547      3256      3192      3350      3259      3193      3194
 -1      2542    6    0    1
 -2       275       461       274        49      3213      2546       962       960      2982       958
 -1      2543    6    0    1
 -2       556       397       588       554      2801      2832      2850      2675      2798      2746
 -1      2544    6    0    1
 -2       569       547       549       601      3214      2345      2737      2873      2343      2344
 -1      2545    6    0    1
 -2       208       587       588       555      3432      2802      2744      2741      2699      2742
 -1      2546    6    0    1
 -2       573       530       574       513      2833      2788      3331      2836      2834      3524
 -1      2547    6    0    1
 -2       526       532       527       577      3146      3148      3150      3478      2423      3511
 -1      2548    6    0    1
 -2       164       346       544       608      1298      3082      3393      2659      2657      2924
 -1      2549    6    0    1
 -2       335       339       563       347      1292      2948      3086      1315      1304      3088
 -1      2550    6    0    1
 -2       375       528       383       525      3341      3340      1568      2954      3473      3000
 -1      2551    6    0    1
 -2       138       584       598       594      3518      2757      3406      3380      2815      2932
 -1      2552    6    0    1
 -2       596       553       134       597      2169      2911      3070      3058      3143      3141
 -1      2553    6    0    1
 -2       313       381       429       589      3525      3186      3101      3358      3330      3329
 -1      2554    6    0    1
 -2       562       573       552       561      3357      3401      2867      3061      2986      3247
 -1      2555    6    0    1
 -2       554       440       556       442      2678      2676      2675      3310      1899      3014
 -1      2556    6    0    1
 -2       601       609       266       570      3526      2974      2505      2508      2467      2506
 -1      2557    6    0    1
 -2       449       420       425       552      1872      1821      1873      3038      3326      3064
 -1      2558    6    0    1
 -2       573       530       560       574      2833      2977      3456      3331      2788      3485
 -1      2559    6    0    1
 -2       511       522       536       592      3506      3053      3363      3283      3009      2686
 -1      2560    6    0    1
 -2       571       335       422       563      3085      3095      3177      3087      3086      2398
 -1      2561    6    0    1
 -2       550       343       349       356      2882      1310      2598      2898      1343      1342
 -1      2562    6    0    1
 -2       396       536       390       392      2779      3416      1576      1559      2839      1575
 -1      2563    6    0    1
 -2       596       551       552       562      2455      2864      2167      3060      2749      2867
 -1      2564    6    0    1
 -2       545       544       547       546      3461      3527      3194      2639      3423      3376
 -1      2565    6    0    1
 -2       572       296       527       555      2477      3504      3503      3007      3522      2909
 -1      2566    6    0    1
 -2       269       229       228        44      2885       848      3482       944      1800      1854
 -1      2567    6    0    1
 -2       590       331       329       332      3355      1256      2936      3034      1228      1257
 -1      2568    6    0    1
 -2       423       589       428       429      3328      3124      1866      1882      3329      1758
 -1      2569    6    0    1
 -2       377       509       524       482      3216      2221      3314      2704      2142      3462
 -1      2570    6    0    1
 -2       331       562       330       316      3042      2153      1225      1223      3210      1222
 -1      2571    6    0    1
 -2       215       585       525       363      3359      3472      3460      2420      3474      3195
 -1      2572    6    0    1
 -2       435        65       440       558      1805      1840      1839      3441      2975      2679
 -1      2573    6    0    1
 -2       436       269       228        44      2795      3482      1811      1836       944      1854
 -1      2574    6    0    1
 -2       205       585       215       363      2198      3359      1611      1405      3474      2420
 -1      2575    6    0    1
 -2       548        67       546       384      3409      3160      2247      3347      1510      3021
 -1      2576    6    0    1
 -2       584       600       585       139      2754      3382      2276      2277      3381      2279
 -1      2577    6    0    1
 -2       548        67       373       289      3409      1460      2263      3449      1001      3199
 -1      2578    6    0    1
 -2       390       379       387       522      1529      1520      1573      3509      3493      2818
 -1      2579    6    0    1
 -2       583       515       521       541      2210      3312      3285      2304      2299      2811
 -1      2580    6    0    1
 -2       584       523       598       594      2758      2759      2757      2815      2731      2932
 -1      2581    6    0    1
 -2         5       364       368       595      1407      1487      1424      2956      2572      3094
 -1      2582    6    0    1
 -2       368       522       600       523      2820      3396      3429      2821      2822      2756
 -1      2583    6    0    1
 -2       569       220       406       219      3073      1643      2366      2335       838      1644
 -1      2584    6    0    1
 -2       552       558       452       556      2605      3011      3012      3523      2677      3309
 -1      2585    6    0    1
 -2       582       593       533       532      3386      3489      3269      3147      3426      3374
 -1      2586    6    0    1
 -2       424       146       429       128      2227      3102      1827      1759      1207      1757
 -1      2587    6    0    1
 -2       335       150       151       437      1260       760      1261      3096      1824      1823
 -1      2588    6    0    1
 -2       334       600       320       328      3395      3438      1233      1240      3305      1247
 -1      2589    6    0    1
 -2       124       456       326       125      1834      3023      1204       731      1833      1203
 -1      2590    6    0    1
 -2       511       583       592       521      2711      3277      3283      2808      3285      3364
 -1      2591    6    0    1
 -2       544       342       365       366      2329      3392      3031      2330      2328      1413
 -1      2592    6    0    1
 -2       578       587       527       533      3281      2908      3271      3270      3427      3272
 -1      2593    6    0    1
 -2       292       296       527       293      1071      3504      3521      1055      1072      3510
 -1      2594    6    0    1
 -2       529       513       559       574      2994      2738      2458      2787      3524      3346
 -1      2595    6    0    1
 -2        35       108         3        92      1431       713      1432      2578      1079       695
 -1      2596    6    0    1
 -2       559       533       561       513      2732      2855      2987      2738      2740      2291
 -1      2597    6    0    1
 -2       584       600       139       598      2754      3381      2277      2757      2755      3528
 -1      2598    6    0    1
 -2       586       212       213       581      2858       829      3407      2860      2567      2566
 -1      2599    6    0    1
 -2        67       548       546       289      3409      2247      3160      1001      3449      3159
 -1      2600    6    0    1
 -2       557       292       555       527      2702      3513      3246      3480      3521      2909
 -1      2601    6    0    1
 -2       543       602       571       566      2316      2348      2350      2314      2315      3498
 -1      2602    6    0    1
 -2       545       289       546       547      3222      3159      2639      3194      2341      3376
 -1      2603    6    0    1
 -2       529       530       513       574      2786      2834      2994      2787      2788      3524
 -1      2604    6    0    1
 -2       562       590       591       579      2155      3109      3338      3045      3356      2290
 -1      2605    6    0    1
 -2         9       431       131        92      1765      1764       738       694      3019      1162
 -1      2606    6    0    1
 -2       390       511       536       521      2807      3363      3416      2809      2808      2780
 -1      2607    6    0    1
 -2       421       445       437       563      1859      1858      1845      2626      2485      2627
 -1      2608    6    0    1
 -2       590       515       538       521      3451      3055      3050      3529      3312      3273
 -1      2609    6    0    1
 -2       463       489        51       238      2039      3530      3531      1938      2040      1701
 -1      2610    6    0    1
 -2       590       515       521       583      3451      3312      3529      3033      2210      3285
 -1      2611    6    0    1
 -2       590       521       538       540      3529      3273      3050      3049      2708      3052
 -1      2612    6    0    1
 -2       522       542       598       523      2320      2401      2419      2822      2870      2759
 -1      2613    6    0    1
 -2       530       591       592       513      2835      3466      3454      2834      2289      2998
 -1      2614    6    0    1
 -2       511       542       522       592      2709      2320      3506      3283      2869      3009
 -1      2615    6    0    1
 -2       379       390       369       541      1529      1528      1513      3496      2810      2298
 -1      2616    6    0    1
 -2       610       550       539       349      2538      2536      2535      2880      2598      2599
 -1      2617    6    0    1
 -2       456       551       517       560      2191      2195      2192      2488      2863      3318
 -1      2618    6    0    1
 -2       292       291       555       296      1051      3501      3513      1071      1074      3522
 -1      2619    6    0    1
 -2       551       311       330       315      2193      1243      2750      2548      1242      1221
 -1      2620    6    0    1
 -2       291       572       555       296      3097      3007      3501      1074      2477      3522
 -1      2621    6    0    1
 -2       540       560       517       591      3110      3318      3051      3107      3455      3108
 -1      2622    6    0    1
 -2       599       138       598       594      3419      3406      2933      2931      3380      2932
 -1      2623    6    0    1
 -2       329       590       538       517      2936      3050      2171      2211      2156      2183
 -1      2624    6    0    1
 -2       320       321       600       139      1185      3306      3438      1181      1183      3381
 -1      2625    6    0    1
 -2        51       463       238       239      3531      1938      1701      1702      1937       858
 -1      2626    6    0    1
 -2       598       320       600       139      2784      3438      2755      3528      1181      3381
 -1      2627    6    0    1
 -2       389       544       546       382      2720      3423      2638      1571      3167      2621
 -1      2628    6    0    1
 -2       595       523       600       585      3183      2756      2593      2200      3184      3382
 -1      2629    6    0    1
 -2        62       288       415        63       997      2376      1838       663       998      1814
 -1      2630    6    0    1
 -2       589       145       381       370      3242      1495      3330      3243      1427      1509
 -1      2631    6    0    1
 -2       595       368       600       523      3094      3429      2593      3183      2821      2756
 -1      2632    6    0    1
 -2       490       240       239        52      2044       859      2045      2585      1704      1703
 -1      2633    6    0    1
 -2       427       439       538       447      1832      3165      2182      1865      1864      3203
 -1      2634    6    0    1
 -2       439       540       538       447      2794      3052      3165      1864      2447      3203
 -1      2635    6    0    1
 -2        77       490       187       463      2306      2101      1372      2308      2100      2002
 -1      2636    6    0    1
 -2       517       427       312       125      2184      2185      2186      2894      1751      1156
 -1      2637    6    0    1
 -2       258       121       259        32      2991      2967       893       915      1453       918
 -1      2638    6    0    1
 -2       276        50        51       237       963       651       964      3422      1699      1700
 -1      2639    6    0    1
 -2       274       182        74        73      2545      1366      1010      1011      1363       675
 -1      2640    6    0    1
 -2       413       226       498       217      1682      2116      3352      3353      1924      2075
 -1      2641    6    0    1
 -2       139       140       600       585       747      2594      3381      2279      2196      3382
 -1      2642    6    0    1
 -2       424       155       429       338      1745      1862      1827      3173      1268      3188
 -1      2643    6    0    1
 -2       292       554       557       555      2269      2958      2702      3513      2743      3246
 -1      2644    6    0    1
 -2       372       518       395       514      2235      2644      1565      3398      2471      2930
 -1      2645    6    0    1
 -2       489       185       186        76      2099       798      2042      2588      1371      1370
 -1      2646    6    0    1
 -2       267        40       514       580       937      2473      2180      2761      2463      3090
 -1      2647    6    0    1
 -2       583       591       579       592      3532      2290      3276      3277      3466      2996
 -1      2648    6    0    1
 -2       520       538       537       589      3057      3204      3298      3153      3154      3324
 -1      2649    6    0    1
 -2       609       516       514       519      3371      2685      2475      2468      2963      3106
 -1      2650    6    0    1
 -2       396       536       392       516      2779      2839      1559      2781      2683      3112
 -1      2651    6    0    1
 -2       170       367       337       381      1415      3219      1336      1416      1418      2581
 -1      2652    6    0    1
 -2       381       370       537       589      1509      2558      2583      3330      3243      3324
 -1      2653    6    0    1
 -2       427       126       312       125      1752      1155      2185      1751       732      1156
 -1      2654    6    0    1
 -2       317       331       597       579      1224      3041      3144      3467      3043      2940
 -1      2655    6    0    1
 -2       210       575       499       211      3465      2318      2076       827      3266      2078
 -1      2656    6    0    1
 -2       498       414       564       457      3354      2772      2518      2118      3420      3078
 -1      2657    6    0    1
 -2       259       258        21       304       893       889       891      3037      2189      2792
 -1      2658    6    0    1
 -2       222       547       407       412      2569      3365      1645      1673      3257      1678
 -1      2659    6    0    1
 -2       214       213       482       525       830      1987      1986      3411      3413      3459
 -1      2660    6    0    1
 -2       394       544       365       366      2718      3031      1543      1544      2330      1413
 -1      2661    6    0    1
 -2       324       515       380       520      2305      2670      2672      2332      3056      3232
 -1      2662    6    0    1
 -2       419       554       442       443      2482      3310      1848      1853      3311      1879
 -1      2663    6    0    1
 -2       567       603       571       161      2231      3384      2523      2525      2662      2522
 -1      2664    6    0    1
 -2       354       340       603       348      1331      3402      3300      1330      1309      3299
 -1      2665    6    0    1
 -2       144       324       380       520      1194      2672      1492      2331      2332      3232
 -1      2666    6    0    1
 -2       391       528       523       585      3342      3198      3182      2374      3267      3184
 -1      2667    6    0    1
 -2        60       249       250       495      1721       869      1722      2495      2065      2064
 -1      2668    6    0    1
 -2       453       437       445       563      1887      1858      1904      2397      2627      2485
 -1      2669    6    0    1
 -2       562       551       517       330      2749      2195      2157      2153      2750      2154
 -1      2670    6    0    1
 -2       114       115       301         1       720      1105      1104      1444      1443      2177
 -1      2671    6    0    1
 -2       603       354       352       610      3300      1333      3016      3017      2202      2203
 -1      2672    6    0    1
 -2       544       346       606       608      3082      3081      2408      2924      2657      2927
 -1      2673    6    0    1
 -2       601       609       570       604      3526      2467      2508      3190      3262      3264
 -1      2674    6    0    1
 -2       412       163       164       608      1679       774      1674      2768      2658      2659
 -1      2675    6    0    1
 -2       548       361       384       546      2244      1546      3347      2247      2245      3021
 -1      2676    6    0    1
 -2       560       439       454       444      2489      1914      2490      2978      1912      1902
 -1      2677    6    0    1
 -2       108       262        35        36      3229       924      1431      1434       923       634
 -1      2678    6    0    1
 -2       450       445       565       566      1876      2681      2680      3180      2486      3178
 -1      2679    6    0    1
 -2       116       302        29       117      1106      2590      1447       722      1107      1446
 -1      2680    6    0    1
 -2       548       408       223       224      2796      1648      2284      3218      1647       842
 -1      2681    6    0    1
 -2       560       451       552       454      3301      3040      2866      2490      1921      3039
 -1      2682    6    0    1
 -2       344       170       169       367      1285       781      1286      2777      1415      1414
 -1      2683    6    0    1
 -2       450       445       566       432      1876      2486      3180      1908      1916      2728
 -1      2684    6    0    1
 -2       552       557       553       561      2608      2806      2168      3247      2852      2854
 -1      2685    6    0    1
 -2       140       595       600       585      2197      2593      2594      2196      2200      3382
 -1      2686    6    0    1
 -2       560       530       444       574      2977      2493      2978      3485      2788      2631
 -1      2687    6    0    1
 -2       567       570       604       569      3491      3264      2232      2368      2774      3215
 -1      2688    6    0    1
 -2        83        82       282       194       684      1028      1027      1387      1384      2451
 -1      2689    6    0    1
 -2       276        75       185        76      1015      1369      2541      1014       677      1371
 -1      2690    6    0    1
 -2       609       601       545       604      3526      3191      3351      3262      3190      3192
 -1      2691    6    0    1
 -2       260       431       261       371      3212      3211       899      3260      3018      2669
 -1      2692    6    0    1
 -2       431        92       261       371      3019      2580      3211      3018      2303      2669
 -1      2693    6    0    1
 -2       251        60       250       469      1723      1722       870      1949      2760      1950
 -1      2694    6    0    1
 -2       489        77       186       463      2976      1373      2042      2039      2308      2001
 -1      2695    6    0    1
 -2       149       131       371        92      1202      3020      1430      1190      1162      2303
 -1      2696    6    0    1
 -2       156       155       424       172       765      1745      1744      1271      1270      3111
 -1      2697    6    0    1
 -2       608       544       547       545      2924      3527      3259      3350      3461      3194
 -1      2698    6    0    1
 -2       444       543       574       530      2492      3448      2631      2493      2433      2788
 -1      2699    6    0    1
 -2         7       306       301       100      2440      1118      2252      1780      1117      1093
 -1      2700    6    0    1
 -2         3        34       261       371      1472       922      2668      1429      1473      2669
 -1      2701    6    0    1
 -2       482       525       524       360      3459      2528      3462      2705      3196      3399
 -1      2702    6    0    1
 -2       299       263       264        26      2502       908      3238      2503       904       906
 -1      2703    6    0    1
 -2       367       388       378       539      1560      1567      1484      2778      2891      2596
 -1      2704    6    0    1
 -2       551       560       562       517      2863      2865      2749      2195      3318      2157
 -1      2705    6    0    1
 -2       383       363       393       525      1505      1541      1552      3000      3195      3001
 -1      2706    6    0    1
 -2       576       267       293       577      2892      1052      3515      3516      3490      3499
 -1      2707    6    0    1
 -2       389       546       544       545      2638      3423      2720      2295      2639      3461
 -1      2708    6    0    1
 -2       607       602       603       571      2347      2229      3251      2351      2348      3384
 -1      2709    6    0    1
 -2       543       610       422       571      3103      3067      2395      2350      3176      3177
 -1      2710    6    0    1
 -2        46       232        47       272      1690      1691       647       951      2632       952
 -1      2711    6    0    1
 -2       453       437       563       422      1887      2627      2397      1886      1851      2398
 -1      2712    6    0    1
 -2       421       445       563       565      1859      2485      2626      2682      2681      2950
 -1      2713    6    0    1
 -2       565       445       563       566      2681      2485      2950      3178      2486      2487
 -1      2714    6    0    1
 -2       270       177        69       458      3091      1354      1003      2217      1992      3484
 -1      2715    6    0    1
 -2       607       543       571       610      2349      2350      2351      2537      3103      3176
 -1      2716    6    0    1
 -2       610       543       422       539      3103      2395      3067      2535      2432      3168
 -1      2717    6    0    1
 -2       354       351       355       610      1332      1337      1346      2202      2917      2201
 -1      2718    6    0    1
 -2       301       265        28       309      2838       912      2251      1127      2721      2439
 -1      2719    6    0    1
 -2       131       371       148       149      3020      1522      1220      1202      1430       757
 -1      2720    6    0    1
 -2       537       438       539       345      2160      3458      2790      2713      2712      3414
 -1      2721    6    0    1
 -2       556       557       588       552      3481      2805      2850      3523      2608      2164
 -1      2722    6    0    1
 -2        64       558        65       292      2265      2975       665      1048      2266      1049
 -1      2723    6    0    1
 -2       595       322       368         5      2591      3428      3094      2956      1187      1424
 -1      2724    6    0    1
 -2       313       146       429       381      1200      3102      3101      3525      1494      3186
 -1      2725    6    0    1
 -2       602       567       571       566      2228      2523      2348      2315      3492      3498
 -1      2726    6    0    1
 -2       435       529       559       574      3104      2458      3345      3105      2787      3346
 -1      2727    6    0    1
 -2       593       578       399       400      3385      3004      2253      2255      3003      1601
 -1      2728    6    0    1
 -2       577       586       528       525      3476      3139      2877      3500      3412      3473
 -1      2729    6    0    1
 -2       399       587       210       578      3280      3507      1596      3004      3281      3463
 -1      2730    6    0    1
 -2       588       587       404       553      2802      3450      2272      2166      2803      2912
 -1      2731    6    0    1
 -2       607       544       550       606      2240      2238      2237      2925      2408      2407
 -1      2732    6    0    1
 -2       298       108       109        36      1085       714      1086      2515      1434      1433
 -1      2733    6    0    1
 -2       375       293       577       525      2953      3499      3430      2954      2955      3500
 -1      2734    6    0    1
 -2       267       580       577       576      2761      2422      3490      2892      2735      3516
 -1      2735    6    0    1
 -2       489       237        51       238      2041      1700      3530      2040       857      1701
 -1      2736    6    0    1
 -2       529       580       513       514      2460      2739      2994      2993      3090      2995
 -1      2737    6    0    1
 -2       524       213       482       501      3275      1987      3462      3265      2083      2123
 -1      2738    6    0    1
 -2       497       253       470       415      2072      1951      2117      2380      1726      3533
 -1      2739    6    0    1
 -2       524       509       359       502      2221      3217      3315      2564      1253      2390
 -1      2740    6    0    1
 -2       155       154       429       338       764      1863      1862      1268      1267      3188
 -1      2741    6    0    1
 -2       534       561       579       535      3377      2292      2997      3486      2939      2938
 -1      2742    6    0    1
 -2       134       398       553       404      1617      3431      2911      1632      1634      2912
 -1      2743    6    0    1
 -2       287       288        88       470       999      1040      1037      3185      3534      3535
 -1      2744    6    0    1
 -2       253        62       470       415      1815      3536      1951      1726      1838      3533
 -1      2745    6    0    1
 -2       608       407       604       547      3289      3290      3256      3259      3365      3193
 -1      2746    6    0    1
 -2       375       267       531       577      3437      3424      3046      3430      3490      3335
 -1      2747    6    0    1
 -2       153       423       154       337      1743      1742       763      1265      2161      1266
 -1      2748    6    0    1
 -2       554       556       557       588      2675      3481      2958      2746      2850      2805
 -1      2749    6    0    1
 -2       536       512       531       514      2900      2901      2842      2687      3373      2843
 -1      2750    6    0    1
 -2       468       248        59       249      1948      1719      2413      1947       868      1720
 -1      2751    6    0    1
 -2       496       287       470       252      3076      3185      2067      2068      3117      1952
 -1      2752    6    0    1
 -2       288       524       359       502      2476      3315      3030      2562      2564      2390
 -1      2753    6    0    1
 -2       409       544       362       382      2920      3166      3408      2620      3167      1502
 -1      2754    6    0    1
 -2       575       210       499       480      3465      2076      2318      2319      1982      2077
 -1      2755    6    0    1
 -2       524       504       501       509      2214      2127      3265      2221      1213      2141
 -1      2756    6    0    1
 -2       163       603       606       608      3291      3015      3519      2658      3250      2927
 -1      2757    6    0    1
 -2       482       524       501       509      3462      3265      2123      2142      2221      2141
 -1      2758    6    0    1
 -2       554       557       555       588      2958      3246      2743      2746      2805      2742
 -1      2759    6    0    1
 -2       163       346       608       606      1296      2657      2658      3519      3081      2927
 -1      2760    6    0    1
 -2       314       425       132       596      2454      2913      1163      2453      2457      2666
 -1      2761    6    0    1
 -2       578       575       527       587      3464      2910      3271      3281      2695      2908
 -1      2762    6    0    1
 -2       145       144       370       325       753      1428      1427      1197      1196      3245
 -1      2763    6    0    1
 -2       369       515       541       521      2301      2299      2298      3457      3312      2811
 -1      2764    6    0    1
 -2       369       390       388       521      1528      1530      1524      3457      2809      3494
 -1      2765    6    0    1
 -2       506       358       510       483      2381      3295      2120      1586      2382      2088
 -1      2766    6    0    1
 -2       270        69       294       458      1003      1057      1056      2217      3484      2219
 -1      2767    6    0    1
 -2       568       216       405       418      3479      1638      2363      3288      1733      3098
 -1      2768    6    0    1
 -2       380       521       369       388      3339      3457      1508      1523      3494      1524
 -1      2769    6    0    1
 -2       457       226       414       227      1926      1683      3420      1925       846      1684
 -1      2770    6    0    1
 -2       390       369       541       521      1528      2298      2810      2809      3457      2811
 -1      2771    6    0    1
 -2       314       551       315       311      2452      2548      1167      1245      2193      1242
 -1      2772    6    0    1
 -2       557       553       588       552      2806      2166      2805      2608      2168      2164
 -1      2773    6    0    1
 -2        46        45       231       271       646      1688      1689       949       948      2150
 -1      2774    6    0    1
 -2       159       339       565       158      1274      2949      3495       769      1275      3443
 -1      2775    6    0    1
 -2       564       413       217       417      2770      3353      2359      2361      1820      2360
 -1      2776    6    0    1
 -2       544       409       546       382      2920      2249      3423      3167      2620      2621
 -1      2777    6    0    1
 -2       552       558       556       557      2605      2677      3523      2608      2606      3481
 -1      2778    6    0    1
 -2       273       274       487        48       959      2553      2618       955       957      2552
 -1      2779    6    0    1
 -2       133       397       588       132      1592      2832      2271       740      1589      3366
 -1      2780    6    0    1
 -2       380       388       370       520      1523      1561      1512      3232      3537      3233
 -1      2781    6    0    1
 -2       346       163       341       606      1296      1278      1297      3081      3519      3304
 -1      2782    6    0    1
 -2       285        86       469       286      1033      3189      3121       993      1036      3221
 -1      2783    6    0    1
 -2       119       310       118        30      1135      1149       724      1450      3240      1448
 -1      2784    6    0    1
 -2       267       292       559       576      1050      2703      2762      2892      3322      2733
 -1      2785    6    0    1
 -2       593       534       533       532      3226      3378      3489      3426      2691      3374
 -1      2786    6    0    1
 -2       584       138       402       594      3518      1625      2275      2815      3380      2816
 -1      2787    6    0    1
 -2       138       401       402       594      1622      1607      1625      3380      3379      2816
 -1      2788    6    0    1
 -2       425       449       552       451      1873      3038      3064      1877      1894      3040
 -1      2789    6    0    1
 -2       601       609       545       266      3526      3351      3191      2505      2974      2257
 -1      2790    6    0    1
 -2       565       571       563       347      3497      3087      2950      3508      2914      3088
 -1      2791    6    0    1
 -2       609       608       545       518      3349      3350      3351      2472      3404      2258
 -1      2792    6    0    1
 -2       328       522       541       334      3440      2323      3369      1240      2324      2325
 -1      2793    6    0    1
 -2       240        53       278       464      1705       970      2957      1940      2560      2671
 -1      2794    6    0    1
 -2       240       464       278       490      1940      2671      2957      2044      2043      2584
 -1      2795    6    0    1
 -2       603       354       610       571      3300      2202      3017      3384      3292      3176
 -1      2796    6    0    1
 -2       565       571       347       567      3497      2914      3508      2905      2523      3471
 -1      2797    6    0    1
 -2       603       607       571       610      3251      2351      3384      3017      2537      3176
 -1      2798    6    0    1
 -2       141       379       142       328      1491      1490       750      1209      3447      1210
 -1      2799    6    0    1
 -2       612       227       436       484      3538      1810      3388      2979      2022      3389
 -1      2800    6    0    1
 -2       560       451       454       456      3301      1921      2490      2488      1919      1923
 -1      2801    6    0    1
 -2       386       544       389       382      2951      2720      1572      1570      3167      1571
 -1      2802    6    0    1
 -2       548       408       547       223      2796      3258      3375      2284      1648      2570
 -1      2803    6    0    1
 -2       141         5       368       322       749      1424      1423      1188      1187      3428
 -1      2804    6    0    1
 -2       612       227       484       457      3538      2022      2979      3415      1925      2121
 -1      2805    6    0    1
 -2       372       394       395       518      1537      1579      1565      2235      2643      2644
 -1      2806    6    0    1
 -2       402       139       585       403      1624      2279      2278      1610      1627      3361
 -1      2807    6    0    1
 -2       611       550       516       607      2239      3029      3118      2241      2237      3028
 -1      2808    6    0    1
 -2        83       467       195       194      2450      2010      1386      1387      2009       807
 -1      2809    6    0    1
 -2       181       273        72        73      2617      1009      1361      1364      1008       674
 -1      2810    6    0    1
 -2       601       569       604       570      2873      3215      3190      2508      2774      3264
 -1      2811    6    0    1
 -2       306       115       116         1      1144       721      1146      3113      1443      1445
 -1      2812    6    0    1
 -2       549       548       547       223      2280      3375      2345      2282      2284      2570
 -1      2813    6    0    1
 -2       541       328       334       323      3369      1240      2325      2302      1217      1241
 -1      2814    6    0    1
 -2       585       214       215       525      3360       831      3359      3472      3411      3460
 -1      2815    6    0    1
 -2       599       138       594       137      3419      3380      2931      2285       745      3367
 -1      2816    6    0    1
 -2       295       525        90       374      2844      2952      1061      2845      2846      1466
 -1      2817    6    0    1
 -2       576       557       533       527      3321      2853      2736      3517      3480      3272
 -1      2818    6    0    1
 -2       583       591       592       521      3532      3466      3277      3285      3539      3364
 -1      2819    6    0    1
 -2       317       318       535       136      1176      3469      3403      1172      1174      3445
 -1      2820    6    0    1
 -2       533       512       534       513      3136      2689      3378      2740      3025      2999
 -1      2821    6    0    1
 -2       557       559       561       552      2610      2987      2852      2608      2609      3247
 -1      2822    6    0    1
 -2       267         2       514        40       938      2181      2180       937       640      2473
 -1      2823    6    0    1
 -2       530       516       592       521      2964      2684      3454      2707      2783      3364
 -1      2824    6    0    1
 -2       342       550       353       343      2326      3313      1328      1291      2882      1329
 -1      2825    6    0    1
 -2       342       550       343       366      2326      2882      1291      2328      2327      2874
 -1      2826    6    0    1
 -2       582       578       533       593      3268      3270      3269      3386      3385      3489
 -1      2827    6    0    1
 -2       252        62       470       253      1801      3536      1952       872      1815      1951
 -1      2828    6    0    1
 -2       252       287       470        62      3117      3185      1952      1801       995      3536
 -1      2829    6    0    1
 -2       385       375       531       528      1516      3046      3048      3405      3341      3336
 -1      2830    6    0    1
 -2       549       222       476       223      2571      1967      2281      2282       841      1968
 -1      2831    6    0    1
 -2       376       372       392       514      1499      1540      1539      2179      3398      2840
 -1      2832    6    0    1
 -2       543       571       563       566      2350      3087      2396      2314      3498      2487
 -1      2833    6    0    1
 -2       512       577       531       580      2421      3335      2901      2424      2422      3390
 -1      2834    6    0    1
 -2       340       354       603       571      1331      3300      3402      2915      3292      3384
 -1      2835    6    0    1
 -2       372       395       392       514      1565      1558      1540      3398      2930      2840
 -1      2836    6    0    1
 -2       544       611       366       394      2242      2875      2330      2718      2640      1544
 -1      2837    6    0    1
 -2       342       166       365       167      1317      3169      3392      1290      1282      1410
 -1      2838    6    0    1
 -2       537       521       520       388      3274      3297      3298      2557      3494      3537
 -1      2839    6    0    1
 -2       599       138       137       319      3419       745      2285      2286      1178      1177
 -1      2840    6    0    1
 -2       598       584       138       139      2757      3518      3406      3528      2277       746
 -1      2841    6    0    1
 -2       288       287        62       470       999       995       997      3534      3185      3536
 -1      2842    6    0    1
 -2       534       561       535       533      3377      2939      3486      3378      2855      3487
 -1      2843    6    0    1
 -2       540       560       591       530      3110      3455      3107      2444      2977      2835
 -1      2844    6    0    1
 -2       288       502        88       470      2562      2391      1040      3534      2124      3535
 -1      2845    6    0    1
 -2       395       516       396       392      2883      2781      1554      1558      3112      1559
 -1      2846    6    0    1
 -2       532       576       577       580      3540      3516      2423      2426      2735      2422
 -1      2847    6    0    1
 -2       267       580       514       531      2761      3090      2180      3424      3390      2843
 -1      2848    6    0    1
 -2       570       433       568       455      2715      2717      2714      3156      1906      2983
 -1      2849    6    0    1
 -2       430       431       371       131      1766      3018      3036      1763      1764      3020
 -1      2850    6    0    1
 -2       337       423       154       338      2161      1742      1266      1269      3187      1267
 -1      2851    6    0    1
 -2       598       522       523       600      2419      2822      2759      2755      3396      2756
 -1      2852    6    0    1
 -2       377       509       482       202      3216      2142      2704      1480      1254      2086
 -1      2853    6    0    1
 -2       528       385       523       531      3405      3284      3198      3336      3048      2903
 -1      2854    6    0    1
 -2       572       291       555       434      3097      3501      3007      2600      2723      3308
 -1      2855    6    0    1
 -2       479       207       554       208      1981      2480      2831      1980       824      2745
 -1      2856    6    0    1
 -2       566       455       432       570      3155      1905      2728      2928      3156      2539
 -1      2857    6    0    1
 -2       555       527       587       557      2909      2908      2699      3246      3480      2804
 -1      2858    6    0    1
 -2       209       575       210       587      2694      3465       826      2697      2695      3507
 -1      2859    6    0    1
 -2       596       134       316       597      3070      1168      3287      3058      3141      3145
 -1      2860    6    0    1
 -2       333       329       583       323      1258      2209      2173      1246      1235      2175
 -1      2861    6    0    1
 -2        20       258       257       303       888       890       886      2663      2187      2664
 -1      2862    6    0    1
 -2        23        10       260        22      1806      2623       895       620      1793       894
 -1      2863    6    0    1
 -2       119        31       303       257      1452      3294      1108      3140       913      2664
 -1      2864    6    0    1
 -2       302       306        17        18      1131      3071      2817      2387      3084       876
 -1      2865    6    0    1
 -2       408       164       165       544      1654       775      1655      3093      3393      2922
 -1      2866    6    0    1
 -2       306       302       101        18      1131      1096      1119      3084      2387      1782
 -1      2867    6    0    1
 -2       342       346       544       164      1303      3082      2329      1281      1298      3393
 -1      2868    6    0    1
 -2       520       327       324       538      3152      1237      2332      3057      2274      2170
 -1      2869    6    0    1
 -2       397       420       588       132      2848      2851      2832      1589      3327      3366
 -1      2870    6    0    1
 -2       582       581       527       578      2862      3505      3151      3268      3129      3271
 -1      2871    6    0    1
 -2       502       201        88       470      2114      1478      2391      2124      2016      3535
 -1      2872    6    0    1
 -2       556       419       554       442      2800      2482      2675      3014      1848      3310
 -1      2873    6    0    1
 -2       345       344       349       539      1341      1311      1339      3414      2776      2599
 -1      2874    6    0    1
 -2       497       288       470       502      2377      3534      2117      2136      2562      2124
 -1      2875    6    0    1
 -2       483       458       484       294      2143      2020      2144      2385      2219      2416
 -1      2876    6    0    1
 -2        93       298       262        92      1087      3228      3065      1078      1084      2579
 -1      2877    6    0    1
 -2       263        25        26        95       903       623       904      2504      1771      1772
 -1      2878    6    0    1
 -2       306       302        17        29      1131      2817      3071      3114      2590       877
 -1      2879    6    0    1
 -2       526       581       527       582      2529      3505      3150      3149      2862      3151
 -1      2880    6    0    1
 -2        38       111        37       264      1439      1436       636       927      3237       928
 -1      2881    6    0    1
 -2       264        27        96        26       907      1774      3320       906       624      1773
 -1      2882    6    0    1
 -2       103       102       305        19       707      1114      1116      1785      1784      2613
 -1      2883    6    0    1
 -2       431        10         4       260      1809       696      3235      3212      2623      2622
 -1      2884    6    0    1
 -2       419       207        15       206      2479       823      1734      1735      1587       821
 -1      2885    6    0    1
 -2        80       280       465       279      1024      3207      3400      1021       976      2701
 -1      2886    6    0    1
 -2       434       416       443       554      1881      1852      1871      2829      2483      3311
 -1      2887    6    0    1
 -2       419       416       554       443      1819      2483      2482      1853      1852      3311
 -1      2888    6    0    1
 -2       263       299       264        37      2502      3238       908       925      2496       928
 -1      2889    6    0    1
 -2       280        54       465       279       974      3325      3207       976       973      2701
 -1      2890    6    0    1
 -2       609       529       519       514      2464      2466      2468      2475      2993      3106
 -1      2891    6    0    1
 -2       570       567       568       569      3491      2907      2714      2774      2368      2773
 -1      2892    6    0    1
 -2        40       518         2       514      2470      2234       640      2473      2471      2181
 -1      2893    6    0    1
 -2       313       381       145       146      3525      1495      1199      1200      1494       754
 -1      2894    6    0    1
 -2       372         2       514       376      1458      2181      3398      1499      1470      2179
 -1      2895    6    0    1
 -2       273       233        48       487      2973      1693       955      2618      2033      2552
 -1      2896    6    0    1
 -2       609       529       514        40      2464      2993      2475      2474      2459      2473
 -1      2897    6    0    1
 -2       150       563       339       421      2625      2948      1289      1738      2626      2947
 -1      2898    6    0    1
 -2        78       277       278       490      1018       971      1020      2310      2307      2584
 -1      2899    6    0    1
 -2       609       529        40       570      2464      2459      2474      2467      2465      2511
 -1      2900    6    0    1
 -2       532       576       580       533      3540      2735      2426      3374      2736      2734
 -1      2901    6    0    1
 -2        53       464       279       278      2560      2561       972       970      2671      1044
 -1      2902    6    0    1
 -2       409       166       204       362      1660      1656      1657      3408      3170      1403
 -1      2903    6    0    1
 -2       548       549       506       476      2280      3444      2550      2283      2281      2133
 -1      2904    6    0    1
 -2       501       581       212       481      2565      2567      2084      2119      2946      1984
 -1      2905    6    0    1
 -2       408       544       546       547      3093      3423      2797      3258      3527      3376
 -1      2906    6    0    1
 -2       507       572       480       508      3248      3520      1614      1612      3089      1613
 -1      2907    6    0    1
 -2       489       276        51       237      2586       964      3530      2041      3422      1700
 -1      2908    6    0    1
 -2       247        57       283        58      1716       983      2972      1717       658       984
 -1      2909    6    0    1
 -2       276       489        51       277      2586      3530       964       968      2587       966
 -1      2910    6    0    1
 -2       572       500       480       508      3008      2018      3520      3089      2017      1613
 -1      2911    6    0    1
 -2       575       572       555       480      2942      3007      2696      2319      3520      3296
 -1      2912    6    0    1
 -2       489       463        51       277      2039      3531      3530      2587      2309       966
 -1      2913    6    0    1
 -2       178       179       459       271       791      1994      1993      2399      2400      2151
 -1      2914    6    0    1
 -2        53       240       278        52      1705      2957       970       653      1704       969
 -1      2915    6    0    1
 -2       572       500       555       480      3008      3006      3007      3520      2018      3296
 -1      2916    6    0    1
 -2       572       509       508       504      2220      1214      3089      2216      1213      1212
 -1      2917    6    0    1
 -2       532       576       533       527      3540      2736      3374      3148      3517      3272
 -1      2918    6    0    1
 -2       471       572       497       508      2602      2379      2122      2139      3089      2140
 -1      2919    6    0    1
 -2       380       521       388       520      3339      3494      1523      3232      3297      3537
 -1      2920    6    0    1
 -2       424       155       338       172      1745      1268      3173      3111      1270      1295
 -1      2921    6    0    1
 -2       540       439       538       517      2794      3165      3052      3051      2893      2183
 -1      2922    6    0    1
 -2       287        61        62       252       994       662       995      3117      1725      1801
 -1      2923    6    0    1
 -2       463       277       239        51      2309      3541      1937      3531       966      1702
 -1      2924    6    0    1
 -2       383       363       525       585      1505      3195      3000      2373      3474      3472
 -1      2925    6    0    1
 -2       280        80       191        81      1024      1379      3209      1023       682      1382
 -1      2926    6    0    1
 -2       609       570       602       519      2467      3263      3261      2468      2469      2313
 -1      2927    6    0    1
 -2       352       606       341       603      2635      3304      1320      3016      3015      3307
 -1      2928    6    0    1
 -2       577       586       525       526      3476      3412      3500      3478      3477      2527
 -1      2929    6    0    1
 -2       209       587       210       398      2697      3507       826      1594      3452      1595
 -1      2930    6    0    1
 -2        65       292       559       267      1049      2703      2890       940      1050      2762
 -1      2931    6    0    1
 -2       586       214       402       585      3410      1606      2814      3239      3360      2278
 -1      2932    6    0    1
 -2       200       201       470        88       813      2016      2015      1462      1478      3535
 -1      2933    6    0    1
 -2       387       390       536       392      1573      3416      3126      1578      1575      2839
 -1      2934    6    0    1
 -2       267       375       293       577      3437      2953      1052      3490      3430      3499
 -1      2935    6    0    1
 -2       295       526       524       296      2857      2531      2667      1073      3433      2478
 -1      2936    6    0    1
 -2       327       427       126       312      2763      1752      1206      1215      2185      1155
 -1      2937    6    0    1
 -2       572       497       508       502      2379      2140      3089      2563      2136      2148
 -1      2938    6    0    1
 -2       581       578       211       575      3129      3002      3130      2945      3464      3266
 -1      2939    6    0    1
 -2       159       339       347       565      1274      1304      1300      3495      2949      3508
 -1      2940    6    0    1
 -2       576       557       527       292      3321      3480      3517      3322      2702      3521
 -1      2941    6    0    1
 -2       288       359        88       502      3030      1463      1040      2562      2390      2391
 -1      2942    6    0    1
 -2       184       275       183        75      2968      3162       796      1367      1012      1368
 -1      2943    6    0    1
 -2       585       586       528       584      3239      3139      3267      2276      2812      3138
 -1      2944    6    0    1
 -2       328       379       541       522      3447      3496      3369      3440      3493      2323
 -1      2945    6    0    1
 -2       583       591       521       590      3532      3539      3285      3033      3109      3529
 -1      2946    6    0    1
 -2       391       375       385       528      1549      1516      1550      3342      3341      3405
 -1      2947    6    0    1
 -2       388       537       370       520      2557      2558      1561      3537      3298      3233
 -1      2948    6    0    1
 -2       596       562       316       315      3060      3210      3287      2549      2751      1170
 -1      2949    6    0    1
 -2       251       496        61       286      2069      3116      1724      3220      3483       992
 -1      2950    6    0    1
 -2       207       416       255       479      2481      1728      1955      1981      2830      2019
 -1      2951    6    0    1
 -2       555       500       479       208      3006      2090      3317      2741      2081      1980
 -1      2952    6    0    1
 -2       181       182       487        73       794      2034      2095      1364      1363      3069
 -1      2953    6    0    1
 -2       519       453       543       574      2573      2394      2312      2575      2574      3448
 -1      2954    6    0    1
 -2       401       586       594       582      3119      2813      3379      3120      2861      3425
 -1      2955    6    0    1
 -2       497       288       415       470      2377      2376      2380      2117      3534      3533
 -1      2956    6    0    1
 -2       150       563       335       339      2625      3086      1260      1289      2948      1292
 -1      2957    6    0    1
 -2       571       336       351       610      3175      1323      2916      3176      2918      2917
 -1      2958    6    0    1
 -2       496       287        61       286      3076       994      3116      3483       996       992
 -1      2959    6    0    1
 -2       284       468       285        85      2674      2412      1045      1031      3231      1034
 -1      2960    6    0    1
 -2        60       285       469       286       990      3121      2760       991       993      3221
 -1      2961    6    0    1
 -2       514       592       530       516      2688      3454      2992      2685      2684      2964
 -1      2962    6    0    1
 -2       222       547       412       223      2569      3257      1673       841      2570      1672
 -1      2963    6    0    1
 -2       496       251       469       286      2069      1949      2112      3483      3220      3221
 -1      2964    6    0    1
 -2       287       200       470        88      3077      2015      3185      1037      1462      3535
 -1      2965    6    0    1
 -2       309        39       114       301      2427      1441      1130      1127      2176      1104
 -1      2966    6    0    1
 -2       289       548       546       547      3449      2247      3159      2341      3375      3376
 -1      2967    6    0    1
 -2       159       567       160       411      3470      2524       770      1675      2367      1666
 -1      2968    6    0    1
 -2       609       608       518       607      3349      3404      2472      3372      2926      3323
 -1      2969    6    0    1
 -2       288        62       415       470       997      1838      2376      3534      3536      3533
 -1      2970    6    0    1
 -2       539       345       610       349      3414      3066      2535      2599      1339      2880
 -1      2971    6    0    1
 -2       544       408       608       547      3093      2769      2924      3527      3258      3259
 -1      2972    6    0    1
 -2       384        67       546        66      1510      3160      3021      1514       668      2637
 -1      2973    6    0    1
 -2       572       575       527       581      2942      2910      3503      2943      2945      3505
 -1      2974    6    0    1
 -2       447       540       537       539      2447      3205      3206      2445      2446      2790
 -1      2975    6    0    1
 -2       543       516       530       539      2965      2964      2433      2432      2886      2434
 -1      2976    6    0    1
 -2        31       119       303       120      1452      1108      3294      1451       725      1109
 -1      2977    6    0    1
 -2       277       490       239        52      2307      2045      3541       967      2585      1703
 -1      2978    6    0    1
 -2       314       123       425       426      1244      1747      2454      3446      1748      1750
 -1      2979    6    0    1
 -2       383       595       205       585      2371      2199      1504      2373      2200      2198
 -1      2980    6    0    1
 -2       320       598       138       139      2784      3406      1180      1181      3528       746
 -1      2981    6    0    1
 -2       535       561       553       533      2939      2854      3344      3487      2855      2856
 -1      2982    6    0    1
 -2       428       438       447       537      1867      1888      1890      2645      2160      3206
 -1      2983    6    0    1
 -2       295       359       288       524      3316      3030      1076      2667      3315      2476
 -1      2984    6    0    1
 -2       104        20       303       105      1787      2663      1098       709      1788      1097
 -1      2985    6    0    1
 -2       296       526       527       293      3433      3150      3504      1072      3434      3510
 -1      2986    6    0    1
 -2       542       333       334       319      2389      1234      2322      2402      1230      1232
 -1      2987    6    0    1
 -2       540       521       537       539      2708      3274      3205      2446      2706      2790
 -1      2988    6    0    1
 -2       390       387       536       522      1573      3126      3416      3509      2818      3053
 -1      2989    6    0    1
 -2       519       516       514       530      2963      2685      3106      2785      2964      2992
 -1      2990    6    0    1
 -2       423       589       381       537      3328      3330      2582      2163      3324      2583
 -1      2991    6    0    1
 -2       289       549       268       294      2342      2449      1070      1065      2989      1068
 -1      2992    6    0    1
 -2        51       277       239        52       966      3541      1702       652       967      1703
 -1      2993    6    0    1
 -2       603       607       610       606      3251      2537      3017      3015      2925      2636
 -1      2994    6    0    1
 -2       566       455       450       432      3155      1907      3180      2728      1905      1908
 -1      2995    6    0    1
 -2       532       512       528       523      2425      2878      2879      2693      2690      3198
 -1      2996    6    0    1
 -2        65       435         8       559      1805      1804       666      2890      3345      3514
 -1      2997    6    0    1
 -2       423       589       537       428      3328      3324      2163      1866      3124      2645
 -1      2998    6    0    1
 -2       307        38       300       264      3397      2748      1125      2437       927      2438
 -1      2999    6    0    1
 -2       553       596       552       561      2169      2167      2168      2854      3059      3247
 -1      3000    6    0    1
 -2       425       123       132        11      1747      1152      2913      1746       729       739
 -1      3001    6    0    1
 -2        20       258       303       105       888      2187      2663      1788      2791      1097
 -1      3002    6    0    1
 -2       572       291       415       288      3097      2724      2378      2375      1063      2376
 -1      3003    6    0    1
 -2       150       563       437       335      2625      2627      1824      1260      3086      3096
 -1      3004    6    0    1
 -2       322       600       321       140      2592      3306      1189      1186      2594      1184
 -1      3005    6    0    1
 -2        35         3       261        92      1432      2668       921      2578       695      2580
 -1      3006    6    0    1
 -2       481       524       581       572      2212      2530      2946      2215      2213      2943
 -1      3007    6    0    1
 -2       581       525       586       526      2526      3412      2860      2529      2527      3477
 -1      3008    6    0    1
 -2       599       579       535       534      3417      2938      3512      2934      2997      3486
 -1      3009    6    0    1
 -2       578       212       582       581      3128      2859      3268      3129      2567      2862
 -1      3010    6    0    1
 -2       586       214       585       525      3410      3360      3239      3412      3411      3472
 -1      3011    6    0    1
 -2       334       600       328       522      3395      3305      1240      2324      3396      3440
 -1      3012    6    0    1
 -2       593       135       136       399      2823       743      2254      2253      1619      1618
 -1      3013    6    0    1
 -2       553       398       135       399      3431      1616      2824      2826      1598      1619
 -1      3014    6    0    1
 -2       486        46       271       272      2544       949      2149      2633       951       953
 -1      3015    6    0    1
 -2       209       587       398       404      2697      3452      1594      1633      3450      1634
 -1      3016    6    0    1
 -2       586       532       582       526      3197      3147      2861      3477      3146      3149
 -1      3017    6    0    1
 -2       581       586       582       526      2860      2861      2862      2529      3477      3149
 -1      3018    6    0    1
 -2       556       420       552       588      2849      3326      3523      2850      2851      2164
 -1      3019    6    0    1
 -2       232       460        47       272      1932      2519      1691      2632      2919       952
 -1      3020    6    0    1
 -2       472       218       564       498      1956      2337      2646      2074      2073      2518
 -1      3021    6    0    1
 -2       431         9       261        92      1765      3391      3211      3019       694      2580
 -1      3022    6    0    1
 -2       132       552       588       596      3063      2164      3366      2666      2167      2165
 -1      3023    6    0    1
 -2       543       571       422       563      2350      3177      2395      2396      3087      2398
 -1      3024    6    0    1
 -2       397       208       404       588      1593      1631      1630      2832      2744      2272
 -1      3025    6    0    1
 -2       562       597       579       561      3044      2940      3045      3061      2941      2292
 -1      3026    6    0    1
 -2       396       516       378       539      2781      2884      1555      2887      2886      2596
 -1      3027    6    0    1
 -2       407       410       162       604      1662      1661      1652      3290      3254      2660
 -1      3028    6    0    1
 -2       137       593       136       400      3368      2254       744      1620      2255      1621
 -1      3029    6    0    1
 -2       337       438       153       423      2159      1825      1265      2161      1850      1743
 -1      3030    6    0    1
 -2       257       256       305        30       887      2612      2656       914       883      3241
 -1      3031    6    0    1
 -2       593       578       553       399      3385      3282      2825      2253      3004      2826
 -1      3032    6    0    1
 -2       582       401       212       400      3120      1602      2859      3387      1604      1600
 -1      3033    6    0    1
 -2        35        34       261         3       633       922       921      1432      1472      2668
 -1      3034    6    0    1
 -2       136       599       318       535      3542      2287      1174      3445      3512      3469
 -1      3035    6    0    1
 -2       603       348       162       341      3299      1301      2661      3307      1305      1279
 -1      3036    6    0    1
 -2       136       599       535       593      3542      3512      3445      2254      3225      3488
 -1      3037    6    0    1
 -2       532       576       527       577      3540      3517      3148      2423      3516      3511
 -1      3038    6    0    1
 -2       482       213       524       525      1987      3275      3462      3459      3413      2528
 -1      3039    6    0    1
 -2       292       267       293       576      1050      1052      1055      3322      2892      3515
 -1      3040    6    0    1
 -2       573       454       560       552      3333      2490      3456      3401      3039      2866
 -1      3041    6    0    1
 -2        31       119        30       257      1452      1450       629       913      3140       914
 -1      3042    6    0    1
 -2       277       463       239       490      2309      1937      3541      2307      2100      2045
 -1      3043    6    0    1
 -2       487       461       234        48      2031      1934      2032      2552      2551      1694
 -1      3044    6    0    1
 -2       431       430       371       157      1766      3036      3018      1830      1828      3234
 -1      3045    6    0    1
 -2       388       521       396       539      3494      2782      1577      2891      2706      2887
 -1      3046    6    0    1
 -2        23         9       261       431      1807      3391       897      1808      1765      3211
 -1      3047    6    0    1
 -2       328       522       368       379      3440      2820      3439      3447      3493      1507
 -1      3048    6    0    1
 -2       258       121       304       259      2991      1150      2189       893      2967      3037
 -1      3049    6    0    1
 -2       583       591       590       579      3532      3109      3033      3276      2290      3356
 -1      3050    6    0    1
 -2       590       540       591       521      3049      3107      3109      3529      2708      3539
 -1      3051    6    0    1
 -2       310       104       103        19      1133       708      1134      2655      1786      1785
 -1      3052    6    0    1
 -2       591       530       592       521      2835      3454      3466      3539      2707      3364
 -1      3053    6    0    1
 -2       591       540       530       521      3107      2444      2835      3539      2708      2707
 -1      3054    6    0    1
 -2        93         9        92        24       697       694      1078      1768      1767      2988
 -1      3055    6    0    1
 -2       534       593       535       599      3226      3488      3486      2934      3225      3512
 -1      3056    6    0    1
 -2       299       264        96        26      3238      3320      1089      2503       906      1773
 -1      3057    6    0    1
 -2       136       599       593       137      3542      3225      2254       744      2285      3368
 -1      3058    6    0    1
 -2        13       215       360       363       832      3054      1399      1406      2420      1482
 -1      3059    6    0    1
 -2        69       177       176       458      1354       789      1355      3484      1992      1991
 -1      3060    6    0    1
 -2       612       227       457       414      3538      1925      3415      3227      1684      3420
 -1      3061    6    0    1
 -2       161       603       348       162      2662      3299      1302       772      2661      1301
 -1      3062    6    0    1
 -2       306        17        18         7      3071       876      3084      2440       613       615
 -1      3063    6    0    1
 -2       136       599       137       318      3542      2285       744      1174      2287      1175
 -1      3064    6    0    1
 -2       458       269       484       294      2218      2415      2020      2219      1059      2416
 -1      3065    6    0    1
 -2       397       420       132       206      2848      3327      1589      1590      1736      1588
 -1      3066    6    0    1
 -2       486       460       272       180      2027      2919      2633      2030      1995      3083
 -1      3067    6    0    1
 -2        20       258       105        21       888      2791      1788       618       889      1789
 -1      3068    6    0    1
 -2       602       608       603       604      3249      3250      2229      2230      3256      2233
 -1      3069    6    0    1
 -2       612       227       414       436      3538      1684      3227      3388      1810      1812
 -1      3070    6    0    1
 -2       406       410       604       161      1669      3254      2628      1651      1676      2629
 -1      3071    6    0    1
 -2       359       509       202       502      3217      1254      1397      2390      1253      1255
 -1      3072    6    0    1
 -2       567       160       406       161      2524      1650      2365      2525       771      1651
 -1      3073    6    0    1
 -2       292       576       293       527      3322      3515      1055      3521      3517      3510
 -1      3074    6    0    1
 -2       311       551       456       426      2193      2191      2190      3418      3370      1920
 -1      3075    6    0    1
 -2       538       428       589       327      2765      3124      3154      2274      2764      3125
 -1      3076    6    0    1
 -2       406       567       604       569      2365      2232      2628      2366      2368      3215
 -1      3077    6    0    1
 -2       284       196       494       468      3230      2062      2205      2674      2011      2059
 -1      3078    6    0    1
 -2         4       259        33       260      2555       917      1456      2622       896       920
 -1      3079    6    0    1
 -2       493       193       282       466      2107      2532      2533      2106      2008      3319
 -1      3080    6    0    1
 -2       602       608       604       609      3249      3256      2230      3261      3349      3262
 -1      3081    6    0    1
 -2       413        16       217       417      1681       835      3353      1820      1731      2360
 -1      3082    6    0    1
 -2       123       124       426       311       730      1749      1748      1154      1153      3418
 -1      3083    6    0    1
 -2       537       344       345       539      2789      1341      2713      2790      2776      3414
 -1      3084    6    0    1
 -2       276        50       462       275       963      3421      2542       965       961      2969
 -1      3085    6    0    1
 -2       439       456       517       560      1915      2192      2893      2489      2488      3318
 -1      3086    6    0    1
 -2       183        75       275        74      1368      1012      3162      1365       676      1013
 -1      3087    6    0    1
 -2       544       518       389       545      2719      2296      2720      3461      2258      2295
 -1      3088    6    0    1
 -2       602       608       609       607      3249      3349      3261      2347      2926      3372
 -1      3089    6    0    1
 -2       183       461       275       488      1998      3213      3162      2097      2096      2970
 -1      3090    6    0    1
 -2       420        11       132       206      1737       739      3327      1736       822      1588
 -1      3091    6    0    1
 -2       420       425       132        11      1821      2913      3327      1737      1746       739
 -1      3092    6    0    1
 -2       266       609       545       518      2974      3351      2257      2256      2472      2258
 -3
    1PSTEP                         1           1           1          
  100CL  101 1.000000000        3542                     0    1           1
 -4  DISP        4    1
 -5  D1          1    2    1    0
 -5  D2          1    2    2    0
 -5  D3          1    2    3    0
 -5  ALL         1    2    0    0    1ALL
 -1         1 6.40620E-06-3.45245E-08 1.68462E-07
 -1         2 0.00000E+00 0.00000E+00 0.00000E+00
 -1         3 2.03456E-06-1.64761E-07-1.40815E-07
 -1         4 1.99809E-06 1.18941E-07-1.34263E-07
 -1         5 1.45517E-07 4.46246E-08-5.35135E-08
 -1         6 1.45678E-07-4.46329E-08-5.34826E-08
 -1         7 6.42461E-06-1.83658E-08-9.34383E-08
 -1         8 0.00000E+00 0.00000E+00 0.00000E+00
 -1         9 2.03807E-06-1.61562E-07 1.41011E-07
 -1        10 2.03870E-06 1.50647E-07 1.49650E-07
 -1        11 1.46120E-07 4.43631E-08 5.40961E-08
 -1        12 1.45823E-07-4.45784E-08 5.38254E-08
 -1        13 5.02482E-08 3.58852E-08-2.81537E-08
 -1        14 5.02141E-08-3.58918E-08-2.83411E-08
 -1        15 5.05015E-08 3.58436E-08 2.85377E-08
 -1        16 5.05383E-08-3.58719E-08 2.84868E-08
 -1        17 6.29934E-06-2.80747E-08 3.86437E-08
 -1        18 5.93989E-06-5.87906E-07-3.51986E-08
 -1        19 4.99718E-06-1.53397E-06 1.11212E-07
 -1        20 4.25307E-06-2.23172E-06 2.18203E-07
 -1        21 3.40503E-06-1.87131E-06 1.71519E-07
 -1        22 2.07752E-06-7.67178E-07-2.73439E-08
 -1        23 1.57968E-06-7.12196E-09-1.20066E-07
 -1        24 2.12076E-06 7.93115E-07-2.39378E-08
 -1        25 3.40532E-06 1.85741E-06 1.53405E-07
 -1        26 4.25000E-06 2.20256E-06 1.90253E-07
 -1        27 4.99203E-06 1.48931E-06 8.40493E-08
 -1        28 5.95316E-06 5.33869E-07-4.80400E-08
 -1        29 5.93073E-06-5.92868E-07 1.22492E-07
 -1        30 4.97735E-06-1.54699E-06-2.73869E-08
 -1        31 4.24201E-06-2.24077E-06-1.49640E-07
 -1        32 3.37306E-06-1.87804E-06-1.26335E-07
 -1        33 2.05616E-06-7.65245E-07 5.04097E-08
 -1        34 1.58187E-06-1.17937E-08 1.22264E-07
 -1        35 2.11971E-06 7.82994E-07 2.71731E-08
 -1        36 3.39713E-06 1.84411E-06-1.46845E-07
 -1        37 4.23790E-06 2.18698E-06-1.74051E-07
 -1        38 4.98850E-06 1.45983E-06-4.83294E-08
 -1        39 5.93684E-06 5.16347E-07 1.04788E-07
 -1        40 0.00000E+00 0.00000E+00 0.00000E+00
 -1        41 0.00000E+00 0.00000E+00 0.00000E+00
 -1        42 0.00000E+00 0.00000E+00 0.00000E+00
 -1        43 0.00000E+00 0.00000E+00 0.00000E+00
 -1        44 0.00000E+00 0.00000E+00 0.00000E+00
 -1        45 0.00000E+00 0.00000E+00 0.00000E+00
 -1        46 0.00000E+00 0.00000E+00 0.00000E+00
 -1        47 0.00000E+00 0.00000E+00 0.00000E+00
 -1        48 0.00000E+00 0.00000E+00 0.00000E+00
 -1        49 0.00000E+00 0.00000E+00 0.00000E+00
 -1        50 0.00000E+00 0.00000E+00 0.00000E+00
 -1        51 0.00000E+00 0.00000E+00 0.00000E+00
 -1        52 0.00000E+00 0.00000E+00 0.00000E+00
 -1        53 0.00000E+00 0.00000E+00 0.00000E+00
 -1        54 0.00000E+00 0.00000E+00 0.00000E+00
 -1        55 0.00000E+00 0.00000E+00 0.00000E+00
 -1        56 0.00000E+00 0.00000E+00 0.00000E+00
 -1        57 0.00000E+00 0.00000E+00 0.00000E+00
 -1        58 0.00000E+00 0.00000E+00 0.00000E+00
 -1        59 0.00000E+00 0.00000E+00 0.00000E+00
 -1        60 0.00000E+00 0.00000E+00 0.00000E+00
 -1        61 0.00000E+00 0.00000E+00 0.00000E+00
 -1        62 0.00000E+00 0.00000E+00 0.00000E+00
 -1        63 0.00000E+00 0.00000E+00 0.00000E+00
 -1        64 0.00000E+00 0.00000E+00 0.00000E+00
 -1        65 0.00000E+00 0.00000E+00 0.00000E+00
 -1        66 0.00000E+00 0.00000E+00 0.00000E+00
 -1        67 0.00000E+00 0.00000E+00 0.00000E+00
 -1        68 0.00000E+00 0.00000E+00 0.00000E+00
 -1        69 0.00000E+00 0.00000E+00 0.00000E+00
 -1        70 0.00000E+00 0.00000E+00 0.00000E+00
 -1        71 0.00000E+00 0.00000E+00 0.00000E+00
 -1        72 0.00000E+00 0.00000E+00 0.00000E+00
 -1        73 0.00000E+00 0.00000E+00 0.00000E+00
 -1        74 0.00000E+00 0.00000E+00 0.00000E+00
 -1        75 0.00000E+00 0.00000E+00 0.00000E+00
 -1        76 0.00000E+00 0.00000E+00 0.00000E+00
 -1        77 0.00000E+00 0.00000E+00 0.00000E+00
 -1        78 0.00000E+00 0.00000E+00 0.00000E+00
 -1        79 0.00000E+00 0.00000E+00 0.00000E+00
 -1        80 0.00000E+00 0.00000E+00 0.00000E+00
 -1        81 0.00000E+00 0.00000E+00 0.00000E+00
 -1        82 0.00000E+00 0.00000E+00 0.00000E+00
 -1        83 0.00000E+00 0.00000E+00 0.00000E+00
 -1        84 0.00000E+00 0.00000E+00 0.00000E+00
 -1        85 0.00000E+00 0.00000E+00 0.00000E+00
 -1        86 0.00000E+00 0.00000E+00 0.00000E+00
 -1        87 0.00000E+00 0.00000E+00 0.00000E+00
 -1        88 0.00000E+00 0.00000E+00 0.00000E+00
 -1        89 0.00000E+00 0.00000E+00 0.00000E+00
 -1        90 0.00000E+00 0.00000E+00 0.00000E+00
 -1        91 0.00000E+00 0.00000E+00 0.00000E+00
 -1        92 2.02979E-06-9.49545E-08 4.81538E-09
 -1        93 3.48588E-06 3.15974E-07 5.53449E-08
 -1        94 4.28981E-06 1.47220E-06-5.76280E-08
 -1        95 4.19265E-06 2.18209E-06-8.17463E-08
 -1        96 3.89384E-06 1.91466E-06-6.35392E-08
 -1        97 4.06621E-06 9.37813E-07-8.82537E-09
 -1        98 4.92949E-06 1.22854E-09 6.20149E-08
 -1        99 5.92362E-06-3.06202E-07 1.19370E-07
 -1       100 6.36762E-06-3.00276E-08 1.42429E-07
 -1       101 5.96073E-06 2.56376E-07 1.37097E-07
 -1       102 4.96455E-06-3.33230E-08 9.45344E-08
 -1       103 4.10849E-06-9.40221E-07 3.06754E-08
 -1       104 3.92260E-06-1.94197E-06-2.16896E-08
 -1       105 4.22134E-06-2.19886E-06-4.22974E-08
 -1       106 4.31592E-06-1.48173E-06-3.16621E-08
 -1       107 3.47087E-06-3.33005E-07 6.58520E-08
 -1       108 3.47994E-06 3.07343E-07-6.14119E-08
 -1       109 4.27884E-06 1.45902E-06 4.70953E-08
 -1       110 4.18051E-06 2.16760E-06 7.72488E-08
 -1       111 3.88017E-06 1.89827E-06 7.14333E-08
 -1       112 4.05248E-06 9.20395E-07 3.51951E-08
 -1       113 4.91419E-06-1.55277E-08-1.16487E-08
 -1       114 5.90741E-06-3.21992E-07-4.55664E-08
 -1       115 6.34918E-06-4.55444E-08-4.81296E-08
 -1       116 5.94113E-06 2.40948E-07-2.97669E-08
 -1       117 4.94477E-06-4.82772E-08 1.68897E-08
 -1       118 4.08925E-06-9.53319E-07 7.42322E-08
 -1       119 3.90250E-06-1.95400E-06 1.12557E-07
 -1       120 4.19077E-06-2.20879E-06 1.11187E-07
 -1       121 4.28767E-06-1.48675E-06 8.15617E-08
 -1       122 3.44116E-06-3.40218E-07-4.78542E-08
 -1       123 1.84201E-07 5.41554E-08 5.26283E-08
 -1       124 2.36157E-07 6.28093E-08 5.07034E-08
 -1       125 3.11657E-07 6.88001E-08 4.95659E-08
 -1       126 4.15422E-07 7.13073E-08 4.98120E-08
 -1       127 5.46389E-07 7.17052E-08 5.10049E-08
 -1       128 7.27783E-07 7.17262E-08 5.25956E-08
 -1       129 9.94105E-07 7.24804E-08 5.43213E-08
 -1       130 1.32279E-06 6.94399E-08 5.58704E-08
 -1       131 1.57879E-06-5.30855E-09 8.88581E-08
 -1       132 1.42028E-07 4.54990E-08 4.20745E-08
 -1       133 1.41526E-07 4.63350E-08 3.10217E-08
 -1       134 1.38823E-07 4.61909E-08 2.03965E-08
 -1       135 1.37898E-07 4.65073E-08 1.04942E-08
 -1       136 1.38227E-07 4.68755E-08 2.89190E-10
 -1       137 1.37954E-07 4.66730E-08-9.75274E-09
 -1       138 1.39018E-07 4.64297E-08-1.95866E-08
 -1       139 1.40645E-07 4.62131E-08-3.02927E-08
 -1       140 1.43106E-07 4.60659E-08-4.11881E-08
 -1       141 1.83645E-07 5.43049E-08-5.16439E-08
 -1       142 2.35881E-07 6.30667E-08-4.95279E-08
 -1       143 3.11323E-07 6.89410E-08-4.83349E-08
 -1       144 4.15105E-07 7.15298E-08-4.83208E-08
 -1       145 5.46057E-07 7.19136E-08-4.92761E-08
 -1       146 7.27442E-07 7.19045E-08-5.04219E-08
 -1       147 9.93324E-07 7.35563E-08-5.11034E-08
 -1       148 1.32198E-06 7.18122E-08-5.39328E-08
 -1       149 1.56636E-06-5.04588E-09-8.21153E-08
 -1       150 1.85224E-07-5.45684E-08 5.20531E-08
 -1       151 2.40401E-07-6.33996E-08 5.02765E-08
 -1       152 3.15712E-07-6.88220E-08 4.92514E-08
 -1       153 4.43798E-07-7.13066E-08 4.97279E-08
 -1       154 6.20630E-07-7.12685E-08 5.13964E-08
 -1       155 8.45911E-07-7.10390E-08 5.31836E-08
 -1       156 1.17180E-06-7.04924E-08 5.44611E-08
 -1       157 1.50992E-06-1.74316E-08 8.20095E-08
 -1       158 1.42659E-07-4.61136E-08 4.18935E-08
 -1       159 1.39328E-07-4.65709E-08 3.04251E-08
 -1       160 1.38748E-07-4.64602E-08 2.01735E-08
 -1       161 1.37038E-07-4.57290E-08 9.85708E-09
 -1       162 1.36147E-07-4.57805E-08 3.20252E-10
 -1       163 1.37827E-07-4.64221E-08-1.01855E-08
 -1       164 1.37407E-07-4.65757E-08-1.98892E-08
 -1       165 1.39517E-07-4.69953E-08-3.05368E-08
 -1       166 1.42279E-07-4.60900E-08-4.18000E-08
 -1       167 1.89484E-07-5.53660E-08-5.17169E-08
 -1       168 2.54318E-07-6.46927E-08-4.94149E-08
 -1       169 3.67026E-07-7.01967E-08-4.85168E-08
 -1       170 5.39638E-07-7.11774E-08-4.95374E-08
 -1       171 7.68268E-07-7.09471E-08-5.10446E-08
 -1       172 1.08706E-06-7.29746E-08-5.19751E-08
 -1       173 1.47924E-06-3.27986E-08-6.59640E-08
 -1       174 2.49081E-08-3.47184E-08-1.49095E-08
 -1       175 1.40619E-08-2.95875E-08-7.64385E-09
 -1       176 9.60759E-09-1.96889E-08-3.48663E-09
 -1       177 6.85812E-09-8.99075E-09-1.93866E-09
 -1       178 3.84190E-09-3.02471E-09-9.96459E-10
 -1       179 1.93657E-09-9.37452E-10-4.91764E-10
 -1       180 9.01450E-10-2.33400E-10-1.83950E-10
 -1       181 4.21472E-10-2.22640E-11-8.46543E-11
 -1       182 1.88865E-10 2.91855E-11-3.94814E-11
 -1       183 7.79333E-11 3.00386E-11-1.74616E-11
 -1       184 3.07367E-11 2.01706E-11-8.12970E-12
 -1       185 1.28977E-11 1.21261E-11-3.58714E-12
 -1       186 4.55594E-12 6.44341E-12-1.78825E-12
 -1       187 1.43963E-12 3.11321E-12-8.28973E-13
 -1       188 3.56522E-13 9.64012E-13-4.78341E-13
 -1       189 3.43702E-13-8.11599E-13-4.98322E-13
 -1       190 1.29469E-12-2.87265E-12-7.84176E-13
 -1       191 4.57913E-12-6.33807E-12-1.57939E-12
 -1       192 1.17835E-11-1.15318E-11-3.44889E-12
 -1       193 3.13639E-11-2.01822E-11-8.16390E-12
 -1       194 8.10535E-11-3.05291E-11-1.79606E-11
 -1       195 1.87315E-10-2.81843E-11-3.82582E-11
 -1       196 4.11153E-10 2.15798E-11-8.01169E-11
 -1       197 8.50277E-10 1.94418E-10-1.94460E-10
 -1       198 1.76046E-09 8.09363E-10-4.02558E-10
 -1       199 3.45176E-09 2.61162E-09-8.70995E-10
 -1       200 6.30545E-09 7.60727E-09-1.72601E-09
 -1       201 9.75869E-09 1.82010E-08-3.34359E-09
 -1       202 1.36378E-08 2.99359E-08-7.32996E-09
 -1       203 2.59634E-08 3.45577E-08-1.55581E-08
 -1       204 9.34266E-08-3.78597E-08-4.57521E-08
 -1       205 9.41682E-08 3.83443E-08-4.55207E-08
 -1       206 9.45818E-08 3.79801E-08 4.61198E-08
 -1       207 4.69363E-08 3.13169E-08 2.40818E-08
 -1       208 4.34097E-08 3.04977E-08 1.89509E-08
 -1       209 4.17381E-08 2.94011E-08 1.24578E-08
 -1       210 4.02432E-08 2.90293E-08 6.50598E-09
 -1       211 4.04082E-08 2.95458E-08 2.15754E-10
 -1       212 3.98134E-08 2.93996E-08-6.06745E-09
 -1       213 4.20703E-08 3.00914E-08-1.21178E-08
 -1       214 4.31609E-08 3.02154E-08-1.78634E-08
 -1       215 4.60291E-08 3.14894E-08-2.36102E-08
 -1       216 9.44293E-08-3.81150E-08 4.57428E-08
 -1       217 4.62437E-08-3.10609E-08 2.40879E-08
 -1       218 4.33673E-08-2.97255E-08 1.84855E-08
 -1       219 4.18244E-08-2.94781E-08 1.20030E-08
 -1       220 4.07874E-08-2.90419E-08 6.06414E-09
 -1       221 4.03870E-08-3.04712E-08 1.74866E-10
 -1       222 4.02963E-08-3.01565E-08-6.57063E-09
 -1       223 4.22044E-08-3.04204E-08-1.21508E-08
 -1       224 4.34245E-08-3.02313E-08-1.82262E-08
 -1       225 4.61777E-08-3.13359E-08-2.40313E-08
 -1       226 2.48289E-08-3.48184E-08 1.48025E-08
 -1       227 1.36848E-08-2.98819E-08 7.23206E-09
 -1       228 1.00922E-08-2.05117E-08 3.47703E-09
 -1       229 7.01835E-09-8.57851E-09 2.40727E-09
 -1       230 3.84736E-09-3.08878E-09 9.86246E-10
 -1       231 2.02149E-09-1.08278E-09 4.42400E-10
 -1       232 9.11235E-10-2.43026E-10 1.88592E-10
 -1       233 4.24697E-10-2.40000E-11 8.56489E-11
 -1       234 1.89291E-10 3.00114E-11 4.02068E-11
 -1       235 7.77440E-11 2.89302E-11 1.60815E-11
 -1       236 3.33583E-11 1.99256E-11 7.36346E-12
 -1       237 1.30258E-11 1.21044E-11 3.52582E-12
 -1       238 4.48644E-12 6.43324E-12 1.71797E-12
 -1       239 1.50445E-12 3.14133E-12 8.28928E-13
 -1       240 3.94362E-13 9.75432E-13 4.91752E-13
 -1       241 3.34564E-13-6.95018E-13 4.50542E-13
 -1       242 1.20364E-12-2.81698E-12 8.25585E-13
 -1       243 4.33439E-12-6.16746E-12 1.58608E-12
 -1       244 1.22394E-11-1.16450E-11 3.47913E-12
 -1       245 3.19270E-11-1.98383E-11 7.54163E-12
 -1       246 7.66896E-11-2.96392E-11 1.72994E-11
 -1       247 1.80715E-10-2.94225E-11 3.76014E-11
 -1       248 4.06628E-10 1.90310E-11 8.15794E-11
 -1       249 8.57479E-10 2.18592E-10 1.76090E-10
 -1       250 1.68945E-09 7.57756E-10 3.94074E-10
 -1       251 3.37659E-09 2.50319E-09 8.61728E-10
 -1       252 6.28174E-09 7.53937E-09 1.74519E-09
 -1       253 9.93276E-09 1.87891E-08 3.70343E-09
 -1       254 1.36766E-08 2.97070E-08 7.57036E-09
 -1       255 2.63013E-08 3.49308E-08 1.57761E-08
 -1       256 5.52795E-06-9.81446E-07 4.34261E-08
 -1       257 4.63132E-06-1.89407E-06 3.90989E-08
 -1       258 3.84948E-06-2.07419E-06 2.55502E-08
 -1       259 2.74968E-06-1.32490E-06 1.67318E-08
 -1       260 1.74202E-06-2.88678E-07 6.51371E-09
 -1       261 1.74424E-06 2.82869E-07 1.21336E-09
 -1       262 2.76303E-06 1.31999E-06 2.08008E-09
 -1       263 3.85602E-06 2.05587E-06 4.77784E-09
 -1       264 4.62966E-06 1.83948E-06 1.20961E-08
 -1       265 5.52635E-06 9.21154E-07 2.34165E-08
 -1       266 0.00000E+00 0.00000E+00 0.00000E+00
 -1       267 0.00000E+00 0.00000E+00 0.00000E+00
 -1       268 0.00000E+00 0.00000E+00 0.00000E+00
 -1       269 0.00000E+00 0.00000E+00 0.00000E+00
 -1       270 0.00000E+00 0.00000E+00 0.00000E+00
 -1       271 0.00000E+00 0.00000E+00 0.00000E+00
 -1       272 0.00000E+00 0.00000E+00 0.00000E+00
 -1       273 0.00000E+00 0.00000E+00 0.00000E+00
 -1       274 0.00000E+00 0.00000E+00 0.00000E+00
 -1       275 0.00000E+00 0.00000E+00 0.00000E+00
 -1       276 0.00000E+00 0.00000E+00 0.00000E+00
 -1       277 0.00000E+00 0.00000E+00 0.00000E+00
 -1       278 0.00000E+00 0.00000E+00 0.00000E+00
 -1       279 0.00000E+00 0.00000E+00 0.00000E+00
 -1       280 0.00000E+00 0.00000E+00 0.00000E+00
 -1       281 0.00000E+00 0.00000E+00 0.00000E+00
 -1       282 0.00000E+00 0.00000E+00 0.00000E+00
 -1       283 0.00000E+00 0.00000E+00 0.00000E+00
 -1       284 0.00000E+00 0.00000E+00 0.00000E+00
 -1       285 0.00000E+00 0.00000E+00 0.00000E+00
 -1       286 0.00000E+00 0.00000E+00 0.00000E+00
 -1       287 0.00000E+00 0.00000E+00 0.00000E+00
 -1       288 0.00000E+00 0.00000E+00 0.00000E+00
 -1       289 0.00000E+00 0.00000E+00 0.00000E+00
 -1       290 0.00000E+00 0.00000E+00 0.00000E+00
 -1       291 0.00000E+00 0.00000E+00 0.00000E+00
 -1       292 0.00000E+00 0.00000E+00 0.00000E+00
 -1       293 0.00000E+00 0.00000E+00 0.00000E+00
 -1       294 0.00000E+00 0.00000E+00 0.00000E+00
 -1       295 0.00000E+00 0.00000E+00 0.00000E+00
 -1       296 0.00000E+00 0.00000E+00 0.00000E+00
 -1       297 3.62800E-06-3.86769E-07 1.37810E-08
 -1       298 3.90809E-06 7.06471E-07-4.60569E-09
 -1       299 4.02285E-06 2.05438E-06-3.69593E-09
 -1       300 4.43189E-06 3.96131E-07 1.89195E-08
 -1       301 6.14977E-06-1.92280E-07 4.58257E-08
 -1       302 5.42735E-06 1.74774E-07 5.75531E-08
 -1       303 4.05460E-06-2.09446E-06 3.69276E-08
 -1       304 4.31550E-06-1.79444E-06 2.55688E-08
 -1       305 4.46796E-06-4.29078E-07 5.44198E-08
 -1       306 6.16247E-06 1.20746E-07 5.38019E-08
 -1       307 3.91581E-06 1.40334E-06 6.56117E-09
 -1       308 4.28317E-06 1.81082E-06-7.14232E-09
 -1       309 5.40034E-06-2.22062E-07 3.39187E-08
 -1       310 3.94194E-06-1.44204E-06 4.91234E-08
 -1       311 2.13245E-07 5.98674E-08 3.83608E-08
 -1       312 3.50293E-07 6.96331E-08 2.22823E-08
 -1       313 5.98527E-07 7.16137E-08 1.51805E-09
 -1       314 1.74908E-07 5.34320E-08 3.88807E-08
 -1       315 1.79347E-07 5.49053E-08 2.86249E-08
 -1       316 1.77353E-07 5.50107E-08 1.68996E-08
 -1       317 1.74711E-07 5.48367E-08 5.51043E-09
 -1       318 1.75618E-07 5.51879E-08-5.26094E-09
 -1       319 1.76500E-07 5.49887E-08-1.64469E-08
 -1       320 1.73894E-07 5.38625E-08-2.74180E-08
 -1       321 1.67623E-07 5.20364E-08-3.63885E-08
 -1       322 1.70264E-07 5.21309E-08-4.47972E-08
 -1       323 2.67852E-07 6.58243E-08-2.71731E-08
 -1       324 3.58040E-07 6.99031E-08-1.53298E-08
 -1       325 4.76955E-07 7.14964E-08-1.96557E-08
 -1       326 2.72824E-07 6.60072E-08 3.13959E-08
 -1       327 4.58479E-07 7.12865E-08 1.75475E-08
 -1       328 2.04097E-07 5.88252E-08-3.87541E-08
 -1       329 2.71591E-07 6.61160E-08 5.03936E-09
 -1       330 2.25147E-07 6.18361E-08 2.36477E-08
 -1       331 2.12569E-07 6.06455E-08 1.14595E-08
 -1       332 2.11439E-07 6.05668E-08 1.09602E-10
 -1       333 2.25065E-07 6.20654E-08-1.20123E-08
 -1       334 2.11230E-07 6.03012E-08-2.46403E-08
 -1       335 2.17431E-07-6.03683E-08 3.80002E-08
 -1       336 2.77993E-07-6.63044E-08 3.16012E-08
 -1       337 5.22857E-07-7.11208E-08 8.94056E-09
 -1       338 7.24228E-07-7.10478E-08 1.91936E-09
 -1       339 1.75002E-07-5.33173E-08 3.87802E-08
 -1       340 1.79050E-07-5.52561E-08 1.64618E-08
 -1       341 1.73829E-07-5.43797E-08-5.56600E-09
 -1       342 1.77793E-07-5.39793E-08-3.25748E-08
 -1       343 2.35622E-07-6.24698E-08-3.49955E-08
 -1       344 4.22051E-07-7.06078E-08-1.85273E-08
 -1       345 3.66692E-07-6.97368E-08 1.58401E-08
 -1       346 1.73353E-07-5.41443E-08-1.78494E-08
 -1       347 1.80888E-07-5.54362E-08 2.82886E-08
 -1       348 1.76836E-07-5.48457E-08 4.75490E-09
 -1       349 3.16833E-07-6.81498E-08-2.24356E-08
 -1       350 2.07423E-07-5.95556E-08-1.25527E-08
 -1       351 2.27960E-07-6.18848E-08 2.34787E-08
 -1       352 2.21937E-07-6.16422E-08-1.51515E-09
 -1       353 2.10806E-07-5.98079E-08-2.42085E-08
 -1       354 2.17531E-07-6.10791E-08 1.07977E-08
 -1       355 2.77800E-07-6.61532E-08 7.04211E-09
 -1       356 2.55638E-07-6.45865E-08-1.54887E-08
 -1       357 4.41364E-08-4.19728E-08-2.21748E-08
 -1       358 1.17430E-08-1.86182E-08-4.93820E-09
 -1       359 1.26118E-08 2.01433E-08-5.56451E-09
 -1       360 4.14287E-08 4.14524E-08-2.07019E-08
 -1       361 7.17979E-08-4.26633E-08-3.33458E-08
 -1       362 1.27253E-07-3.61265E-08-4.94632E-08
 -1       363 7.12877E-08 4.26360E-08-3.29881E-08
 -1       364 1.26425E-07 3.59538E-08-4.89031E-08
 -1       365 1.62027E-07-3.85088E-08-5.14164E-08
 -1       366 2.13319E-07-4.02180E-08-5.08591E-08
 -1       367 4.50162E-07-2.53082E-08-4.94454E-08
 -1       368 1.60650E-07 3.83959E-08-5.12016E-08
 -1       369 2.82223E-07 4.47396E-08-4.95473E-08
 -1       370 4.79742E-07 3.19527E-08-4.93500E-08
 -1       371 1.58985E-06 7.37450E-10-7.41794E-08
 -1       372 9.30194E-08-9.96872E-09-4.54523E-08
 -1       373 2.44320E-08-3.15344E-08-1.25857E-08
 -1       374 2.50537E-08 2.81567E-08-1.27420E-08
 -1       375 6.99221E-08 2.64084E-08-3.64305E-08
 -1       376 7.23661E-08 9.59567E-09-4.12868E-08
 -1       377 2.26937E-08 3.44633E-08-1.17672E-08
 -1       378 3.04606E-07-3.32284E-08-4.98090E-08
 -1       379 2.10500E-07 4.33372E-08-5.05994E-08
 -1       380 3.68333E-07 4.56496E-08-4.89571E-08
 -1       381 6.65600E-07 4.49967E-09-5.03134E-08
 -1       382 9.65083E-08-3.68982E-08-4.16239E-08
 -1       383 9.46483E-08 3.74788E-08-4.06392E-08
 -1       384 5.06783E-08-3.41061E-08-2.57323E-08
 -1       385 1.17597E-07 2.13432E-08-4.74515E-08
 -1       386 1.25770E-07-3.17759E-08-4.78811E-08
 -1       387 1.69852E-07 2.78893E-08-5.04320E-08
 -1       388 3.46998E-07 1.23693E-08-4.97359E-08
 -1       389 8.41557E-08-2.63051E-08-4.13606E-08
 -1       390 2.33262E-07 2.39874E-08-5.05419E-08
 -1       391 1.23581E-07 3.06816E-08-4.72469E-08
 -1       392 1.58360E-07 8.09870E-09-5.06574E-08
 -1       393 5.25428E-08 3.66294E-08-2.61313E-08
 -1       394 1.48291E-07-2.58333E-08-4.98991E-08
 -1       395 1.94911E-07-1.63846E-08-5.11122E-08
 -1       396 2.49145E-07-5.72124E-10-5.07100E-08
 -1       397 8.63671E-08 3.56883E-08 3.17884E-08
 -1       398 7.95749E-08 3.54613E-08 1.28474E-08
 -1       399 7.92656E-08 3.55745E-08 4.49524E-09
 -1       400 7.88456E-08 3.56404E-08-3.73210E-09
 -1       401 7.88641E-08 3.53906E-08-1.22420E-08
 -1       402 8.11206E-08 3.58545E-08-2.11885E-08
 -1       403 8.34449E-08 3.65218E-08-3.09063E-08
 -1       404 8.33786E-08 3.62166E-08 2.18483E-08
 -1       405 8.56984E-08-3.58078E-08 3.18899E-08
 -1       406 8.15722E-08-3.61267E-08 1.29934E-08
 -1       407 8.02921E-08-3.51607E-08-4.37269E-09
 -1       408 8.32572E-08-3.56756E-08-2.17875E-08
 -1       409 8.66363E-08-3.57711E-08-3.12544E-08
 -1       410 8.12493E-08-3.64747E-08 4.07286E-09
 -1       411 8.36621E-08-3.56541E-08 2.14636E-08
 -1       412 8.06092E-08-3.58885E-08-1.28005E-08
 -1       413 4.05090E-08-4.17856E-08 2.07718E-08
 -1       414 2.24263E-08-3.10900E-08 1.10293E-08
 -1       415 1.11434E-08 1.81059E-08 4.36042E-09
 -1       416 4.35039E-08 4.21504E-08 2.21934E-08
 -1       417 6.66116E-08-4.31122E-08 3.10938E-08
 -1       418 1.26928E-07-3.56636E-08 4.92452E-08
 -1       419 6.95990E-08 4.30252E-08 3.27933E-08
 -1       420 1.25849E-07 3.55640E-08 4.93544E-08
 -1       421 1.60692E-07-3.81115E-08 5.17019E-08
 -1       422 2.78152E-07-4.36555E-08 5.04825E-08
 -1       423 5.29238E-07-3.09453E-08 5.08958E-08
 -1       424 9.98278E-07 2.57072E-09 5.43138E-08
 -1       425 1.61663E-07 4.06092E-08 5.23782E-08
 -1       426 2.00355E-07 4.81660E-08 5.17807E-08
 -1       427 3.65105E-07 4.04762E-08 5.03594E-08
 -1       428 4.82489E-07 2.20880E-08 5.08155E-08
 -1       429 6.94534E-07 1.90317E-09 5.22347E-08
 -1       430 1.40552E-06-6.12681E-10 6.13718E-08
 -1       431 1.59549E-06 3.49721E-10 6.62986E-08
 -1       432 1.26773E-07-1.16016E-08 4.94363E-08
 -1       433 4.85895E-08-2.87992E-08 2.63508E-08
 -1       434 2.45846E-08 3.24433E-08 1.24624E-08
 -1       435 9.04713E-08 1.34667E-08 4.46552E-08
 -1       436 1.09808E-08-1.74182E-08 4.44509E-09
 -1       437 2.10194E-07-4.31584E-08 5.12906E-08
 -1       438 3.91747E-07-3.21441E-08 5.03497E-08
 -1       439 2.75658E-07 2.90414E-08 5.10799E-08
 -1       440 6.01834E-08 2.64436E-08 3.29042E-08
 -1       441 9.50303E-08-3.54315E-08 4.12354E-08
 -1       442 9.13614E-08 3.72806E-08 4.02840E-08
 -1       443 4.96491E-08 3.71088E-08 2.52336E-08
 -1       444 2.06517E-07 3.75737E-09 5.16629E-08
 -1       445 1.70474E-07-2.87652E-08 5.10527E-08
 -1       446 2.88627E-07-1.62542E-08 5.10230E-08
 -1       447 3.43804E-07 8.38404E-09 5.08248E-08
 -1       448 3.78698E-08-3.49467E-08 1.96122E-08
 -1       449 1.47748E-07 3.20431E-08 5.05825E-08
 -1       450 1.25533E-07-2.92444E-08 4.80433E-08
 -1       451 1.84807E-07 3.71194E-08 5.17149E-08
 -1       452 1.09825E-07 2.80298E-08 4.62348E-08
 -1       453 2.15209E-07-2.23400E-08 5.15211E-08
 -1       454 1.76299E-07 2.41329E-08 5.14771E-08
 -1       455 7.25966E-08-2.11968E-08 3.85641E-08
 -1       456 2.36588E-07 4.38266E-08 5.11979E-08
 -1       457 1.54537E-08-2.84478E-08 7.94373E-09
 -1       458 7.24522E-09-1.40580E-08 8.48361E-11
 -1       459 2.46972E-09-1.81194E-09-8.82357E-12
 -1       460 5.78951E-10-1.38953E-10 5.17647E-12
 -1       461 1.15789E-10 2.20046E-11-3.78841E-13
 -1       462 2.06612E-11 1.31345E-11 2.01213E-13
 -1       463 2.61112E-12 4.02033E-12-3.21547E-14
 -1       464 3.76481E-13 6.27585E-14 4.94413E-14
 -1       465 2.60263E-12-3.81113E-12-9.14041E-15
 -1       466 1.98433E-11-1.31169E-11 4.88789E-13
 -1       467 1.14838E-10-2.18615E-11 7.80425E-13
 -1       468 5.47329E-10 1.27588E-10 6.13548E-12
 -1       469 2.25533E-09 1.57796E-09 2.22610E-11
 -1       470 6.66679E-09 1.22735E-08 5.59791E-11
 -1       471 1.40549E-08 2.80164E-08 7.37317E-09
 -1       472 2.29549E-08-2.83443E-08 1.01189E-08
 -1       473 2.38673E-08-2.81018E-08 6.58389E-09
 -1       474 2.10960E-08-2.81065E-08 1.90525E-09
 -1       475 2.16462E-08-2.81365E-08-2.36690E-09
 -1       476 2.55235E-08-2.81571E-08-6.89252E-09
 -1       477 2.44990E-08-2.84218E-08-1.03003E-08
 -1       478 2.77938E-08-2.97225E-08-1.45234E-08
 -1       479 2.47749E-08 2.92984E-08 1.36848E-08
 -1       480 2.11779E-08 2.76517E-08 6.06384E-09
 -1       481 2.31301E-08 2.82922E-08-2.36757E-09
 -1       482 2.12675E-08 2.82156E-08-1.13430E-08
 -1       483 9.75819E-09-2.25409E-08-2.42872E-09
 -1       484 8.79348E-09-2.31255E-08 1.78778E-09
 -1       485 4.61130E-09-5.47421E-09-7.94473E-11
 -1       486 1.23291E-09-5.94731E-10 5.85097E-12
 -1       487 2.68157E-10-6.90532E-12 1.98401E-12
 -1       488 4.75465E-11 2.03476E-11 2.32160E-13
 -1       489 8.08219E-12 7.94579E-12 7.30123E-14
 -1       490 9.32707E-13 1.66156E-12 7.05667E-14
 -1       491 7.50556E-13-1.53452E-12 2.32626E-14
 -1       492 7.59903E-12-7.43656E-12 1.33504E-13
 -1       493 4.69909E-11-1.99892E-11 1.25767E-14
 -1       494 2.56571E-10 5.49556E-12 2.59935E-12
 -1       495 1.09907E-09 4.58312E-10 1.54064E-12
 -1       496 4.30294E-09 4.76346E-09 4.24334E-11
 -1       497 9.05770E-09 2.10449E-08 2.18592E-09
 -1       498 2.59112E-08-2.96992E-08 1.40378E-08
 -1       499 2.55071E-08 2.79321E-08 2.29868E-09
 -1       500 2.06964E-08 2.80563E-08 9.34685E-09
 -1       501 2.15147E-08 2.77112E-08-6.96602E-09
 -1       502 8.75143E-09 2.11590E-08-1.11950E-09
 -1       503 1.44203E-08-2.72101E-08 4.38560E-09
 -1       504 1.45661E-08 2.69556E-08-2.10617E-09
 -1       505 1.16144E-08-2.60789E-08 2.91272E-11
 -1       506 1.32659E-08-2.72005E-08-4.71124E-09
 -1       507 1.65014E-08 2.74112E-08 1.15233E-09
 -1       508 1.10800E-08 2.56201E-08 1.82016E-09
 -1       509 1.17274E-08 2.61391E-08-4.06634E-09
 -1       510 1.55294E-08-2.86725E-08-8.73103E-09
 -1       511 2.22719E-07 3.31176E-08-2.60481E-08
 -1       512 1.13291E-07 2.32738E-08-1.38575E-08
 -1       513 1.35984E-07 2.01366E-08 5.09893E-09
 -1       514 1.03705E-07 3.58612E-09-1.62291E-08
 -1       515 3.13059E-07 5.04779E-08-1.93473E-08
 -1       516 2.03625E-07-8.15257E-09-1.78562E-08
 -1       517 2.67803E-07 4.77764E-08 2.92085E-08
 -1       518 9.48821E-08-1.71925E-08-2.45764E-08
 -1       519 1.41007E-07-1.28059E-08 1.67873E-08
 -1       520 4.11315E-07 4.07996E-08-1.85119E-08
 -1       521 2.81170E-07 2.48745E-08-1.86234E-08
 -1       522 1.90495E-07 3.81924E-08-3.45482E-08
 -1       523 1.39426E-07 3.07321E-08-2.95322E-08
 -1       524 1.92266E-08 2.97409E-08-5.03818E-09
 -1       525 4.71428E-08 3.57127E-08-1.65006E-08
 -1       526 3.46159E-08 3.06124E-08-5.27433E-09
 -1       527 4.41441E-08 3.13902E-08 1.56409E-09
 -1       528 9.02547E-08 3.03688E-08-2.51382E-08
 -1       529 8.11494E-08 4.83857E-10 1.42474E-08
 -1       530 2.13142E-07 7.26884E-09 1.45662E-08
 -1       531 8.80927E-08 1.81041E-08-2.58726E-08
 -1       532 8.61894E-08 3.04943E-08-8.80328E-09
 -1       533 9.43724E-08 3.01711E-08 3.81721E-09
 -1       534 1.38908E-07 3.17204E-08-8.01819E-09
 -1       535 1.44682E-07 3.80825E-08 3.16187E-09
 -1       536 1.76266E-07 1.87888E-08-3.27110E-08
 -1       537 4.31940E-07-4.92243E-09 9.00515E-10
 -1       538 3.61196E-07 4.08894E-08 1.38637E-08
 -1       539 3.13866E-07-2.15265E-08-1.96646E-09
 -1       540 2.90435E-07 2.30979E-08 1.62898E-08
 -1       541 2.47394E-07 4.82129E-08-3.33719E-08
 -1       542 1.90546E-07 4.35892E-08-1.49078E-08
 -1       543 2.21446E-07-2.10409E-08 2.28701E-08
 -1       544 1.35942E-07-3.39086E-08-3.10601E-08
 -1       545 6.09179E-08-2.52690E-08-1.32803E-08
 -1       546 6.11921E-08-3.26237E-08-2.14113E-08
 -1       547 6.99536E-08-3.55074E-08-1.03128E-08
 -1       548 3.97015E-08-3.60372E-08-1.39460E-08
 -1       549 3.19943E-08-3.48136E-08-2.68377E-09
 -1       550 2.40991E-07-4.44659E-08-2.71690E-08
 -1       551 1.94659E-07 4.41477E-08 3.70795E-08
 -1       552 1.36414E-07 3.12042E-08 3.44729E-08
 -1       553 1.11945E-07 3.43296E-08 1.31535E-08
 -1       554 5.19141E-08 3.64764E-08 2.05834E-08
 -1       555 3.40107E-08 3.49882E-08 9.43725E-09
 -1       556 9.10133E-08 3.46138E-08 3.29829E-08
 -1       557 7.31126E-08 3.09337E-08 1.53422E-08
 -1       558 5.33113E-08 2.48690E-08 2.14601E-08
 -1       559 6.89593E-08 1.79254E-08 1.65519E-08
 -1       560 2.10481E-07 2.88915E-08 3.46608E-08
 -1       561 1.40431E-07 3.06535E-08 1.44203E-08
 -1       562 1.93685E-07 4.24799E-08 2.15640E-08
 -1       563 1.91097E-07-3.96563E-08 3.84060E-08
 -1       564 3.30980E-08-3.57688E-08 1.18488E-08
 -1       565 1.40153E-07-3.60924E-08 3.54738E-08
 -1       566 1.41243E-07-2.60583E-08 3.16398E-08
 -1       567 1.27458E-07-3.42199E-08 2.05395E-08
 -1       568 8.33561E-08-3.45693E-08 2.72383E-08
 -1       569 6.52135E-08-3.63258E-08 8.46347E-09
 -1       570 6.55451E-08-2.09893E-08 1.59195E-08
 -1       571 1.91404E-07-4.30202E-08 2.05008E-08
 -1       572 1.53001E-08 2.74845E-08 1.36461E-09
 -1       573 1.49044E-07 2.22323E-08 2.76559E-08
 -1       574 1.49911E-07 4.82756E-09 3.31646E-08
 -1       575 3.39481E-08 3.49695E-08 3.13315E-09
 -1       576 4.23986E-08 2.17557E-08 1.15292E-09
 -1       577 5.09521E-08 2.49140E-08-1.07070E-08
 -1       578 6.78337E-08 3.67580E-08 1.15309E-09
 -1       579 1.85406E-07 4.16114E-08 2.25259E-09
 -1       580 6.98743E-08 1.77343E-08-1.62139E-09
 -1       581 3.85952E-08 3.62452E-08-4.44004E-09
 -1       582 7.42525E-08 3.59291E-08-6.01193E-09
 -1       583 2.40164E-07 4.71971E-08-1.17531E-08
 -1       584 1.18752E-07 3.51514E-08-2.46330E-08
 -1       585 9.73100E-08 3.57234E-08-3.06148E-08
 -1       586 7.37768E-08 3.65118E-08-1.53200E-08
 -1       587 6.78011E-08 3.68697E-08 1.10946E-08
 -1       588 1.01908E-07 3.47562E-08 2.63683E-08
 -1       589 5.32510E-07 3.27687E-08 2.57248E-09
 -1       590 2.53163E-07 4.66901E-08 7.77989E-09
 -1       591 2.09874E-07 2.95722E-08 1.06154E-08
 -1       592 1.84170E-07 2.57357E-08-1.15964E-08
 -1       593 1.11431E-07 3.50058E-08-1.49738E-09
 -1       594 1.12666E-07 3.45444E-08-1.36306E-08
 -1       595 1.31961E-07 3.62290E-08-4.24462E-08
 -1       596 1.54055E-07 4.05620E-08 2.88053E-08
 -1       597 1.60941E-07 4.25524E-08 1.32238E-08
 -1       598 1.57957E-07 4.15972E-08-2.23916E-08
 -1       599 1.50119E-07 4.10418E-08-9.32280E-09
 -1       600 1.61254E-07 4.25459E-08-3.51370E-08
 -1       601 4.23654E-08-2.55032E-08 2.37672E-10
 -1       602 1.39348E-07-2.76856E-08 1.05531E-08
 -1       603 1.69718E-07-4.29835E-08 2.27929E-09
 -1       604 1.04949E-07-3.30452E-08 3.63639E-09
 -1       605 2.71809E-08-3.37647E-08 3.73585E-09
 -1       606 1.91692E-07-4.58649E-08-1.34353E-08
 -1       607 1.81800E-07-2.85017E-08-6.97089E-09
 -1       608 1.26348E-07-3.41376E-08-1.19204E-08
 -1       609 9.05804E-08-1.87459E-08-1.24789E-09
 -1       610 2.55784E-07-4.76142E-08 5.53276E-09
 -1       611 1.84940E-07-2.68105E-08-3.37343E-08
 -1       612 1.49387E-08-2.70274E-08 4.80091E-09
 -1       613 6.33603E-06-2.39890E-08-2.70463E-08
 -1       614 6.32758E-06-3.20427E-08 1.03260E-07
 -1       615 6.28539E-06-2.48621E-07-6.65184E-08
 -1       616 5.46525E-06-1.02015E-06 3.55940E-08
 -1       617 4.58797E-06-1.97449E-06 1.68699E-07
 -1       618 3.88853E-06-2.17936E-06 2.08726E-07
 -1       619 2.76751E-06-1.31514E-06 7.26122E-08
 -1       620 1.69251E-06-2.99920E-07-8.88167E-08
 -1       621 1.68838E-06 2.97780E-07-9.40898E-08
 -1       622 2.77407E-06 1.32512E-06 6.37959E-08
 -1       623 3.88453E-06 2.16427E-06 1.82300E-07
 -1       624 4.58249E-06 1.93400E-06 1.40204E-07
 -1       625 5.46923E-06 9.67597E-07 1.17902E-08
 -1       626 6.28701E-06 2.06340E-07-7.46376E-08
 -1       627 6.26927E-06-2.60754E-07 1.49300E-07
 -1       628 5.45123E-06-1.02809E-06 5.15942E-08
 -1       629 4.57268E-06-1.98180E-06-9.12157E-08
 -1       630 3.87294E-06-2.19264E-06-1.49725E-07
 -1       631 2.73903E-06-1.31881E-06-3.54534E-08
 -1       632 1.69108E-06-2.98289E-07 9.66354E-08
 -1       633 1.69037E-06 2.89872E-07 9.80470E-08
 -1       634 2.76849E-06 1.31314E-06-5.95913E-08
 -1       635 3.87399E-06 2.14895E-06-1.72214E-07
 -1       636 4.57366E-06 1.91265E-06-1.15183E-07
 -1       637 5.45991E-06 9.44681E-07 3.40911E-08
 -1       638 6.26982E-06 1.89246E-07 1.41216E-07
 -1       639 0.00000E+00 0.00000E+00 0.00000E+00
 -1       640 0.00000E+00 0.00000E+00 0.00000E+00
 -1       641 0.00000E+00 0.00000E+00 0.00000E+00
 -1       642 0.00000E+00 0.00000E+00 0.00000E+00
 -1       643 0.00000E+00 0.00000E+00 0.00000E+00
 -1       644 0.00000E+00 0.00000E+00 0.00000E+00
 -1       645 0.00000E+00 0.00000E+00 0.00000E+00
 -1       646 0.00000E+00 0.00000E+00 0.00000E+00
 -1       647 0.00000E+00 0.00000E+00 0.00000E+00
 -1       648 0.00000E+00 0.00000E+00 0.00000E+00
 -1       649 0.00000E+00 0.00000E+00 0.00000E+00
 -1       650 0.00000E+00 0.00000E+00 0.00000E+00
 -1       651 0.00000E+00 0.00000E+00 0.00000E+00
 -1       652 0.00000E+00 0.00000E+00 0.00000E+00
 -1       653 0.00000E+00 0.00000E+00 0.00000E+00
 -1       654 0.00000E+00 0.00000E+00 0.00000E+00
 -1       655 0.00000E+00 0.00000E+00 0.00000E+00
 -1       656 0.00000E+00 0.00000E+00 0.00000E+00
 -1       657 0.00000E+00 0.00000E+00 0.00000E+00
 -1       658 0.00000E+00 0.00000E+00 0.00000E+00
 -1       659 0.00000E+00 0.00000E+00 0.00000E+00
 -1       660 0.00000E+00 0.00000E+00 0.00000E+00
 -1       661 0.00000E+00 0.00000E+00 0.00000E+00
 -1       662 0.00000E+00 0.00000E+00 0.00000E+00
 -1       663 0.00000E+00 0.00000E+00 0.00000E+00
 -1       664 0.00000E+00 0.00000E+00 0.00000E+00
 -1       665 0.00000E+00 0.00000E+00 0.00000E+00
 -1       666 0.00000E+00 0.00000E+00 0.00000E+00
 -1       667 0.00000E+00 0.00000E+00 0.00000E+00
 -1       668 0.00000E+00 0.00000E+00 0.00000E+00
 -1       669 0.00000E+00 0.00000E+00 0.00000E+00
 -1       670 0.00000E+00 0.00000E+00 0.00000E+00
 -1       671 0.00000E+00 0.00000E+00 0.00000E+00
 -1       672 0.00000E+00 0.00000E+00 0.00000E+00
 -1       673 0.00000E+00 0.00000E+00 0.00000E+00
 -1       674 0.00000E+00 0.00000E+00 0.00000E+00
 -1       675 0.00000E+00 0.00000E+00 0.00000E+00
 -1       676 0.00000E+00 0.00000E+00 0.00000E+00
 -1       677 0.00000E+00 0.00000E+00 0.00000E+00
 -1       678 0.00000E+00 0.00000E+00 0.00000E+00
 -1       679 0.00000E+00 0.00000E+00 0.00000E+00
 -1       680 0.00000E+00 0.00000E+00 0.00000E+00
 -1       681 0.00000E+00 0.00000E+00 0.00000E+00
 -1       682 0.00000E+00 0.00000E+00 0.00000E+00
 -1       683 0.00000E+00 0.00000E+00 0.00000E+00
 -1       684 0.00000E+00 0.00000E+00 0.00000E+00
 -1       685 0.00000E+00 0.00000E+00 0.00000E+00
 -1       686 0.00000E+00 0.00000E+00 0.00000E+00
 -1       687 0.00000E+00 0.00000E+00 0.00000E+00
 -1       688 0.00000E+00 0.00000E+00 0.00000E+00
 -1       689 0.00000E+00 0.00000E+00 0.00000E+00
 -1       690 0.00000E+00 0.00000E+00 0.00000E+00
 -1       691 0.00000E+00 0.00000E+00 0.00000E+00
 -1       692 0.00000E+00 0.00000E+00 0.00000E+00
 -1       693 0.00000E+00 0.00000E+00 0.00000E+00
 -1       694 2.04678E-06-1.06823E-07 6.60066E-08
 -1       695 2.04384E-06-1.08759E-07-6.14359E-08
 -1       696 2.04837E-06 9.82344E-08 1.39700E-09
 -1       697 2.80893E-06-5.24358E-08 1.09022E-07
 -1       698 4.00632E-06 8.92884E-07-1.46282E-08
 -1       699 4.32360E-06 1.94393E-06-8.14608E-08
 -1       700 4.01946E-06 2.18210E-06-8.09322E-08
 -1       701 3.89521E-06 1.47509E-06-4.05227E-08
 -1       702 4.43854E-06 4.19592E-07 2.59896E-08
 -1       703 5.45613E-06-2.41822E-07 9.27301E-08
 -1       704 6.25106E-06-2.04937E-07 1.35341E-07
 -1       705 6.26998E-06 1.47480E-07 1.44553E-07
 -1       706 5.49514E-06 2.03503E-07 1.17981E-07
 -1       707 4.48044E-06-4.37911E-07 6.19328E-08
 -1       708 3.92506E-06-1.49158E-06 7.62568E-10
 -1       709 4.04923E-06-2.20478E-06-3.99513E-08
 -1       710 4.35197E-06-1.95548E-06-4.47565E-08
 -1       711 4.00581E-06-9.02124E-07 5.23616E-09
 -1       712 2.78151E-06 1.48562E-08 1.18247E-07
 -1       713 2.80514E-06-5.92580E-08-1.11670E-07
 -1       714 3.99738E-06 8.81522E-07 5.29454E-09
 -1       715 4.31173E-06 1.92911E-06 7.24993E-08
 -1       716 4.00650E-06 2.16579E-06 8.16771E-08
 -1       717 3.88183E-06 1.45739E-06 5.65473E-08
 -1       718 4.42410E-06 4.02311E-07 1.22627E-08
 -1       719 5.44045E-06-2.58127E-07-3.06004E-08
 -1       720 6.23377E-06-2.20702E-07-5.07521E-08
 -1       721 6.25077E-06 1.32130E-07-4.27790E-08
 -1       722 5.47539E-06 1.88148E-07-7.44201E-09
 -1       723 4.46091E-06-4.52081E-07 4.77368E-08
 -1       724 3.90554E-06-1.50411E-06 9.80517E-08
 -1       725 4.02555E-06-2.21547E-06 1.21033E-07
 -1       726 4.31736E-06-1.96241E-06 1.01012E-07
 -1       727 3.97811E-06-9.06197E-07 2.68598E-08
 -1       728 2.74652E-06-1.33235E-09-1.06577E-07
 -1       729 1.66088E-07 4.98792E-08 5.35960E-08
 -1       730 2.10330E-07 5.92229E-08 5.15118E-08
 -1       731 2.73748E-07 6.63799E-08 4.99882E-08
 -1       732 3.63219E-07 7.04549E-08 4.95500E-08
 -1       733 4.80526E-07 7.16669E-08 5.03519E-08
 -1       734 6.36482E-07 7.16293E-08 5.18154E-08
 -1       735 8.59844E-07 7.18325E-08 5.34995E-08
 -1       736 1.15757E-06 7.23209E-08 5.49970E-08
 -1       737 1.44501E-06 5.09134E-08 6.60000E-08
 -1       738 1.75328E-06-5.11883E-08 1.20577E-07
 -1       739 1.44538E-07 4.52071E-08 4.80637E-08
 -1       740 1.41970E-07 4.60165E-08 3.65295E-08
 -1       741 1.40067E-07 4.64282E-08 2.56277E-08
 -1       742 1.38595E-07 4.63294E-08 1.54166E-08
 -1       743 1.38096E-07 4.68667E-08 5.38134E-09
 -1       744 1.38080E-07 4.68267E-08-4.65728E-09
 -1       745 1.38618E-07 4.64873E-08-1.46683E-08
 -1       746 1.39797E-07 4.63893E-08-2.48911E-08
 -1       747 1.41818E-07 4.61614E-08-3.56384E-08
 -1       748 1.44186E-07 4.55997E-08-4.73268E-08
 -1       749 1.65159E-07 4.99531E-08-5.25698E-08
 -1       750 2.09904E-07 5.93172E-08-5.05111E-08
 -1       751 2.73497E-07 6.66095E-08-4.88058E-08
 -1       752 3.62886E-07 7.06691E-08-4.81890E-08
 -1       753 4.80192E-07 7.18957E-08-4.87550E-08
 -1       754 6.36134E-07 7.18674E-08-4.98990E-08
 -1       755 8.59259E-07 7.25155E-08-5.08328E-08
 -1       756 1.15660E-06 7.34006E-08-5.21292E-08
 -1       757 1.43559E-06 4.38646E-08-6.23937E-08
 -1       758 1.74018E-06-5.27358E-08-1.22374E-07
 -1       759 1.66307E-07-5.01731E-08 5.31243E-08
 -1       760 2.12942E-07-5.96262E-08 5.09833E-08
 -1       761 2.77879E-07-6.66919E-08 4.95562E-08
 -1       762 3.79317E-07-7.06067E-08 4.93167E-08
 -1       763 5.31537E-07-7.14197E-08 5.05403E-08
 -1       764 7.32397E-07-7.11008E-08 5.23466E-08
 -1       765 1.00729E-06-7.14702E-08 5.43443E-08
 -1       766 1.33825E-06-6.98001E-08 5.71285E-08
 -1       767 1.70095E-06 3.27175E-08 1.15301E-07
 -1       768 1.44557E-07-4.55887E-08 4.78503E-08
 -1       769 1.40992E-07-4.66085E-08 3.60975E-08
 -1       770 1.38821E-07-4.65103E-08 2.52960E-08
 -1       771 1.37771E-07-4.63292E-08 1.49499E-08
 -1       772 1.36825E-07-4.57388E-08 5.06548E-09
 -1       773 1.36921E-07-4.62825E-08-4.95283E-09
 -1       774 1.37507E-07-4.65831E-08-1.50583E-08
 -1       775 1.38428E-07-4.69459E-08-2.51348E-08
 -1       776 1.40622E-07-4.66628E-08-3.60682E-08
 -1       777 1.44433E-07-4.56278E-08-4.76303E-08
 -1       778 1.68433E-07-5.06726E-08-5.27096E-08
 -1       779 2.21931E-07-6.07521E-08-5.03944E-08
 -1       780 3.10310E-07-6.83204E-08-4.86870E-08
 -1       781 4.52628E-07-7.11472E-08-4.88573E-08
 -1       782 6.53061E-07-7.09953E-08-5.03677E-08
 -1       783 9.25894E-07-7.13950E-08-5.16710E-08
 -1       784 1.28295E-06-6.68255E-08-5.55043E-08
 -1       785 1.67696E-06 3.31791E-08-1.05842E-07
 -1       786 3.40918E-08-3.50102E-08-2.00840E-08
 -1       787 1.78625E-08-3.24538E-08-1.05599E-08
 -1       788 1.11912E-08-2.46750E-08-4.93575E-09
 -1       789 8.51819E-09-1.32319E-08-2.57411E-09
 -1       790 5.31978E-09-5.11711E-09-1.39838E-09
 -1       791 2.77305E-09-1.74768E-09-7.09337E-10
 -1       792 1.34478E-09-4.77040E-10-3.07259E-10
 -1       793 6.16823E-10-7.80294E-11-1.26696E-10
 -1       794 2.81164E-10 2.19344E-11-5.74981E-11
 -1       795 1.20190E-10 3.53232E-11-2.56681E-11
 -1       796 4.97126E-11 2.54885E-11-1.22123E-11
 -1       797 1.99022E-11 1.61164E-11-5.56142E-12
 -1       798 7.42058E-12 9.14553E-12-2.52965E-12
 -1       799 2.63468E-12 4.56769E-12-1.13637E-12
 -1       800 6.84673E-13 1.93606E-12-6.15461E-13
 -1       801 2.26371E-13 7.03119E-14-4.48579E-13
 -1       802 6.28029E-13-1.75452E-12-6.24715E-13
 -1       803 2.32468E-12-4.39488E-12-1.10077E-12
 -1       804 7.31806E-12-8.76104E-12-2.40498E-12
 -1       805 1.96143E-11-1.55830E-11-5.24234E-12
 -1       806 5.09855E-11-2.59374E-11-1.24575E-11
 -1       807 1.22310E-10-3.48391E-11-2.59591E-11
 -1       808 2.76282E-10-2.19450E-11-5.57595E-11
 -1       809 5.97731E-10 7.47994E-11-1.27500E-10
 -1       810 1.24287E-09 4.26423E-10-2.84537E-10
 -1       811 2.50237E-09 1.42497E-09-5.86696E-10
 -1       812 4.83297E-09 4.33634E-09-1.25266E-09
 -1       813 8.07932E-09 1.18690E-08-2.35633E-09
 -1       814 1.09795E-08 2.41191E-08-4.77341E-09
 -1       815 1.74658E-08 3.27525E-08-1.02238E-08
 -1       816 3.52823E-08 3.49530E-08-2.07132E-08
 -1       817 6.99672E-08-3.70516E-08-3.72297E-08
 -1       818 1.20013E-07-4.01691E-08-5.16594E-08
 -1       819 7.00689E-08 3.72769E-08-3.68650E-08
 -1       820 1.20426E-07 4.03033E-08-5.13351E-08
 -1       821 7.03076E-08 3.71830E-08 3.76680E-08
 -1       822 1.20675E-07 4.04656E-08 5.20768E-08
 -1       823 4.82035E-08 3.22878E-08 2.63964E-08
 -1       824 4.54680E-08 3.07674E-08 2.15429E-08
 -1       825 4.23662E-08 2.97574E-08 1.56456E-08
 -1       826 4.08914E-08 2.90869E-08 9.51636E-09
 -1       827 4.01709E-08 2.92491E-08 3.28842E-09
 -1       828 4.00402E-08 2.94973E-08-2.84999E-09
 -1       829 4.08001E-08 2.96244E-08-9.15529E-09
 -1       830 4.26120E-08 3.00882E-08-1.50556E-08
 -1       831 4.45715E-08 3.07490E-08-2.07988E-08
 -1       832 4.77705E-08 3.25117E-08-2.60132E-08
 -1       833 7.02035E-08-3.74770E-08 3.72878E-08
 -1       834 1.20372E-07-4.03641E-08 5.18281E-08
 -1       835 4.80351E-08-3.23214E-08 2.63459E-08
 -1       836 4.46225E-08-3.01178E-08 2.13123E-08
 -1       837 4.23862E-08-2.95553E-08 1.52005E-08
 -1       838 4.12097E-08-2.92290E-08 9.02966E-09
 -1       839 4.04785E-08-2.95452E-08 3.11507E-09
 -1       840 4.02428E-08-3.06750E-08-3.19991E-09
 -1       841 4.11485E-08-3.01527E-08-9.38901E-09
 -1       842 4.26711E-08-3.03603E-08-1.51962E-08
 -1       843 4.46787E-08-3.06749E-08-2.12153E-08
 -1       844 4.77979E-08-3.24234E-08-2.62721E-08
 -1       845 3.41490E-08-3.50078E-08 2.02796E-08
 -1       846 1.75889E-08-3.26631E-08 1.00186E-08
 -1       847 1.13553E-08-2.51292E-08 5.05625E-09
 -1       848 8.52574E-09-1.34652E-08 2.80302E-09
 -1       849 5.34593E-09-5.18488E-09 1.56506E-09
 -1       850 2.83729E-09-1.86494E-09 6.69417E-10
 -1       851 1.38033E-09-4.87213E-10 2.97843E-10
 -1       852 6.26986E-10-8.03367E-11 1.28722E-10
 -1       853 2.84348E-10 1.80842E-11 5.85868E-11
 -1       854 1.22509E-10 3.36339E-11 2.67722E-11
 -1       855 5.09858E-11 2.48712E-11 1.08375E-11
 -1       856 2.04055E-11 1.64519E-11 5.23331E-12
 -1       857 7.60745E-12 9.03209E-12 2.45748E-12
 -1       858 2.64623E-12 4.64447E-12 1.21467E-12
 -1       859 6.77470E-13 1.95521E-12 6.24909E-13
 -1       860 1.84049E-13 1.23871E-13 4.47865E-13
 -1       861 5.99782E-13-1.68041E-12 6.16915E-13
 -1       862 2.29277E-12-4.30237E-12 1.11350E-12
 -1       863 7.09252E-12-8.80006E-12 2.39519E-12
 -1       864 1.93034E-11-1.60057E-11 5.20175E-12
 -1       865 5.02350E-11-2.51623E-11 1.16553E-11
 -1       866 1.18251E-10-3.32520E-11 2.55352E-11
 -1       867 2.71802E-10-2.28584E-11 5.58723E-11
 -1       868 5.93341E-10 6.80378E-11 1.22379E-10
 -1       869 1.22285E-09 4.18902E-10 2.70565E-10
 -1       870 2.42263E-09 1.38080E-09 5.82371E-10
 -1       871 4.78018E-09 4.25910E-09 1.25571E-09
 -1       872 8.27234E-09 1.18021E-08 2.50112E-09
 -1       873 1.11267E-08 2.42354E-08 4.88469E-09
 -1       874 1.80387E-08 3.26631E-08 1.05719E-08
 -1       875 3.54273E-08 3.50323E-08 2.08616E-08
 -1       876 6.21056E-06-2.78121E-07-6.89333E-09
 -1       877 6.20376E-06-2.82311E-07 9.02629E-08
 -1       878 6.21046E-06 2.28852E-07-1.57223E-08
 -1       879 6.20215E-06 2.19977E-07 8.31578E-08
 -1       880 5.71769E-06-7.92766E-07 7.06040E-08
 -1       881 6.07275E-06-4.05938E-07 4.26460E-08
 -1       882 5.72238E-06-7.91289E-07 1.68258E-08
 -1       883 5.26091E-06-1.24517E-06 2.50919E-08
 -1       884 5.27133E-06-1.23868E-06 6.03994E-08
 -1       885 4.81315E-06-1.72092E-06 8.44241E-08
 -1       886 4.44035E-06-2.05071E-06 1.16663E-07
 -1       887 5.04867E-06-1.44200E-06 4.18031E-08
 -1       888 4.06406E-06-2.14741E-06 1.21988E-07
 -1       889 3.63159E-06-1.97363E-06 1.03533E-07
 -1       890 4.25119E-06-2.09756E-06 3.39524E-08
 -1       891 3.07665E-06-1.58062E-06 8.24366E-08
 -1       892 2.42598E-06-1.05959E-06 9.77119E-09
 -1       893 3.38498E-06-1.77364E-06 2.51743E-08
 -1       894 1.90436E-06-5.36794E-07-1.51555E-08
 -1       895 1.66279E-06-1.44685E-07-4.53490E-08
 -1       896 2.12263E-06-7.25849E-07 1.12435E-08
 -1       897 1.66043E-06 1.33874E-07-4.82721E-08
 -1       898 1.90303E-06 5.42569E-07-2.68423E-08
 -1       899 1.65843E-06-3.67233E-09 1.80367E-09
 -1       900 2.44878E-06 1.06274E-06 9.23517E-09
 -1       901 3.07244E-06 1.56975E-06 5.93696E-08
 -1       902 2.13521E-06 7.54565E-07 1.42512E-09
 -1       903 3.63686E-06 1.96707E-06 8.27768E-08
 -1       904 4.06360E-06 2.12174E-06 9.62766E-08
 -1       905 3.36886E-06 1.74891E-06 2.60162E-09
 -1       906 4.43784E-06 2.00807E-06 8.87863E-08
 -1       907 4.80947E-06 1.67109E-06 5.71974E-08
 -1       908 4.24967E-06 2.05799E-06 7.81016E-09
 -1       909 6.08439E-06 3.40809E-07 3.12526E-08
 -1       910 5.72027E-06 7.19997E-07 5.68656E-08
 -1       911 5.26753E-06 1.16974E-06 4.52038E-09
 -1       912 5.72813E-06 7.29249E-07-4.80181E-09
 -1       913 4.43459E-06-2.05369E-06-4.34767E-08
 -1       914 4.80304E-06-1.72685E-06-3.36760E-09
 -1       915 3.61780E-06-1.98170E-06-4.95541E-08
 -1       916 4.05830E-06-2.15349E-06-6.06945E-08
 -1       917 2.41124E-06-1.05690E-06 1.89045E-08
 -1       918 3.05168E-06-1.58156E-06-3.84307E-08
 -1       919 1.66488E-06-1.43912E-07 5.15816E-08
 -1       920 1.89834E-06-5.32194E-07 2.99519E-08
 -1       921 1.90349E-06 5.36150E-07 2.97061E-08
 -1       922 1.66261E-06 1.27434E-07 5.31764E-08
 -1       923 3.06991E-06 1.56364E-06-5.50217E-08
 -1       924 2.44766E-06 1.05628E-06-5.44927E-09
 -1       925 4.05765E-06 2.11440E-06-8.38967E-08
 -1       926 3.63299E-06 1.95965E-06-7.50187E-08
 -1       927 4.80674E-06 1.65682E-06-2.75295E-08
 -1       928 4.43159E-06 2.00026E-06-6.92115E-08
 -1       929 5.26988E-06 1.18404E-06 3.58914E-08
 -1       930 5.04962E-06 1.38078E-06 1.72932E-08
 -1       931 0.00000E+00 0.00000E+00 0.00000E+00
 -1       932 0.00000E+00 0.00000E+00 0.00000E+00
 -1       933 0.00000E+00 0.00000E+00 0.00000E+00
 -1       934 0.00000E+00 0.00000E+00 0.00000E+00
 -1       935 0.00000E+00 0.00000E+00 0.00000E+00
 -1       936 0.00000E+00 0.00000E+00 0.00000E+00
 -1       937 0.00000E+00 0.00000E+00 0.00000E+00
 -1       938 0.00000E+00 0.00000E+00 0.00000E+00
 -1       939 0.00000E+00 0.00000E+00 0.00000E+00
 -1       940 0.00000E+00 0.00000E+00 0.00000E+00
 -1       941 0.00000E+00 0.00000E+00 0.00000E+00
 -1       942 0.00000E+00 0.00000E+00 0.00000E+00
 -1       943 0.00000E+00 0.00000E+00 0.00000E+00
 -1       944 0.00000E+00 0.00000E+00 0.00000E+00
 -1       945 0.00000E+00 0.00000E+00 0.00000E+00
 -1       946 0.00000E+00 0.00000E+00 0.00000E+00
 -1       947 0.00000E+00 0.00000E+00 0.00000E+00
 -1       948 0.00000E+00 0.00000E+00 0.00000E+00
 -1       949 0.00000E+00 0.00000E+00 0.00000E+00
 -1       950 0.00000E+00 0.00000E+00 0.00000E+00
 -1       951 0.00000E+00 0.00000E+00 0.00000E+00
 -1       952 0.00000E+00 0.00000E+00 0.00000E+00
 -1       953 0.00000E+00 0.00000E+00 0.00000E+00
 -1       954 0.00000E+00 0.00000E+00 0.00000E+00
 -1       955 0.00000E+00 0.00000E+00 0.00000E+00
 -1       956 0.00000E+00 0.00000E+00 0.00000E+00
 -1       957 0.00000E+00 0.00000E+00 0.00000E+00
 -1       958 0.00000E+00 0.00000E+00 0.00000E+00
 -1       959 0.00000E+00 0.00000E+00 0.00000E+00
 -1       960 0.00000E+00 0.00000E+00 0.00000E+00
 -1       961 0.00000E+00 0.00000E+00 0.00000E+00
 -1       962 0.00000E+00 0.00000E+00 0.00000E+00
 -1       963 0.00000E+00 0.00000E+00 0.00000E+00
 -1       964 0.00000E+00 0.00000E+00 0.00000E+00
 -1       965 0.00000E+00 0.00000E+00 0.00000E+00
 -1       966 0.00000E+00 0.00000E+00 0.00000E+00
 -1       967 0.00000E+00 0.00000E+00 0.00000E+00
 -1       968 0.00000E+00 0.00000E+00 0.00000E+00
 -1       969 0.00000E+00 0.00000E+00 0.00000E+00
 -1       970 0.00000E+00 0.00000E+00 0.00000E+00
 -1       971 0.00000E+00 0.00000E+00 0.00000E+00
 -1       972 0.00000E+00 0.00000E+00 0.00000E+00
 -1       973 0.00000E+00 0.00000E+00 0.00000E+00
 -1       974 0.00000E+00 0.00000E+00 0.00000E+00
 -1       975 0.00000E+00 0.00000E+00 0.00000E+00
 -1       976 0.00000E+00 0.00000E+00 0.00000E+00
 -1       977 0.00000E+00 0.00000E+00 0.00000E+00
 -1       978 0.00000E+00 0.00000E+00 0.00000E+00
 -1       979 0.00000E+00 0.00000E+00 0.00000E+00
 -1       980 0.00000E+00 0.00000E+00 0.00000E+00
 -1       981 0.00000E+00 0.00000E+00 0.00000E+00
 -1       982 0.00000E+00 0.00000E+00 0.00000E+00
 -1       983 0.00000E+00 0.00000E+00 0.00000E+00
 -1       984 0.00000E+00 0.00000E+00 0.00000E+00
 -1       985 0.00000E+00 0.00000E+00 0.00000E+00
 -1       986 0.00000E+00 0.00000E+00 0.00000E+00
 -1       987 0.00000E+00 0.00000E+00 0.00000E+00
 -1       988 0.00000E+00 0.00000E+00 0.00000E+00
 -1       989 0.00000E+00 0.00000E+00 0.00000E+00
 -1       990 0.00000E+00 0.00000E+00 0.00000E+00
 -1       991 0.00000E+00 0.00000E+00 0.00000E+00
 -1       992 0.00000E+00 0.00000E+00 0.00000E+00
 -1       993 0.00000E+00 0.00000E+00 0.00000E+00
 -1       994 0.00000E+00 0.00000E+00 0.00000E+00
 -1       995 0.00000E+00 0.00000E+00 0.00000E+00
 -1       996 0.00000E+00 0.00000E+00 0.00000E+00
 -1       997 0.00000E+00 0.00000E+00 0.00000E+00
 -1       998 0.00000E+00 0.00000E+00 0.00000E+00
 -1       999 0.00000E+00 0.00000E+00 0.00000E+00
 -1      1000 0.00000E+00 0.00000E+00 0.00000E+00
 -1      1001 0.00000E+00 0.00000E+00 0.00000E+00
 -1      1002 0.00000E+00 0.00000E+00 0.00000E+00
 -1      1003 0.00000E+00 0.00000E+00 0.00000E+00
 -1      1004 0.00000E+00 0.00000E+00 0.00000E+00
 -1      1005 0.00000E+00 0.00000E+00 0.00000E+00
 -1      1006 0.00000E+00 0.00000E+00 0.00000E+00
 -1      1007 0.00000E+00 0.00000E+00 0.00000E+00
 -1      1008 0.00000E+00 0.00000E+00 0.00000E+00
 -1      1009 0.00000E+00 0.00000E+00 0.00000E+00
 -1      1010 0.00000E+00 0.00000E+00 0.00000E+00
 -1      1011 0.00000E+00 0.00000E+00 0.00000E+00
 -1      1012 0.00000E+00 0.00000E+00 0.00000E+00
 -1      1013 0.00000E+00 0.00000E+00 0.00000E+00
 -1      1014 0.00000E+00 0.00000E+00 0.00000E+00
 -1      1015 0.00000E+00 0.00000E+00 0.00000E+00
 -1      1016 0.00000E+00 0.00000E+00 0.00000E+00
 -1      1017 0.00000E+00 0.00000E+00 0.00000E+00
 -1      1018 0.00000E+00 0.00000E+00 0.00000E+00
 -1      1019 0.00000E+00 0.00000E+00 0.00000E+00
 -1      1020 0.00000E+00 0.00000E+00 0.00000E+00
 -1      1021 0.00000E+00 0.00000E+00 0.00000E+00
 -1      1022 0.00000E+00 0.00000E+00 0.00000E+00
 -1      1023 0.00000E+00 0.00000E+00 0.00000E+00
 -1      1024 0.00000E+00 0.00000E+00 0.00000E+00
 -1      1025 0.00000E+00 0.00000E+00 0.00000E+00
 -1      1026 0.00000E+00 0.00000E+00 0.00000E+00
 -1      1027 0.00000E+00 0.00000E+00 0.00000E+00
 -1      1028 0.00000E+00 0.00000E+00 0.00000E+00
 -1      1029 0.00000E+00 0.00000E+00 0.00000E+00
 -1      1030 0.00000E+00 0.00000E+00 0.00000E+00
 -1      1031 0.00000E+00 0.00000E+00 0.00000E+00
 -1      1032 0.00000E+00 0.00000E+00 0.00000E+00
 -1      1033 0.00000E+00 0.00000E+00 0.00000E+00
 -1      1034 0.00000E+00 0.00000E+00 0.00000E+00
 -1      1035 0.00000E+00 0.00000E+00 0.00000E+00
 -1      1036 0.00000E+00 0.00000E+00 0.00000E+00
 -1      1037 0.00000E+00 0.00000E+00 0.00000E+00
 -1      1038 0.00000E+00 0.00000E+00 0.00000E+00
 -1      1039 0.00000E+00 0.00000E+00 0.00000E+00
 -1      1040 0.00000E+00 0.00000E+00 0.00000E+00
 -1      1041 0.00000E+00 0.00000E+00 0.00000E+00
 -1      1042 0.00000E+00 0.00000E+00 0.00000E+00
 -1      1043 0.00000E+00 0.00000E+00 0.00000E+00
 -1      1044 0.00000E+00 0.00000E+00 0.00000E+00
 -1      1045 0.00000E+00 0.00000E+00 0.00000E+00
 -1      1046 0.00000E+00 0.00000E+00 0.00000E+00
 -1      1047 0.00000E+00 0.00000E+00 0.00000E+00
 -1      1048 0.00000E+00 0.00000E+00 0.00000E+00
 -1      1049 0.00000E+00 0.00000E+00 0.00000E+00
 -1      1050 0.00000E+00 0.00000E+00 0.00000E+00
 -1      1051 0.00000E+00 0.00000E+00 0.00000E+00
 -1      1052 0.00000E+00 0.00000E+00 0.00000E+00
 -1      1053 0.00000E+00 0.00000E+00 0.00000E+00
 -1      1054 0.00000E+00 0.00000E+00 0.00000E+00
 -1      1055 0.00000E+00 0.00000E+00 0.00000E+00
 -1      1056 0.00000E+00 0.00000E+00 0.00000E+00
 -1      1057 0.00000E+00 0.00000E+00 0.00000E+00
 -1      1058 0.00000E+00 0.00000E+00 0.00000E+00
 -1      1059 0.00000E+00 0.00000E+00 0.00000E+00
 -1      1060 0.00000E+00 0.00000E+00 0.00000E+00
 -1      1061 0.00000E+00 0.00000E+00 0.00000E+00
 -1      1062 0.00000E+00 0.00000E+00 0.00000E+00
 -1      1063 0.00000E+00 0.00000E+00 0.00000E+00
 -1      1064 0.00000E+00 0.00000E+00 0.00000E+00
 -1      1065 0.00000E+00 0.00000E+00 0.00000E+00
 -1      1066 0.00000E+00 0.00000E+00 0.00000E+00
 -1      1067 0.00000E+00 0.00000E+00 0.00000E+00
 -1      1068 0.00000E+00 0.00000E+00 0.00000E+00
 -1      1069 0.00000E+00 0.00000E+00 0.00000E+00
 -1      1070 0.00000E+00 0.00000E+00 0.00000E+00
 -1      1071 0.00000E+00 0.00000E+00 0.00000E+00
 -1      1072 0.00000E+00 0.00000E+00 0.00000E+00
 -1      1073 0.00000E+00 0.00000E+00 0.00000E+00
 -1      1074 0.00000E+00 0.00000E+00 0.00000E+00
 -1      1075 0.00000E+00 0.00000E+00 0.00000E+00
 -1      1076 0.00000E+00 0.00000E+00 0.00000E+00
 -1      1077 0.00000E+00 0.00000E+00 0.00000E+00
 -1      1078 2.81592E-06-1.39749E-08 5.70194E-08
 -1      1079 2.81441E-06-1.78687E-08-5.72449E-08
 -1      1080 2.89845E-06 2.48485E-09-5.13581E-08
 -1      1081 2.91327E-06 1.30863E-08 7.04863E-08
 -1      1082 3.57000E-06-3.45419E-07 3.61852E-08
 -1      1083 3.55733E-06-3.46696E-07-1.31631E-08
 -1      1084 3.10052E-06 9.22387E-08 2.63971E-10
 -1      1085 3.71113E-06 4.99915E-07-2.37361E-08
 -1      1086 4.12233E-06 1.06216E-06 1.07861E-08
 -1      1087 3.71528E-06 5.05239E-07 1.65893E-08
 -1      1088 4.12876E-06 1.07025E-06-2.19998E-08
 -1      1089 3.95398E-06 1.99361E-06-3.50524E-08
 -1      1090 4.10267E-06 2.12222E-06-4.22304E-08
 -1      1091 4.66385E-06 1.88585E-07 3.62987E-08
 -1      1092 4.23727E-06 6.47674E-07 8.82640E-09
 -1      1093 6.26152E-06-1.21485E-07 9.08970E-08
 -1      1094 6.04199E-06-2.56152E-07 8.10033E-08
 -1      1095 5.19625E-06 8.68997E-08 7.82638E-08
 -1      1096 5.69135E-06 2.32046E-07 9.26618E-08
 -1      1097 4.13308E-06-2.14983E-06-2.06062E-09
 -1      1098 3.98392E-06-2.02854E-06 6.27599E-09
 -1      1099 4.05852E-06-9.10597E-07 3.99841E-09
 -1      1100 4.09597E-06 2.10918E-06 3.55441E-08
 -1      1101 3.94824E-06 1.98072E-06 3.49276E-08
 -1      1102 4.23125E-06 6.38349E-07 2.28792E-08
 -1      1103 4.65605E-06 1.80705E-07 8.30004E-09
 -1      1104 6.03006E-06-2.62846E-07 2.16305E-09
 -1      1105 6.24854E-06-1.28834E-07 2.80293E-09
 -1      1106 5.67937E-06 2.23335E-07 1.91382E-08
 -1      1107 5.18530E-06 7.83422E-08 3.49889E-08
 -1      1108 3.97429E-06-2.02992E-06 7.64924E-08
 -1      1109 4.12103E-06-2.15002E-06 7.45219E-08
 -1      1110 4.04652E-06-9.10286E-07 2.86078E-08
 -1      1111 4.28801E-06-2.00786E-06-6.16039E-09
 -1      1112 4.22609E-06-2.09088E-06 3.10098E-08
 -1      1113 4.32299E-06-1.63896E-06-2.44288E-09
 -1      1114 4.69946E-06-2.22065E-07 6.99081E-08
 -1      1115 4.93353E-06-4.79252E-08 5.68929E-08
 -1      1116 4.27780E-06-6.65925E-07 4.62610E-08
 -1      1117 6.26939E-06 5.61823E-08 9.48922E-08
 -1      1118 6.26302E-06-3.54138E-08 5.04682E-08
 -1      1119 6.06647E-06 1.94818E-07 9.39236E-08
 -1      1120 3.89015E-06 1.65400E-06-2.50062E-08
 -1      1121 3.90461E-06 1.82462E-06 8.37439E-10
 -1      1122 3.97073E-06 1.17360E-06-4.07158E-09
 -1      1123 4.25185E-06 2.00388E-06-4.28534E-08
 -1      1124 4.30280E-06 1.64393E-06-3.49215E-08
 -1      1125 4.09975E-06 9.06594E-07 1.23311E-08
 -1      1126 4.21621E-06 1.33029E-06-6.64417E-09
 -1      1127 5.84441E-06-2.70896E-07 4.01645E-08
 -1      1128 5.65308E-06-2.80812E-07 7.15942E-08
 -1      1129 5.16121E-06-1.26528E-07 5.06263E-08
 -1      1130 5.64253E-06-2.87323E-07-2.24861E-10
 -1      1131 5.87856E-06 2.12311E-07 5.63025E-08
 -1      1132 3.93106E-06-1.86813E-06 4.35510E-08
 -1      1133 3.91738E-06-1.68615E-06 1.74772E-08
 -1      1134 4.00337E-06-1.19378E-06 3.68001E-08
 -1      1135 3.90771E-06-1.69145E-06 7.70927E-08
 -1      1136 4.16220E-06-1.13906E-06 1.82463E-08
 -1      1137 4.24522E-06 1.99165E-06 3.23211E-08
 -1      1138 4.18731E-06 2.06952E-06-6.01667E-09
 -1      1139 3.88426E-06 1.64204E-06 3.43886E-08
 -1      1140 4.89608E-06 8.05077E-09 2.65548E-08
 -1      1141 4.29519E-06 1.63320E-06 2.21809E-08
 -1      1142 5.15190E-06-1.33684E-07 8.05992E-09
 -1      1143 3.96542E-06 1.16299E-06 2.36145E-08
 -1      1144 6.25691E-06 4.85147E-08 6.67948E-09
 -1      1145 4.68926E-06-2.29765E-07 4.12858E-08
 -1      1146 6.05385E-06 1.86409E-07 1.40029E-08
 -1      1147 4.27801E-06-2.01576E-06 6.32933E-08
 -1      1148 4.26907E-06-6.72336E-07 6.10592E-08
 -1      1149 3.99396E-06-1.19988E-06 6.51870E-08
 -1      1150 4.30984E-06-1.63685E-06 5.06701E-08
 -1      1151 4.12902E-06-9.42344E-07 5.22222E-08
 -1      1152 1.65383E-07 5.03950E-08 4.82091E-08
 -1      1153 2.25020E-07 6.13299E-08 4.46209E-08
 -1      1154 1.99088E-07 5.73925E-08 4.54393E-08
 -1      1155 3.82720E-07 7.05373E-08 3.59602E-08
 -1      1156 3.31024E-07 6.91832E-08 3.60065E-08
 -1      1157 6.62713E-07 7.16018E-08 2.68254E-08
 -1      1158 5.72258E-07 7.16170E-08 2.63631E-08
 -1      1159 9.93064E-07 7.23238E-08 1.39511E-09
 -1      1160 8.59070E-07 7.18413E-08 1.28137E-09
 -1      1161 1.15553E-06 7.16120E-08 1.44970E-09
 -1      1162 1.77173E-06-4.04667E-08 6.04074E-08
 -1      1163 1.58986E-07 4.98687E-08 4.05440E-08
 -1      1164 1.58886E-07 5.02235E-08 3.51057E-08
 -1      1165 1.61342E-07 5.10999E-08 3.00646E-08
 -1      1166 1.60318E-07 5.12408E-08 2.47698E-08
 -1      1167 1.77212E-07 5.42441E-08 3.37188E-08
 -1      1168 1.58765E-07 5.12177E-08 1.88801E-08
 -1      1169 1.58723E-07 5.14803E-08 1.37322E-08
 -1      1170 1.78316E-07 5.49913E-08 2.27927E-08
 -1      1171 1.57061E-07 5.12218E-08 7.90460E-09
 -1      1172 1.57204E-07 5.11616E-08 2.84142E-09
 -1      1173 1.75962E-07 5.47553E-08 1.12582E-08
 -1      1174 1.57492E-07 5.13612E-08-2.38778E-09
 -1      1175 1.57806E-07 5.13208E-08-7.51373E-09
 -1      1176 1.75107E-07 5.50282E-08 1.31055E-10
 -1      1177 1.58224E-07 5.12698E-08-1.30784E-08
 -1      1178 1.58446E-07 5.12918E-08-1.81639E-08
 -1      1179 1.76023E-07 5.51256E-08-1.08400E-08
 -1      1180 1.57328E-07 5.08117E-08-2.36736E-08
 -1      1181 1.57919E-07 5.06125E-08-2.90071E-08
 -1      1182 1.75099E-07 5.43081E-08-2.19547E-08
 -1      1183 1.54776E-07 4.96667E-08-3.34537E-08
 -1      1184 1.55871E-07 4.94305E-08-3.89625E-08
 -1      1185 1.70734E-07 5.30181E-08-3.19042E-08
 -1      1186 1.57289E-07 4.90761E-08-4.33624E-08
 -1      1187 1.58245E-07 4.87320E-08-4.89359E-08
 -1      1188 1.77310E-07 5.30494E-08-4.83538E-08
 -1      1189 1.69055E-07 5.20619E-08-4.05935E-08
 -1      1190 1.74054E-06-3.09258E-08-5.29008E-08
 -1      1191 2.52093E-07 6.44531E-08-3.84531E-08
 -1      1192 2.89759E-07 6.74071E-08-3.78193E-08
 -1      1193 3.34721E-07 6.93882E-08-3.19254E-08
 -1      1194 3.86483E-07 7.07216E-08-3.17736E-08
 -1      1195 3.12723E-07 6.83641E-08-2.11006E-08
 -1      1196 4.45926E-07 7.14856E-08-3.40544E-08
 -1      1197 5.11321E-07 7.17438E-08-3.43681E-08
 -1      1198 4.17131E-07 7.09874E-08-1.74043E-08
 -1      1199 5.72097E-07 7.17127E-08-2.39817E-08
 -1      1200 6.62558E-07 7.17200E-08-2.42406E-08
 -1      1201 1.31919E-06 6.93436E-08 1.17184E-09
 -1      1202 1.56832E-06 6.26863E-09 2.95605E-09
 -1      1203 2.92389E-07 6.73829E-08 4.04934E-08
 -1      1204 2.54708E-07 6.44895E-08 4.11137E-08
 -1      1205 5.02158E-07 7.15580E-08 3.41368E-08
 -1      1206 4.36885E-07 7.12243E-08 3.37266E-08
 -1      1207 7.27136E-07 7.15872E-08 1.05798E-09
 -1      1208 2.43054E-07 6.34486E-08 3.48278E-08
 -1      1209 1.94159E-07 5.67416E-08-4.52153E-08
 -1      1210 2.20339E-07 6.09358E-08-4.42804E-08
 -1      1211 5.28027E-07 7.15540E-08 9.61217E-09
 -1      1212 1.23525E-08 2.63652E-08 2.36682E-10
 -1      1213 1.27958E-08 2.65541E-08-3.34601E-09
 -1      1214 1.10574E-08 2.56319E-08-1.07009E-09
 -1      1215 4.04103E-07 7.07521E-08 1.98408E-08
 -1      1216 3.11382E-07 6.82171E-08 2.67269E-08
 -1      1217 2.35974E-07 6.28995E-08-3.28749E-08
 -1      1218 3.10963E-07 6.82160E-08 1.37386E-08
 -1      1219 2.72124E-07 6.59811E-08 1.83617E-08
 -1      1220 1.43481E-06 5.27356E-08-9.69337E-10
 -1      1221 2.02501E-07 5.87644E-08 2.62206E-08
 -1      1222 2.01633E-07 5.87322E-08 2.04570E-08
 -1      1223 1.95074E-07 5.80578E-08 1.42703E-08
 -1      1224 1.93838E-07 5.80042E-08 8.46338E-09
 -1      1225 2.18836E-07 6.12328E-08 1.75948E-08
 -1      1226 1.93300E-07 5.78526E-08 2.79622E-09
 -1      1227 1.93721E-07 5.80668E-08-2.57442E-09
 -1      1228 2.11930E-07 6.05900E-08 5.78649E-09
 -1      1229 2.00739E-07 5.89587E-08-8.69956E-09
 -1      1230 2.01111E-07 5.89289E-08-1.42836E-08
 -1      1231 2.18210E-07 6.13390E-08-5.97452E-09
 -1      1232 1.94066E-07 5.78624E-08-2.06103E-08
 -1      1233 1.92831E-07 5.73686E-08-2.61351E-08
 -1      1234 2.18082E-07 6.12008E-08-1.83321E-08
 -1      1235 2.69474E-07 6.59896E-08-1.11870E-08
 -1      1236 3.14746E-07 6.83937E-08-5.28237E-09
 -1      1237 4.07991E-07 7.07922E-08 1.10771E-09
 -1      1238 4.67666E-07 7.13505E-08-1.03476E-09
 -1      1239 5.37383E-07 7.16167E-08-9.17270E-09
 -1      1240 2.07627E-07 5.95492E-08-3.17308E-08
 -1      1241 2.39731E-07 6.34233E-08-2.59448E-08
 -1      1242 1.96711E-07 5.75097E-08 3.37007E-08
 -1      1243 2.19159E-07 6.08777E-08 3.10462E-08
 -1      1244 1.80280E-07 5.38630E-08 4.60279E-08
 -1      1245 1.94382E-07 5.69814E-08 3.86959E-08
 -1      1246 2.46564E-07 6.40857E-08-1.97402E-08
 -1      1247 1.89302E-07 5.64335E-08-3.33143E-08
 -1      1248 1.86281E-07 5.56835E-08-3.77415E-08
 -1      1249 1.87384E-07 5.56774E-08-4.18410E-08
 -1      1250 2.49119E-07 6.41237E-08 2.75929E-08
 -1      1251 3.54095E-07 6.96756E-08 3.50404E-09
 -1      1252 2.48258E-07 6.42433E-08 1.42743E-08
 -1      1253 9.37818E-09 2.37179E-08-2.25662E-09
 -1      1254 1.27459E-08 2.75870E-08-5.89161E-09
 -1      1255 1.05500E-08 2.44788E-08-3.83579E-09
 -1      1256 2.42178E-07 6.37422E-08 8.21295E-09
 -1      1257 2.41687E-07 6.37695E-08 2.60661E-09
 -1      1258 2.48282E-07 6.43075E-08-3.40023E-09
 -1      1259 1.65806E-07-5.06236E-08 4.77297E-08
 -1      1260 2.01629E-07-5.78027E-08 4.49552E-08
 -1      1261 2.29189E-07-6.18870E-08 4.42262E-08
 -1      1262 2.59411E-07-6.49490E-08 4.09507E-08
 -1      1263 2.96900E-07-6.75131E-08 4.03982E-08
 -1      1264 2.47736E-07-6.39027E-08 3.47418E-08
 -1      1265 4.83115E-07-7.11277E-08 2.94390E-08
 -1      1266 5.71367E-07-7.12197E-08 2.99831E-08
 -1      1267 6.72105E-07-7.10972E-08 2.68404E-08
 -1      1268 7.84712E-07-7.10210E-08 2.73685E-08
 -1      1269 6.22772E-07-7.10980E-08 5.46427E-09
 -1      1270 9.65344E-07-7.14431E-08 1.16511E-09
 -1      1271 1.12773E-06-7.16662E-08 7.47872E-10
 -1      1272 1.32160E-06-6.70736E-08-2.74661E-11
 -1      1273 1.49168E-06-3.11825E-08 1.69395E-09
 -1      1274 1.58280E-07-4.97945E-08 3.48665E-08
 -1      1275 1.59281E-07-4.97822E-08 4.03466E-08
 -1      1276 1.58729E-07-5.14419E-08 1.31971E-08
 -1      1277 1.59715E-07-5.17166E-08 1.84388E-08
 -1      1278 1.56386E-07-5.09709E-08-7.93354E-09
 -1      1279 1.56132E-07-5.11413E-08-2.84878E-09
 -1      1280 1.59691E-07-5.04819E-08-3.17726E-08
 -1      1281 1.58713E-07-5.03881E-08-2.65421E-08
 -1      1282 1.67844E-07-5.10279E-08-4.74370E-08
 -1      1283 2.45217E-07-6.34905E-08-4.22712E-08
 -1      1284 2.12824E-07-5.94347E-08-4.32852E-08
 -1      1285 4.80356E-07-7.10614E-08-3.38203E-08
 -1      1286 3.94476E-07-7.03597E-08-3.35670E-08
 -1      1287 7.46132E-07-7.09564E-08-2.45285E-08
 -1      1288 6.31137E-07-7.10194E-08-2.41950E-08
 -1      1289 1.80688E-07-5.40529E-08 4.56681E-08
 -1      1290 1.84422E-07-5.48188E-08-4.24401E-08
 -1      1291 2.07163E-07-5.89272E-08-3.40128E-08
 -1      1292 1.96571E-07-5.71656E-08 3.85101E-08
 -1      1293 3.41198E-07-6.92727E-08 3.26327E-08
 -1      1294 4.05018E-07-7.05854E-08 3.26855E-08
 -1      1295 9.03543E-07-7.11794E-08-2.47022E-08
 -1      1296 1.56036E-07-5.04351E-08-1.39830E-08
 -1      1297 1.73506E-07-5.43579E-08-1.17049E-08
 -1      1298 1.55760E-07-5.03623E-08-1.89960E-08
 -1      1299 1.60419E-07-5.11416E-08 2.43682E-08
 -1      1300 1.60779E-07-5.09509E-08 2.95402E-08
 -1      1301 1.57735E-07-5.15277E-08 2.39447E-09
 -1      1302 1.57992E-07-5.15006E-08 7.48036E-09
 -1      1303 1.75575E-07-5.39960E-08-2.52823E-08
 -1      1304 1.77899E-07-5.43284E-08 3.35378E-08
 -1      1305 1.75322E-07-5.45804E-08-4.29966E-10
 -1      1306 3.41963E-07-6.91301E-08-3.54554E-08
 -1      1307 2.85699E-07-6.66751E-08-3.59507E-08
 -1      1308 1.79932E-07-5.52629E-08 2.23378E-08
 -1      1309 1.77865E-07-5.50340E-08 1.05680E-08
 -1      1310 2.76070E-07-6.59126E-08-2.85280E-08
 -1      1311 3.69223E-07-6.97523E-08-2.03445E-08
 -1      1312 4.44251E-07-7.07941E-08 1.23195E-08
 -1      1313 1.90634E-07-5.71251E-08-1.52344E-08
 -1      1314 1.90904E-07-5.72223E-08-9.08683E-09
 -1      1315 1.99520E-07-5.80114E-08 3.33743E-08
 -1      1316 1.71813E-06 1.85466E-08-1.09178E-10
 -1      1317 1.60422E-07-5.01873E-08-3.71337E-08
 -1      1318 2.04721E-07-5.88633E-08 2.59523E-08
 -1      1319 2.22666E-07-6.10526E-08 3.07625E-08
 -1      1320 1.98226E-07-5.85202E-08-3.57278E-09
 -1      1321 1.99691E-07-5.85641E-08 1.67929E-09
 -1      1322 2.14630E-07-6.05639E-08-7.04668E-09
 -1      1323 2.53121E-07-6.43735E-08 2.75835E-08
 -1      1324 2.04034E-07-5.89403E-08 2.01202E-08
 -1      1325 3.22133E-07-6.84986E-08 2.36183E-08
 -1      1326 1.92465E-07-5.71689E-08-2.11465E-08
 -1      1327 2.09081E-07-5.96622E-08-1.84107E-08
 -1      1328 1.94441E-07-5.72327E-08-2.84021E-08
 -1      1329 2.23339E-07-6.11995E-08-2.97151E-08
 -1      1330 1.97442E-07-5.81788E-08 7.81031E-09
 -1      1331 1.98515E-07-5.84068E-08 1.36743E-08
 -1      1332 2.22727E-07-6.14922E-08 1.71757E-08
 -1      1333 2.19612E-07-6.13891E-08 4.64121E-09
 -1      1334 2.77803E-07-6.61653E-08 1.94004E-08
 -1      1335 3.22178E-07-6.83886E-08 1.14509E-08
 -1      1336 5.31030E-07-7.10878E-08-2.02494E-08
 -1      1337 2.52831E-07-6.44008E-08 1.51678E-08
 -1      1338 2.97226E-07-6.72362E-08-7.87940E-09
 -1      1339 3.41553E-07-6.89325E-08-3.21609E-09
 -1      1340 4.72216E-07-7.09421E-08-4.86264E-09
 -1      1341 3.94239E-07-7.01587E-08-1.36217E-09
 -1      1342 2.86345E-07-6.66481E-08-1.89753E-08
 -1      1343 2.45500E-07-6.35149E-08-2.52915E-08
 -1      1344 2.38803E-07-6.32782E-08-8.55554E-09
 -1      1345 2.31687E-07-6.24141E-08-1.40693E-08
 -1      1346 2.47791E-07-6.40305E-08 8.87004E-09
 -1      1347 2.49975E-07-6.42196E-08 2.83404E-09
 -1      1348 2.33258E-07-6.25407E-08-1.98656E-08
 -1      1349 2.66601E-07-6.54371E-08-4.17335E-09
 -1      1350 3.36517E-08-3.93221E-08-1.87047E-08
 -1      1351 4.84508E-08-4.21423E-08-2.49794E-08
 -1      1352 1.09694E-08-2.02160E-08-4.24695E-09
 -1      1353 1.39047E-08-2.63367E-08-6.44906E-09
 -1      1354 5.69461E-09-6.40347E-09-1.54046E-09
 -1      1355 7.47380E-09-1.07986E-08-2.45409E-09
 -1      1356 2.86671E-09-1.90051E-09-6.91944E-10
 -1      1357 4.10310E-09-3.47790E-09-1.05320E-09
 -1      1358 1.34423E-09-5.32371E-10-2.79979E-10
 -1      1359 1.91170E-09-9.20257E-10-4.36958E-10
 -1      1360 8.21020E-10-1.74239E-10-1.68075E-10
 -1      1361 3.58309E-10 3.52301E-12-7.27401E-11
 -1      1362 5.67128E-10-6.66258E-11-1.17672E-10
 -1      1363 1.48029E-10 3.39711E-11-3.11072E-11
 -1      1364 2.37312E-10 2.49580E-11-5.07552E-11
 -1      1365 5.59337E-11 2.68291E-11-1.27196E-11
 -1      1366 9.31856E-11 3.21329E-11-2.11285E-11
 -1      1367 2.04621E-11 1.52713E-11-4.81213E-12
 -1      1368 3.18461E-11 2.07848E-11-8.02530E-12
 -1      1369 1.08618E-11 1.12503E-11-3.18507E-12
 -1      1370 3.42662E-12 5.74733E-12-1.41795E-12
 -1      1371 6.43031E-12 8.13895E-12-2.25654E-12
 -1      1372 8.98289E-13 2.47119E-12-5.46221E-13
 -1      1373 2.00402E-12 4.00291E-12-9.34693E-13
 -1      1374 1.47449E-13 7.30057E-13-3.12788E-13
 -1      1375 3.32742E-13 1.53371E-12-4.37521E-13
 -1      1376-1.34656E-14 6.65536E-14-2.90996E-13
 -1      1377 2.76993E-13-1.40824E-12-4.26584E-13
 -1      1378 6.00084E-14-7.17681E-13-2.80113E-13
 -1      1379 1.90578E-12-3.86077E-12-9.55851E-13
 -1      1380 8.24767E-13-2.43082E-12-5.97141E-13
 -1      1381 7.11652E-12-8.14245E-12-2.03916E-12
 -1      1382 3.55056E-12-5.65651E-12-1.35885E-12
 -1      1383 1.15251E-11-1.14077E-11-3.43429E-12
 -1      1384 3.36244E-11-2.13065E-11-8.46558E-12
 -1      1385 2.04933E-11-1.63421E-11-4.62030E-12
 -1      1386 9.09157E-11-3.16105E-11-2.07243E-11
 -1      1387 5.65038E-11-2.66233E-11-1.28329E-11
 -1      1388 2.29629E-10-2.57103E-11-4.80798E-11
 -1      1389 1.45455E-10-3.33700E-11-3.02523E-11
 -1      1390 5.73969E-10 8.61359E-11-1.11469E-10
 -1      1391 3.56219E-10-2.17878E-12-7.07509E-11
 -1      1392 8.25651E-10 1.79797E-10-1.75803E-10
 -1      1393 1.91974E-09 9.40124E-10-4.57613E-10
 -1      1394 1.29779E-09 4.71098E-10-2.83867E-10
 -1      1395 3.97402E-09 3.31574E-09-1.02888E-09
 -1      1396 2.77948E-09 1.79000E-09-6.64289E-10
 -1      1397 1.37757E-08 2.68651E-08-6.66100E-09
 -1      1398 1.06542E-08 1.96207E-08-4.32430E-09
 -1      1399 4.70562E-08 4.21063E-08-2.41499E-08
 -1      1400 3.38716E-08 3.94414E-08-1.82221E-08
 -1      1401 6.34421E-08-4.16004E-08-3.14433E-08
 -1      1402 8.22497E-08-3.99715E-08-3.89101E-08
 -1      1403 1.15081E-07-3.72817E-08-4.86599E-08
 -1      1404 1.34038E-07-3.81355E-08-5.16440E-08
 -1      1405 8.20950E-08 4.03059E-08-3.86249E-08
 -1      1406 6.31412E-08 4.15538E-08-3.11503E-08
 -1      1407 1.33992E-07 3.81994E-08-5.15726E-08
 -1      1408 1.14466E-07 3.72816E-08-4.80322E-08
 -1      1409 1.53672E-07-4.09297E-08-5.21442E-08
 -1      1410 1.74147E-07-4.62045E-08-5.18395E-08
 -1      1411 2.00105E-07-4.76158E-08-5.11362E-08
 -1      1412 2.33279E-07-5.22352E-08-5.03037E-08
 -1      1413 1.87613E-07-4.00675E-08-5.13093E-08
 -1      1414 4.08850E-07-4.82043E-08-4.91381E-08
 -1      1415 4.95981E-07-4.82804E-08-4.94177E-08
 -1      1416 6.04580E-07-3.38376E-08-5.00303E-08
 -1      1417 7.19359E-07-3.30185E-08-5.06785E-08
 -1      1418 5.57382E-07-1.07267E-08-4.98342E-08
 -1      1419 8.89272E-07-5.69189E-10-5.15657E-08
 -1      1420 1.05056E-06 1.38052E-09-5.27563E-08
 -1      1421 1.21906E-06 4.88875E-10-5.33780E-08
 -1      1422 1.42783E-06 1.27893E-09-6.18368E-08
 -1      1423 1.70668E-07 4.57025E-08-5.16331E-08
 -1      1424 1.53025E-07 4.10392E-08-5.19838E-08
 -1      1425 2.96820E-07 5.68080E-08-4.89328E-08
 -1      1426 2.58377E-07 5.42120E-08-4.95316E-08
 -1      1427 5.13718E-07 5.19595E-08-4.92672E-08
 -1      1428 4.47849E-07 5.19989E-08-4.89187E-08
 -1      1429 1.66305E-06-1.20730E-07-8.18116E-08
 -1      1430 1.60926E-06-2.77228E-08-8.16396E-08
 -1      1431 2.75235E-06 5.86343E-07-4.66148E-08
 -1      1432 2.08409E-06 1.92768E-07-5.11935E-08
 -1      1433 3.83431E-06 1.67725E-06-4.74359E-08
 -1      1434 3.38810E-06 1.13972E-06-5.11779E-08
 -1      1435 4.03262E-06 2.09154E-06-5.03444E-08
 -1      1436 4.13728E-06 2.10365E-06-3.14307E-08
 -1      1437 4.11274E-06 2.24359E-06-3.96499E-08
 -1      1438 4.52277E-06 1.20345E-06-4.02418E-09
 -1      1439 4.27737E-06 1.72049E-06-1.88223E-08
 -1      1440 4.96164E-06 7.03142E-07 9.42809E-09
 -1      1441 5.93283E-06 3.78067E-08 3.73170E-08
 -1      1442 5.44898E-06 2.69312E-07 2.67594E-08
 -1      1443 6.39251E-06-3.78952E-08 5.47870E-08
 -1      1444 6.27806E-06-4.79788E-08 5.29705E-08
 -1      1445 6.28856E-06-2.45560E-08 5.97751E-08
 -1      1446 5.45929E-06-3.39292E-07 4.96595E-08
 -1      1447 5.94901E-06-1.09083E-07 5.31876E-08
 -1      1448 4.53999E-06-1.26441E-06 2.75032E-08
 -1      1449 4.97297E-06-7.79234E-07 3.67028E-08
 -1      1450 4.28670E-06-1.79051E-06 1.42698E-08
 -1      1451 4.12921E-06-2.28924E-06-7.53089E-09
 -1      1452 4.15461E-06-2.16021E-06 1.96018E-09
 -1      1453 3.85794E-06-1.69874E-06-2.28126E-08
 -1      1454 4.05351E-06-2.13013E-06-2.23157E-08
 -1      1455 3.37513E-06-1.14521E-06-2.50205E-08
 -1      1456 2.04365E-06-2.03963E-07-3.78822E-08
 -1      1457 2.72764E-06-5.72343E-07-3.72708E-08
 -1      1458 4.95088E-08-3.83628E-09-3.34002E-08
 -1      1459 4.88317E-08-1.10472E-08-3.22779E-08
 -1      1460 1.96596E-08-2.10607E-08-9.91727E-09
 -1      1461 1.32102E-08-1.65382E-08-6.21171E-09
 -1      1462 5.39119E-09 5.67320E-09-1.42981E-09
 -1      1463 6.10585E-09 7.74414E-09-1.92411E-09
 -1      1464 9.97613E-09 1.32580E-08-3.91588E-09
 -1      1465 1.23733E-08 1.41362E-08-6.30107E-09
 -1      1466 1.79971E-08 1.73619E-08-9.91386E-09
 -1      1467 3.21603E-08 1.98212E-08-2.05678E-08
 -1      1468 3.53267E-08 1.58171E-08-2.41470E-08
 -1      1469 3.48029E-08 9.34890E-09-2.68484E-08
 -1      1470 3.56783E-08 3.04992E-09-2.63251E-08
 -1      1471 1.67587E-06-6.73839E-08 8.65404E-10
 -1      1472 1.66149E-06 5.01217E-08 4.50830E-09
 -1      1473 1.56049E-06-2.07776E-09-8.42754E-10
 -1      1474 1.65592E-08-2.47395E-08-7.94862E-09
 -1      1475 1.92969E-08-3.22040E-08-1.02293E-08
 -1      1476 5.57774E-09-7.07146E-09-1.82265E-09
 -1      1477 1.77467E-08 2.45083E-08-8.54682E-09
 -1      1478 7.03824E-09 1.03409E-08-2.29878E-09
 -1      1479 2.48110E-08 3.69794E-08-1.36500E-08
 -1      1480 1.70494E-08 3.21063E-08-9.25578E-09
 -1      1481 1.44813E-07-3.68148E-08-5.10587E-08
 -1      1482 5.44164E-08 4.31167E-08-2.64110E-08
 -1      1483 3.36373E-07-5.17345E-08-4.91146E-08
 -1      1484 3.76866E-07-2.99852E-08-4.94996E-08
 -1      1485 2.78873E-07-4.92255E-08-4.97050E-08
 -1      1486 8.29689E-07 3.77988E-08-5.10797E-08
 -1      1487 1.43452E-07 3.65821E-08-5.07460E-08
 -1      1488 1.56442E-06 1.39569E-08-7.17168E-08
 -1      1489 1.68467E-06 1.05923E-07-8.92945E-08
 -1      1490 2.22551E-07 5.29927E-08-5.01869E-08
 -1      1491 1.96066E-07 4.88045E-08-5.09412E-08
 -1      1492 3.92146E-07 5.86570E-08-4.86097E-08
 -1      1493 3.39613E-07 5.75830E-08-4.86687E-08
 -1      1494 6.98351E-07 3.81040E-08-5.04500E-08
 -1      1495 6.07330E-07 3.85925E-08-4.98960E-08
 -1      1496 9.14024E-09-1.20921E-08-3.90448E-09
 -1      1497 3.02094E-08 3.84217E-08-1.57310E-08
 -1      1498 7.09912E-08 1.76852E-08-3.92559E-08
 -1      1499 8.11208E-08 2.41172E-10-4.42491E-08
 -1      1500 5.63166E-08-4.31576E-08-2.73573E-08
 -1      1501 1.00696E-07-3.88701E-08-4.33029E-08
 -1      1502 1.11344E-07-3.59259E-08-4.57898E-08
 -1      1503 8.62186E-08-4.03629E-08-3.81423E-08
 -1      1504 9.87273E-08 3.88035E-08-4.27012E-08
 -1      1505 8.48041E-08 4.06632E-08-3.72661E-08
 -1      1506 1.10108E-07 3.62030E-08-4.50089E-08
 -1      1507 1.85367E-07 4.14979E-08-5.09855E-08
 -1      1508 3.25073E-07 4.56424E-08-4.91833E-08
 -1      1509 5.72344E-07 1.84222E-08-4.98273E-08
 -1      1510 2.60119E-08-2.04041E-08-1.54093E-08
 -1      1511 3.64850E-08-3.50080E-08-1.90160E-08
 -1      1512 4.23800E-07 3.91032E-08-4.91205E-08
 -1      1513 2.46059E-07 4.47856E-08-5.00014E-08
 -1      1514 3.35143E-08-1.73310E-08-2.11341E-08
 -1      1515 2.65857E-08-3.73294E-08-1.44873E-08
 -1      1516 9.33385E-08 2.43510E-08-4.30304E-08
 -1      1517 9.51947E-08 1.55779E-08-4.49681E-08
 -1      1518 1.27304E-07-3.39921E-08-4.84017E-08
 -1      1519 1.43447E-07-3.39740E-08-5.00375E-08
 -1      1520 1.89676E-07 3.47310E-08-5.07266E-08
 -1      1521 1.66017E-07 3.33481E-08-5.06276E-08
 -1      1522 1.48634E-06 1.51628E-08-6.11424E-08
 -1      1523 3.57898E-07 2.88580E-08-4.94185E-08
 -1      1524 3.14656E-07 2.91632E-08-4.97378E-08
 -1      1525 4.46857E-08-1.74394E-08-2.81129E-08
 -1      1526 6.79740E-08-3.14899E-08-3.44486E-08
 -1      1527 4.65825E-07 3.24281E-09-4.95469E-08
 -1      1528 2.57526E-07 3.39504E-08-5.01212E-08
 -1      1529 2.22105E-07 3.38193E-08-5.05072E-08
 -1      1530 2.89458E-07 1.90576E-08-5.01317E-08
 -1      1531 1.41768E-07 3.34058E-08-4.95306E-08
 -1      1532 1.26124E-07 3.34010E-08-4.78829E-08
 -1      1533 1.10232E-07 3.37398E-08-4.46308E-08
 -1      1534 1.46212E-07 2.91922E-08-4.95013E-08
 -1      1535 8.86706E-08-1.82088E-08-4.39149E-08
 -1      1536 1.15459E-07-2.59737E-08-4.70188E-08
 -1      1537 1.21358E-07-1.80003E-08-4.82241E-08
 -1      1538 3.26948E-08-3.80975E-08-1.69261E-08
 -1      1539 1.14594E-07 9.42301E-09-4.82677E-08
 -1      1540 1.24734E-07-1.60210E-09-4.92375E-08
 -1      1541 6.32917E-08 4.13449E-08-2.96076E-08
 -1      1542 4.95245E-08 4.07684E-08-2.40497E-08
 -1      1543 1.56160E-07-3.18273E-08-5.05103E-08
 -1      1544 1.79915E-07-3.17069E-08-5.08760E-08
 -1      1545 5.07109E-08-4.01190E-08-2.49157E-08
 -1      1546 6.32553E-08-4.04539E-08-2.99486E-08
 -1      1547 3.35171E-08 3.66997E-08-1.68789E-08
 -1      1548 2.54331E-08 3.30095E-08-1.27900E-08
 -1      1549 9.68910E-08 2.95710E-08-4.25060E-08
 -1      1550 1.21385E-07 2.63746E-08-4.72655E-08
 -1      1551 1.37321E-07-2.90104E-08-4.91414E-08
 -1      1552 7.20569E-08 3.88677E-08-3.32214E-08
 -1      1553 2.58531E-07-3.78821E-08-5.02751E-08
 -1      1554 2.21599E-07-9.07012E-09-5.09714E-08
 -1      1555 2.76944E-07-1.61749E-08-5.03655E-08
 -1      1556 2.48795E-07-2.42684E-08-5.06758E-08
 -1      1557 3.65225E-08 3.38650E-08-1.90041E-08
 -1      1558 1.76189E-07-3.81798E-09-5.09679E-08
 -1      1559 2.03033E-07 4.15544E-09-5.09937E-08
 -1      1560 3.98714E-07-6.00020E-09-4.95787E-08
 -1      1561 4.13194E-07 2.21091E-08-4.94110E-08
 -1      1562 1.37347E-07 1.52682E-08-4.95415E-08
 -1      1563 2.97148E-08 2.28860E-08-1.68276E-08
 -1      1564 6.33088E-08 3.24020E-08-3.20061E-08
 -1      1565 1.43401E-07-1.30740E-08-5.01370E-08
 -1      1566 1.67823E-08 2.77527E-08-8.16656E-09
 -1      1567 3.26253E-07-1.07884E-08-4.99839E-08
 -1      1568 8.49382E-08 3.28518E-08-3.89017E-08
 -1      1569 1.43569E-07 2.42108E-08-4.93933E-08
 -1      1570 1.11744E-07-3.39855E-08-4.53865E-08
 -1      1571 9.26019E-08-3.21192E-08-4.15957E-08
 -1      1572 1.05322E-07-2.93819E-08-4.48277E-08
 -1      1573 2.00910E-07 2.64431E-08-5.07514E-08
 -1      1574 7.22220E-08-3.79704E-08-3.37125E-08
 -1      1575 1.95517E-07 1.53937E-08-5.08800E-08
 -1      1576 2.41401E-07 1.19185E-08-5.06524E-08
 -1      1577 2.97671E-07 5.54732E-09-5.02009E-08
 -1      1578 1.64494E-07 1.82714E-08-5.04690E-08
 -1      1579 1.71017E-07-2.16363E-08-5.06618E-08
 -1      1580 2.04441E-07-2.78546E-08-5.09537E-08
 -1      1581 9.68092E-09-2.44221E-08 1.31628E-09
 -1      1582 1.29689E-08-2.65813E-08 2.10403E-09
 -1      1583 1.11719E-08-2.52867E-08 2.98987E-09
 -1      1584 1.24526E-08-2.67769E-08-2.25402E-09
 -1      1585 1.04432E-08-2.39100E-08-1.61828E-09
 -1      1586 1.10588E-08-2.47051E-08-3.41725E-09
 -1      1587 6.64823E-08 3.47857E-08 3.38861E-08
 -1      1588 1.17314E-07 4.06956E-08 4.57377E-08
 -1      1589 1.14256E-07 4.01180E-08 3.76331E-08
 -1      1590 8.94917E-08 3.63203E-08 3.89206E-08
 -1      1591 6.39289E-08 3.38160E-08 2.85020E-08
 -1      1592 1.13320E-07 4.06485E-08 3.23322E-08
 -1      1593 6.28567E-08 3.30222E-08 2.44828E-08
 -1      1594 5.82963E-08 3.24313E-08 1.30714E-08
 -1      1595 5.77145E-08 3.22740E-08 9.41875E-09
 -1      1596 5.76706E-08 3.26142E-08 5.73518E-09
 -1      1597 5.70202E-08 3.25618E-08 2.02614E-09
 -1      1598 7.93462E-08 3.55445E-08 8.63087E-09
 -1      1599 5.69936E-08 3.24912E-08-1.58669E-09
 -1      1600 5.76104E-08 3.25822E-08-5.21456E-09
 -1      1601 7.87624E-08 3.53410E-08 3.07935E-10
 -1      1602 5.78356E-08 3.25581E-08-8.84266E-09
 -1      1603 5.81875E-08 3.25758E-08-1.24553E-08
 -1      1604 7.87546E-08 3.56441E-08-7.99074E-09
 -1      1605 5.91908E-08 3.26771E-08-1.62991E-08
 -1      1606 6.04377E-08 3.28091E-08-2.02135E-08
 -1      1607 7.97616E-08 3.55672E-08-1.66289E-08
 -1      1608 6.22989E-08 3.22315E-08-2.41217E-08
 -1      1609 6.36560E-08 3.27213E-08-2.75554E-08
 -1      1610 8.21846E-08 3.62512E-08-2.59609E-08
 -1      1611 6.70122E-08 3.46794E-08-3.29829E-08
 -1      1612 1.29573E-08 2.66262E-08 1.58688E-09
 -1      1613 1.42951E-08 2.69212E-08 3.35819E-09
 -1      1614 1.84963E-08 2.76021E-08 3.42059E-09
 -1      1615 8.74217E-08 3.69607E-08-3.79748E-08
 -1      1616 1.08568E-07 4.09891E-08 1.19702E-08
 -1      1617 1.09096E-07 4.08946E-08 1.68164E-08
 -1      1618 1.08013E-07 4.08628E-08 2.66948E-09
 -1      1619 1.08131E-07 4.04837E-08 7.26972E-09
 -1      1620 1.08124E-07 4.04355E-08-6.66072E-09
 -1      1621 1.07911E-07 4.08803E-08-2.03498E-09
 -1      1622 1.08838E-07 4.07959E-08-1.61125E-08
 -1      1623 1.08322E-07 4.07976E-08-1.13297E-08
 -1      1624 1.10440E-07 4.03921E-08-2.59761E-08
 -1      1625 1.09763E-07 4.04637E-08-2.10011E-08
 -1      1626 1.13407E-07 4.03763E-08-3.69041E-08
 -1      1627 1.11924E-07 4.04127E-08-3.14628E-08
 -1      1628 1.54356E-08 2.71512E-08-5.94413E-10
 -1      1629 1.11736E-07 4.08063E-08 2.67872E-08
 -1      1630 8.45150E-08 3.60170E-08 2.67170E-08
 -1      1631 6.19754E-08 3.26451E-08 2.08772E-08
 -1      1632 1.10807E-07 4.04505E-08 2.17056E-08
 -1      1633 6.00980E-08 3.25755E-08 1.71231E-08
 -1      1634 8.12771E-08 3.57612E-08 1.72798E-08
 -1      1635 1.17189E-07 4.02394E-08-4.50715E-08
 -1      1636 6.64435E-08-3.50262E-08 3.34973E-08
 -1      1637 1.17072E-07-4.07751E-08 4.55235E-08
 -1      1638 8.91092E-08-3.64925E-08 3.87355E-08
 -1      1639 1.14416E-07-4.04286E-08 3.75057E-08
 -1      1640 1.12605E-07-4.07211E-08 3.19286E-08
 -1      1641 6.46030E-08-3.36566E-08 2.81081E-08
 -1      1642 6.27405E-08-3.28207E-08 2.44762E-08
 -1      1643 5.81598E-08-3.29657E-08 9.08318E-09
 -1      1644 5.88028E-08-3.30631E-08 1.28477E-08
 -1      1645 5.82186E-08-3.31160E-08-5.69889E-09
 -1      1646 5.81428E-08-3.32868E-08-1.81046E-09
 -1      1647 6.06436E-08-3.32634E-08-2.01665E-08
 -1      1648 6.02354E-08-3.32546E-08-1.63236E-08
 -1      1649 6.62689E-08-3.48439E-08-3.35575E-08
 -1      1650 1.09367E-07-4.13055E-08 1.64436E-08
 -1      1651 1.08901E-07-4.05949E-08 1.18139E-08
 -1      1652 1.07992E-07-4.03546E-08-2.30803E-09
 -1      1653 1.08491E-07-4.10916E-08-6.95457E-09
 -1      1654 1.10185E-07-4.05186E-08-2.14061E-08
 -1      1655 1.10676E-07-4.08794E-08-2.63116E-08
 -1      1656 1.16960E-07-4.05959E-08-4.53606E-08
 -1      1657 8.88620E-08-3.64989E-08-3.83740E-08
 -1      1658 6.37861E-08-3.36973E-08-2.81689E-08
 -1      1659 6.23376E-08-3.34177E-08-2.43344E-08
 -1      1660 1.14630E-07-4.05010E-08-3.73858E-08
 -1      1661 1.08533E-07-4.14792E-08 2.29145E-09
 -1      1662 8.06864E-08-3.60788E-08-2.05748E-10
 -1      1663 8.22697E-08-3.56641E-08 1.72188E-08
 -1      1664 6.00307E-08-3.29067E-08 1.67131E-08
 -1      1665 6.18275E-08-3.30548E-08 2.03864E-08
 -1      1666 1.10627E-07-4.12180E-08 2.15127E-08
 -1      1667 8.46461E-08-3.56500E-08-2.64216E-08
 -1      1668 5.82958E-08-3.30728E-08 5.34639E-09
 -1      1669 8.12260E-08-3.62853E-08 8.49152E-09
 -1      1670 5.82316E-08-3.34025E-08 1.70439E-09
 -1      1671 8.15118E-08-3.58567E-08-1.72776E-08
 -1      1672 5.91124E-08-3.31472E-08-1.27569E-08
 -1      1673 5.84449E-08-3.30837E-08-9.31782E-09
 -1      1674 1.09183E-07-4.11884E-08-1.66464E-08
 -1      1675 1.11661E-07-4.05230E-08 2.64317E-08
 -1      1676 1.08844E-07-4.15278E-08 7.02196E-09
 -1      1677 8.43328E-08-3.60356E-08 2.65087E-08
 -1      1678 8.02720E-08-3.56990E-08-8.48309E-09
 -1      1679 1.09066E-07-4.11696E-08-1.18205E-08
 -1      1680 1.12533E-07-4.09243E-08-3.18590E-08
 -1      1681 4.60084E-08-4.16620E-08 2.40830E-08
 -1      1682 3.21177E-08-3.90935E-08 1.78939E-08
 -1      1683 2.50457E-08-3.69359E-08 1.32962E-08
 -1      1684 1.80548E-08-3.17667E-08 9.27630E-09
 -1      1685 2.99574E-08-3.76330E-08 1.53523E-08
 -1      1686 3.88776E-09-3.02545E-09 1.01800E-09
 -1      1687 2.67051E-09-1.84768E-09 6.22247E-10
 -1      1688 1.80881E-09-8.40757E-10 3.78155E-10
 -1      1689 1.20944E-09-3.99569E-10 2.54527E-10
 -1      1690 7.68095E-10-1.50997E-10 1.54820E-10
 -1      1691 4.95291E-10-3.58567E-11 1.03538E-10
 -1      1692 3.24382E-10 8.25748E-12 6.56863E-11
 -1      1693 2.01746E-10 3.09015E-11 4.29946E-11
 -1      1694 1.31718E-10 2.87154E-11 2.68463E-11
 -1      1695 7.21464E-11 3.04771E-11 1.69007E-11
 -1      1696 4.82962E-11 2.47993E-11 1.05238E-11
 -1      1697 2.75813E-11 1.91492E-11 6.30808E-12
 -1      1698 1.55611E-11 1.38590E-11 4.11038E-12
 -1      1699 9.22155E-12 1.00778E-11 2.71568E-12
 -1      1700 4.69560E-12 6.81859E-12 1.73961E-12
 -1      1701 2.83633E-12 4.65306E-12 1.12220E-12
 -1      1702 1.23044E-12 3.06070E-12 7.14738E-13
 -1      1703 5.65870E-13 1.97979E-12 5.14864E-13
 -1      1704 1.55162E-13 1.07645E-12 3.71770E-13
 -1      1705-2.01316E-16 3.23155E-13 3.07465E-13
 -1      1706 3.60487E-16-3.18033E-13 2.95187E-13
 -1      1707 1.69775E-13-1.11974E-12 3.67393E-13
 -1      1708 6.55942E-13-1.95733E-12 5.09720E-13
 -1      1709 1.26224E-12-3.11984E-12 7.66495E-13
 -1      1710 2.88961E-12-4.99492E-12 1.21254E-12
 -1      1711 5.18899E-12-7.23587E-12 1.89032E-12
 -1      1712 9.48337E-12-1.03715E-11 2.78613E-12
 -1      1713 1.65155E-11-1.43865E-11 4.41160E-12
 -1      1714 2.75682E-11-1.90195E-11 6.53101E-12
 -1      1715 4.96753E-11-2.32955E-11 1.10408E-11
 -1      1716 7.55921E-11-3.05399E-11 1.71432E-11
 -1      1717 1.29349E-10-3.28624E-11 2.74678E-11
 -1      1718 2.00465E-10-3.12053E-11 4.28113E-11
 -1      1719 3.25517E-10-9.21959E-12 6.55817E-11
 -1      1720 4.97926E-10 3.85684E-11 1.01696E-10
 -1      1721 7.73920E-10 1.53494E-10 1.56017E-10
 -1      1722 1.18271E-09 4.42038E-10 2.55165E-10
 -1      1723 1.73516E-09 7.67965E-10 4.00906E-10
 -1      1724 2.62714E-09 1.62993E-09 6.31715E-10
 -1      1725 3.76791E-09 2.98987E-09 9.72581E-10
 -1      1726 1.04074E-08 1.89644E-08 4.07139E-09
 -1      1727 1.31919E-08 2.59916E-08 6.18584E-09
 -1      1728 3.43760E-08 3.93493E-08 1.90327E-08
 -1      1729 4.79964E-08 4.18620E-08 2.50914E-08
 -1      1730 8.01886E-08-4.08001E-08 3.75082E-08
 -1      1731 6.25679E-08-4.28446E-08 3.04584E-08
 -1      1732 1.33760E-07-3.74890E-08 5.15430E-08
 -1      1733 1.15649E-07-3.69941E-08 4.83739E-08
 -1      1734 6.23865E-08 4.17553E-08 3.12441E-08
 -1      1735 8.12087E-08 4.01847E-08 3.88384E-08
 -1      1736 1.15296E-07 3.69531E-08 4.86815E-08
 -1      1737 1.33344E-07 3.75254E-08 5.18227E-08
 -1      1738 1.71336E-07-4.54824E-08 5.22145E-08
 -1      1739 1.53268E-07-4.07011E-08 5.23859E-08
 -1      1740 2.97128E-07-5.62917E-08 4.98422E-08
 -1      1741 2.58514E-07-5.37582E-08 5.03228E-08
 -1      1742 5.75644E-07-5.10522E-08 5.11195E-08
 -1      1743 4.86930E-07-5.13995E-08 5.04108E-08
 -1      1744 1.08768E-06-3.41961E-08 5.48236E-08
 -1      1745 9.23905E-07-3.47222E-08 5.36983E-08
 -1      1746 1.54003E-07 4.21429E-08 5.30202E-08
 -1      1747 1.71530E-07 4.69796E-08 5.27422E-08
 -1      1748 1.91567E-07 5.12103E-08 5.20844E-08
 -1      1749 2.18182E-07 5.57872E-08 5.13347E-08
 -1      1750 1.80908E-07 4.47048E-08 5.22313E-08
 -1      1751 3.38212E-07 5.49028E-08 5.00019E-08
 -1      1752 3.90832E-07 5.59662E-08 5.00445E-08
 -1      1753 4.49675E-07 4.70281E-08 5.04465E-08
 -1      1754 5.15643E-07 4.69255E-08 5.08805E-08
 -1      1755 4.23536E-07 3.16447E-08 5.05644E-08
 -1      1756 6.21998E-07 3.72284E-08 5.17056E-08
 -1      1757 7.13222E-07 3.67960E-08 5.24229E-08
 -1      1758 5.87984E-07 1.21228E-08 5.14588E-08
 -1      1759 8.63633E-07 3.78300E-08 5.35565E-08
 -1      1760 9.98265E-07 3.78517E-08 5.45206E-08
 -1      1761 1.16447E-06 3.74837E-08 5.54467E-08
 -1      1762 1.36559E-06 3.40225E-08 5.87010E-08
 -1      1763 1.49174E-06 1.37796E-08 6.95909E-08
 -1      1764 1.61400E-06-4.46519E-08 8.10640E-08
 -1      1765 1.66447E-06-1.15449E-07 8.43438E-08
 -1      1766 1.53269E-06 2.20038E-09 6.92639E-08
 -1      1767 2.08575E-06 1.99835E-07 5.25795E-08
 -1      1768 2.75776E-06 5.94683E-07 4.60446E-08
 -1      1769 3.39543E-06 1.15115E-06 4.92596E-08
 -1      1770 3.84390E-06 1.69063E-06 4.54693E-08
 -1      1771 4.04442E-06 2.10617E-06 5.18488E-08
 -1      1772 4.12430E-06 2.25956E-06 4.49566E-08
 -1      1773 4.15023E-06 2.12032E-06 4.31325E-08
 -1      1774 4.28687E-06 1.74293E-06 3.99054E-08
 -1      1775 4.53247E-06 1.22731E-06 3.46726E-08
 -1      1776 4.97135E-06 7.26680E-07 3.21021E-08
 -1      1777 5.46406E-06 2.85834E-07 2.70198E-08
 -1      1778 5.94901E-06 5.41086E-08 2.76853E-08
 -1      1779 6.29527E-06-3.17456E-08 2.22438E-08
 -1      1780 6.41092E-06-2.18293E-08 3.01462E-08
 -1      1781 6.30766E-06-8.83499E-09 3.16699E-08
 -1      1782 5.96372E-06-9.60034E-08 4.37412E-08
 -1      1783 5.47224E-06-3.28221E-07 4.94023E-08
 -1      1784 4.99262E-06-7.65219E-07 6.00742E-08
 -1      1785 4.55966E-06-1.25163E-06 6.66809E-08
 -1      1786 4.30626E-06-1.77829E-06 7.29954E-08
 -1      1787 4.17401E-06-2.15258E-06 7.72387E-08
 -1      1788 4.14924E-06-2.27908E-06 7.68443E-08
 -1      1789 4.06861E-06-2.12112E-06 8.02255E-08
 -1      1790 3.87698E-06-1.68839E-06 6.86022E-08
 -1      1791 3.40337E-06-1.14188E-06 6.00885E-08
 -1      1792 2.75963E-06-5.68316E-07 5.98660E-08
 -1      1793 2.07077E-06-1.94531E-07 5.25862E-08
 -1      1794 3.83393E-08-6.72679E-09 2.86039E-08
 -1      1795 3.92362E-08-1.40130E-08 2.73351E-08
 -1      1796 2.23846E-08-1.79955E-08 1.42984E-08
 -1      1797 2.71513E-08-1.56975E-08 1.85055E-08
 -1      1798 1.21095E-08-1.57576E-08 5.53504E-09
 -1      1799 1.89682E-08-2.17110E-08 1.01054E-08
 -1      1800 5.43988E-09-5.58469E-09 1.30163E-09
 -1      1801 5.20599E-09 5.36480E-09 1.37379E-09
 -1      1802 2.11136E-08 2.25356E-08 1.11369E-08
 -1      1803 1.39064E-08 1.76461E-08 6.77896E-09
 -1      1804 4.72051E-08 5.04720E-09 3.31712E-08
 -1      1805 4.75212E-08 1.20361E-08 3.24379E-08
 -1      1806 1.67528E-06-5.91530E-08 6.97559E-09
 -1      1807 1.65961E-06 5.67773E-08-1.25515E-09
 -1      1808 1.56089E-06 1.85826E-09-7.87193E-09
 -1      1809 1.66342E-06 1.06292E-07 8.82279E-08
 -1      1810 1.31499E-08-2.55416E-08 6.03036E-09
 -1      1811 1.07568E-08-1.97802E-08 4.13005E-09
 -1      1812 1.51368E-08-2.36577E-08 7.05517E-09
 -1      1813 1.59526E-08 2.48995E-08 7.65763E-09
 -1      1814 8.99156E-09 1.20613E-08 3.20043E-09
 -1      1815 6.91846E-09 9.33872E-09 2.07658E-09
 -1      1816 6.54027E-08-5.08143E-09 3.95761E-08
 -1      1817 1.07137E-07 1.70776E-09 4.78105E-08
 -1      1818 1.88096E-08 3.23066E-08 9.97210E-09
 -1      1819 5.51404E-08 4.33010E-08 2.71747E-08
 -1      1820 5.25137E-08-4.31942E-08 2.58051E-08
 -1      1821 1.43123E-07 3.68274E-08 5.16960E-08
 -1      1822 1.43705E-07-3.61881E-08 5.10522E-08
 -1      1823 2.24782E-07-5.31519E-08 5.09315E-08
 -1      1824 1.96868E-07-4.88725E-08 5.15749E-08
 -1      1825 4.18627E-07-5.17745E-08 5.00018E-08
 -1      1826 3.53612E-07-5.09516E-08 4.99045E-08
 -1      1827 8.44880E-07 2.22738E-09 5.33414E-08
 -1      1828 1.46725E-06-2.10282E-08 6.71108E-08
 -1      1829 1.28627E-06-3.81086E-08 5.68698E-08
 -1      1830 1.60409E-06 3.75829E-08 8.10069E-08
 -1      1831 2.93668E-07 4.84954E-08 5.04619E-08
 -1      1832 3.20158E-07 3.49861E-08 5.06454E-08
 -1      1833 2.74077E-07 5.66558E-08 5.03629E-08
 -1      1834 2.35866E-07 5.32440E-08 5.09619E-08
 -1      1835 1.19755E-06 1.39191E-09 5.65246E-08
 -1      1836 4.89255E-09-5.85734E-09 1.55239E-09
 -1      1837 8.24275E-09-1.09217E-08 2.84182E-09
 -1      1838 5.41873E-09 6.58349E-09 1.81234E-09
 -1      1839 7.50488E-08 2.06748E-08 3.98702E-08
 -1      1840 3.48319E-08 1.44336E-08 2.37268E-08
 -1      1841 2.87099E-08 1.81659E-08 1.85164E-08
 -1      1842 1.00965E-07-3.83211E-08 4.32748E-08
 -1      1843 8.29033E-08-3.97381E-08 3.70730E-08
 -1      1844 1.10776E-07-3.55576E-08 4.51819E-08
 -1      1845 1.85105E-07-4.11148E-08 5.15901E-08
 -1      1846 9.76720E-08 3.89875E-08 4.26845E-08
 -1      1847 1.08266E-07 3.61573E-08 4.49498E-08
 -1      1848 8.28743E-08 4.09350E-08 3.71172E-08
 -1      1849 3.34558E-07-3.87195E-08 5.03246E-08
 -1      1850 4.60187E-07-3.17260E-08 5.05524E-08
 -1      1851 2.43934E-07-4.41670E-08 5.09335E-08
 -1      1852 4.88542E-08 4.12785E-08 2.43432E-08
 -1      1853 6.02184E-08 4.17715E-08 2.89409E-08
 -1      1854 7.06598E-09-9.17861E-09 2.18443E-09
 -1      1855 1.65477E-07-4.65071E-09 5.14883E-08
 -1      1856 1.46333E-07 9.49956E-09 5.08117E-08
 -1      1857 2.70344E-08 3.77579E-08 1.45796E-08
 -1      1858 1.89982E-07-3.51849E-08 5.13597E-08
 -1      1859 1.66396E-07-3.36206E-08 5.12538E-08
 -1      1860 3.39878E-07-2.41741E-08 5.06493E-08
 -1      1861 2.83545E-07-2.99172E-08 5.07925E-08
 -1      1862 7.72161E-07-3.42743E-08 5.27190E-08
 -1      1863 6.59750E-07-3.49690E-08 5.18323E-08
 -1      1864 3.09629E-07 1.92563E-08 5.09622E-08
 -1      1865 3.54651E-07 2.42728E-08 5.06719E-08
 -1      1866 5.06685E-07-4.35092E-09 5.09265E-08
 -1      1867 4.37724E-07-5.41994E-09 5.07078E-08
 -1      1868 2.99514E-08-3.37686E-08 1.54199E-08
 -1      1869 2.11355E-08-2.13181E-08 1.15665E-08
 -1      1870 2.79571E-08 2.31705E-08 1.56674E-08
 -1      1871 3.54450E-08 3.64707E-08 1.85161E-08
 -1      1872 1.37433E-07 3.37709E-08 5.00994E-08
 -1      1873 1.54700E-07 3.56799E-08 5.14866E-08
 -1      1874 1.43083E-07-3.26454E-08 5.00645E-08
 -1      1875 1.27466E-07-3.26600E-08 4.84668E-08
 -1      1876 1.47465E-07-2.87228E-08 5.01311E-08
 -1      1877 1.73503E-07 3.91113E-08 5.20265E-08
 -1      1878 1.92253E-07 4.22947E-08 5.18275E-08
 -1      1879 6.89259E-08 3.91765E-08 3.26040E-08
 -1      1880 1.10705E-07-3.20969E-08 4.53196E-08
 -1      1881 3.25052E-08 3.87062E-08 1.68367E-08
 -1      1882 6.11845E-07-1.46835E-08 5.15669E-08
 -1      1883 1.19422E-07 3.22065E-08 4.74461E-08
 -1      1884 1.28765E-07 2.98172E-08 4.86656E-08
 -1      1885 1.02094E-07 3.26276E-08 4.38221E-08
 -1      1886 2.46255E-07-3.23966E-08 5.10901E-08
 -1      1887 2.13064E-07-3.26185E-08 5.13967E-08
 -1      1888 3.68081E-07-1.15305E-08 5.06643E-08
 -1      1889 3.16239E-07-4.36075E-09 5.09510E-08
 -1      1890 4.12822E-07 1.51958E-08 5.06999E-08
 -1      1891 4.47507E-08-3.24383E-08 2.34344E-08
 -1      1892 7.14152E-08-3.43891E-08 3.46038E-08
 -1      1893 6.15888E-08-3.76182E-08 2.99579E-08
 -1      1894 1.65733E-07 3.41442E-08 5.14775E-08
 -1      1895 1.01072E-07 2.10273E-08 4.57954E-08
 -1      1896 1.33153E-07 1.85755E-08 4.95080E-08
 -1      1897 1.42045E-07 2.60862E-08 4.99262E-08
 -1      1898 5.76267E-08 3.25863E-08 2.96236E-08
 -1      1899 7.75881E-08 3.31383E-08 3.70914E-08
 -1      1900 5.12193E-08-4.03700E-08 2.50534E-08
 -1      1901 2.51426E-07-1.97687E-08 5.13799E-08
 -1      1902 1.91261E-07 1.46145E-08 5.17135E-08
 -1      1903 4.12326E-08-3.99896E-08 2.07921E-08
 -1      1904 1.92541E-07-2.59646E-08 5.14464E-08
 -1      1905 9.88663E-08-1.73493E-08 4.55595E-08
 -1      1906 6.12429E-08-2.53635E-08 3.35895E-08
 -1      1907 9.96190E-08-2.58782E-08 4.42019E-08
 -1      1908 1.26521E-07-2.12807E-08 4.87512E-08
 -1      1909 8.66124E-08-2.90085E-08 4.05490E-08
 -1      1910 1.70537E-07-1.64533E-08 5.12447E-08
 -1      1911 2.10948E-07-9.33528E-09 5.16304E-08
 -1      1912 2.40971E-07 1.56174E-08 5.15120E-08
 -1      1913 2.73983E-07 5.96116E-09 5.14000E-08
 -1      1914 2.24712E-07 2.68601E-08 5.15736E-08
 -1      1915 2.56090E-07 3.67640E-08 5.10957E-08
 -1      1916 1.49248E-07-2.00725E-08 5.04280E-08
 -1      1917 8.44832E-08 2.84381E-08 4.06042E-08
 -1      1918 1.62201E-07 2.86704E-08 5.11055E-08
 -1      1919 2.10260E-07 4.06655E-08 5.15975E-08
 -1      1920 2.18391E-07 4.63430E-08 5.14329E-08
 -1      1921 1.80847E-07 3.04020E-08 5.15873E-08
 -1      1922 2.47213E-07-5.55216E-09 5.14978E-08
 -1      1923 2.05782E-07 3.30558E-08 5.15911E-08
 -1      1924 3.30349E-08-3.21611E-08 1.91511E-08
 -1      1925 1.44868E-08-2.92167E-08 7.50618E-09
 -1      1926 1.96155E-08-3.05402E-08 1.10357E-08
 -1      1927 7.07032E-09-1.11127E-08 1.21996E-09
 -1      1928 8.31928E-09-1.61675E-08 1.23494E-09
 -1      1929 2.20472E-09-1.45391E-09 2.44051E-10
 -1      1930 3.03085E-09-2.38383E-09 3.76092E-10
 -1      1931 4.91471E-10-7.33639E-11 5.14380E-11
 -1      1932 7.18714E-10-1.87701E-10 7.76504E-11
 -1      1933 9.41138E-11 2.42643E-11 9.15571E-12
 -1      1934 1.46922E-10 2.45609E-11 1.58626E-11
 -1      1935 1.63436E-11 1.26121E-11 2.05501E-12
 -1      1936 2.62094E-11 1.58772E-11 3.08938E-12
 -1      1937 2.08556E-12 3.51561E-12 4.43920E-13
 -1      1938 3.54836E-12 5.04668E-12 6.92367E-13
 -1      1939 3.55171E-13-3.08998E-13 2.37628E-13
 -1      1940 3.61157E-13 4.87259E-13 2.37256E-13
 -1      1941 3.39040E-12-4.78349E-12 6.14456E-13
 -1      1942 1.84270E-12-3.25005E-12 4.46884E-13
 -1      1943 2.51368E-11-1.57228E-11 3.25246E-12
 -1      1944 1.54880E-11-1.22382E-11 2.17554E-12
 -1      1945 1.42759E-10-2.33368E-11 1.50580E-11
 -1      1946 9.26801E-11-2.61535E-11 1.04947E-11
 -1      1947 6.78320E-10 1.71538E-10 7.49597E-11
 -1      1948 4.67371E-10 6.55423E-11 4.87679E-11
 -1      1949 2.70664E-09 1.99829E-09 3.51493E-10
 -1      1950 1.92227E-09 1.09959E-09 2.45278E-10
 -1      1951 7.91924E-09 1.49822E-08 1.30326E-09
 -1      1952 6.56033E-09 9.69822E-09 9.28531E-10
 -1      1953 1.92479E-08 3.02769E-08 1.09365E-08
 -1      1954 1.39502E-08 2.89082E-08 7.50319E-09
 -1      1955 3.44504E-08 3.20843E-08 1.97287E-08
 -1      1956 3.07110E-08-2.86352E-08 1.37305E-08
 -1      1957 2.99196E-08-2.84637E-08 1.12693E-08
 -1      1958 3.10881E-08-2.86435E-08 9.05092E-09
 -1      1959 3.04949E-08-2.83589E-08 6.45925E-09
 -1      1960 2.33010E-08-2.81154E-08 8.51842E-09
 -1      1961 2.80763E-08-2.83899E-08 3.70081E-09
 -1      1962 2.82234E-08-2.88378E-08 1.20901E-09
 -1      1963 2.22867E-08-2.80673E-08 4.10373E-09
 -1      1964 2.85715E-08-2.89708E-08-1.55741E-09
 -1      1965 2.87897E-08-2.87783E-08-4.18045E-09
 -1      1966 2.13048E-08-2.81293E-08-2.37694E-10
 -1      1967 3.17094E-08-2.89228E-08-6.85775E-09
 -1      1968 3.24468E-08-2.91237E-08-9.30939E-09
 -1      1969 2.34656E-08-2.81421E-08-4.46179E-09
 -1      1970 3.15502E-08-2.88855E-08-1.14163E-08
 -1      1971 3.21119E-08-2.87590E-08-1.37678E-08
 -1      1972 2.50526E-08-2.82329E-08-8.75635E-09
 -1      1973 3.44266E-08-2.92035E-08-1.65953E-08
 -1      1974 3.54957E-08-3.01911E-08-1.86756E-08
 -1      1975 2.61469E-08-2.87348E-08-1.24943E-08
 -1      1976 3.31722E-08-3.22278E-08-1.89736E-08
 -1      1977 1.77803E-08-2.78753E-08 6.77115E-09
 -1      1978 1.78993E-08-2.76583E-08 5.37171E-09
 -1      1979 2.62439E-08-3.16368E-08-1.50291E-08
 -1      1980 3.26410E-08 2.91830E-08 1.66699E-08
 -1      1981 3.41610E-08 2.98685E-08 1.82126E-08
 -1      1982 2.88606E-08 2.79336E-08 6.26887E-09
 -1      1983 2.94489E-08 2.82745E-08 8.83438E-09
 -1      1984 3.03224E-08 2.82825E-08-3.92242E-09
 -1      1985 3.00971E-08 2.84779E-08-1.37198E-09
 -1      1986 3.03185E-08 2.83122E-08-1.45268E-08
 -1      1987 2.92489E-08 2.83642E-08-1.25142E-08
 -1      1988 3.42620E-08 3.21829E-08-1.95572E-08
 -1      1989 1.16816E-08-2.54275E-08-4.85218E-09
 -1      1990 9.65999E-09-2.13625E-08-2.99478E-09
 -1      1991 7.95259E-09-1.64170E-08-1.28256E-09
 -1      1992 7.03459E-09-1.13056E-08-1.00460E-09
 -1      1993 3.00733E-09-2.34453E-09-3.80335E-10
 -1      1994 2.16331E-09-1.38487E-09-2.62465E-10
 -1      1995 7.12300E-10-1.79492E-10-6.96656E-11
 -1      1996 4.88106E-10-7.79575E-11-4.69282E-11
 -1      1997 1.46174E-10 2.43228E-11-1.43580E-11
 -1      1998 9.44952E-11 2.52860E-11-1.02267E-11
 -1      1999 2.51935E-11 1.58740E-11-3.07812E-12
 -1      2000 1.65088E-11 1.22482E-11-1.94674E-12
 -1      2001 3.49657E-12 4.97430E-12-6.68366E-13
 -1      2002 2.03578E-12 3.53620E-12-4.29947E-13
 -1      2003 3.41451E-13 4.79705E-13-1.79025E-13
 -1      2004 3.89449E-13-3.25906E-13-1.99534E-13
 -1      2005 1.90317E-12-3.25196E-12-4.52963E-13
 -1      2006 3.41487E-12-4.87827E-12-6.08520E-13
 -1      2007 1.50363E-11-1.20537E-11-1.72806E-12
 -1      2008 2.49356E-11-1.53614E-11-3.05932E-12
 -1      2009 9.56212E-11-2.52900E-11-9.97992E-12
 -1      2010 1.45195E-10-2.34579E-11-1.37509E-11
 -1      2011 4.68590E-10 7.43301E-11-4.27134E-11
 -1      2012 6.75426E-10 1.66766E-10-7.13979E-11
 -1      2013 1.95280E-09 1.15971E-09-2.27596E-10
 -1      2014 2.74075E-09 2.03486E-09-3.14967E-10
 -1      2015 6.48823E-09 9.81971E-09-8.72307E-10
 -1      2016 8.05162E-09 1.44925E-08-1.22336E-09
 -1      2017 1.41362E-08 2.70420E-08 4.60293E-09
 -1      2018 2.07803E-08 2.77795E-08 7.85106E-09
 -1      2019 2.57761E-08 3.14918E-08 1.49978E-08
 -1      2020 7.74770E-09-1.79111E-08 6.19660E-10
 -1      2021 9.55356E-09-2.17359E-08 2.73249E-09
 -1      2022 1.11522E-08-2.56025E-08 4.44288E-09
 -1      2023 3.45034E-09-3.20806E-09 5.78672E-13
 -1      2024 4.21409E-09-4.05722E-09 5.61348E-10
 -1      2025 5.50228E-09-6.98779E-09 9.47054E-10
 -1      2026 4.17148E-09-4.11430E-09-5.92805E-10
 -1      2027 8.52408E-10-2.71628E-10 7.31219E-12
 -1      2028 1.04970E-09-3.89642E-10 1.09977E-10
 -1      2029 1.56058E-09-8.10597E-10 1.80085E-10
 -1      2030 1.03743E-09-3.99758E-10-1.03718E-10
 -1      2031 1.76852E-10 1.69975E-11 1.06139E-12
 -1      2032 2.21998E-10 1.50477E-11 2.42352E-11
 -1      2033 3.32841E-10-1.76229E-11 3.42042E-11
 -1      2034 2.23443E-10 1.08418E-11-2.18471E-11
 -1      2035 3.16227E-11 1.70201E-11 1.78793E-13
 -1      2036 4.01109E-11 1.96298E-11 4.21120E-12
 -1      2037 5.94404E-11 2.38007E-11 6.55006E-12
 -1      2038 3.88952E-11 1.95533E-11-4.27572E-12
 -1      2039 4.75261E-12 5.79069E-12 4.25788E-14
 -1      2040 5.95644E-12 7.06012E-12 1.03995E-12
 -1      2041 1.02044E-11 9.55406E-12 1.39135E-12
 -1      2042 6.13318E-12 6.93244E-12-9.71219E-13
 -1      2043 4.54064E-13 8.32563E-13 3.64287E-14
 -1      2044 6.44046E-13 1.30735E-12 2.82663E-13
 -1      2045 1.15909E-12 2.30088E-12 3.73455E-13
 -1      2046 5.99330E-13 1.30067E-12-2.15286E-13
 -1      2047 1.37400E-12-2.55447E-12 2.14155E-14
 -1      2048 9.64984E-13-2.06103E-12 3.44117E-13
 -1      2049 5.35016E-13-1.11372E-12 2.49536E-13
 -1      2050 9.72871E-13-2.07674E-12-2.95330E-13
 -1      2051 1.21128E-11-1.02458E-11 2.19321E-13
 -1      2052 9.69276E-12-9.17105E-12 1.47720E-12
 -1      2053 5.73696E-12-6.74263E-12 9.68024E-13
 -1      2054 9.47608E-12-9.07728E-12-1.28093E-12
 -1      2055 7.42479E-11-2.27748E-11 5.61455E-13
 -1      2056 6.04260E-11-2.32644E-11 6.91037E-12
 -1      2057 3.90227E-11-1.92622E-11 4.38288E-12
 -1      2058 6.09257E-11-2.37608E-11-6.59954E-12
 -1      2059 3.74608E-10 3.34121E-11 4.84883E-12
 -1      2060 3.20126E-10 1.34592E-11 3.35816E-11
 -1      2061 2.13797E-10-1.41261E-11 2.29445E-11
 -1      2062 3.20643E-10 1.29903E-11-2.92278E-11
 -1      2063 1.59833E-09 8.79525E-10 1.74328E-11
 -1      2064 1.35138E-09 6.14182E-10 1.61962E-10
 -1      2065 9.60965E-10 3.42338E-10 1.03075E-10
 -1      2066 1.36130E-09 6.16278E-10-1.48598E-10
 -1      2067 5.72448E-09 7.48216E-09 6.22755E-11
 -1      2068 5.12372E-09 5.95701E-09 7.09023E-10
 -1      2069 3.78450E-09 3.47838E-09 5.30756E-10
 -1      2070 5.13734E-09 5.97083E-09-6.36759E-10
 -1      2071 1.08828E-08 2.48020E-08 4.41500E-09
 -1      2072 9.45696E-09 2.01689E-08 2.85142E-09
 -1      2073 3.27817E-08-2.91602E-08 1.65284E-08
 -1      2074 2.43511E-08-2.87205E-08 1.21578E-08
 -1      2075 3.41901E-08-3.01600E-08 1.85268E-08
 -1      2076 3.17584E-08 2.82399E-08 4.15915E-09
 -1      2077 2.32404E-08 2.77327E-08 4.30526E-09
 -1      2078 3.16846E-08 2.84140E-08 1.39681E-09
 -1      2079 6.06680E-09-8.70322E-09 1.52005E-11
 -1      2080 2.84984E-08 2.81369E-08 1.10209E-08
 -1      2081 2.94628E-08 2.84995E-08 1.33531E-08
 -1      2082 2.42760E-08 2.79691E-08-9.59439E-11
 -1      2083 2.96106E-08 2.84865E-08-9.16229E-09
 -1      2084 2.89801E-08 2.80788E-08-6.62748E-09
 -1      2085 2.38014E-08 3.04424E-08-1.37207E-08
 -1      2086 1.64001E-08 2.99296E-08-8.96924E-09
 -1      2087 1.47696E-08-2.91905E-08-8.14295E-09
 -1      2088 1.18222E-08-2.53616E-08-4.78714E-09
 -1      2089 1.99758E-08-3.05490E-08-1.14849E-08
 -1      2090 2.29168E-08 2.84171E-08 1.14329E-08
 -1      2091 5.57627E-09-6.95722E-09-7.34280E-10
 -1      2092 1.77860E-09-1.05654E-09 2.56303E-12
 -1      2093 1.52372E-09-7.67308E-10-1.86498E-10
 -1      2094 3.93469E-10-3.82500E-11 3.95867E-12
 -1      2095 3.31361E-10-1.43048E-11-3.10094E-11
 -1      2096 7.50321E-11 2.29003E-11 8.16594E-13
 -1      2097 6.02650E-11 2.34952E-11-6.37611E-12
 -1      2098 1.24625E-11 1.07250E-11 1.42606E-13
 -1      2099 1.00098E-11 9.64013E-12-1.32774E-12
 -1      2100 1.51461E-12 2.74373E-12 2.45279E-14
 -1      2101 1.20297E-12 2.28228E-12-2.92537E-13
 -1      2102 4.36891E-13-7.07272E-13 2.75549E-14
 -1      2103 5.25999E-13-1.14716E-12-2.40018E-13
 -1      2104 4.27315E-12-5.53726E-12 7.38593E-14
 -1      2105 6.01844E-12-6.70546E-12-8.31015E-13
 -1      2106 3.08277E-11-1.67203E-11 2.43139E-13
 -1      2107 3.83466E-11-1.95685E-11-4.41021E-12
 -1      2108 1.70827E-10-1.93258E-11 2.04190E-12
 -1      2109 2.17490E-10-1.12041E-11-2.06762E-11
 -1      2110 7.87101E-10 2.47943E-10 7.44442E-12
 -1      2111 9.60490E-10 3.35980E-10-9.97054E-11
 -1      2112 3.20421E-09 2.68166E-09 3.95219E-11
 -1      2113 3.80831E-09 3.56567E-09-4.91608E-10
 -1      2114 9.33188E-09 1.96723E-08-2.23263E-09
 -1      2115 1.80150E-08 2.86530E-08 1.00603E-08
 -1      2116 2.53903E-08-3.16824E-08 1.46986E-08
 -1      2117 7.47506E-09 1.59772E-08 5.77491E-10
 -1      2118 1.94903E-08-2.90695E-08 1.05757E-08
 -1      2119 2.21833E-08 2.79703E-08-4.74436E-09
 -1      2120 1.43667E-08-2.77002E-08-6.95737E-09
 -1      2121 1.17850E-08-2.58068E-08 4.20229E-09
 -1      2122 1.03717E-08 2.45717E-08 4.04548E-09
 -1      2123 2.16061E-08 2.77214E-08-9.35275E-09
 -1      2124 7.62858E-09 1.61221E-08-3.31331E-10
 -1      2125 1.48651E-08-2.77019E-08 6.25568E-09
 -1      2126 1.84873E-08-2.84275E-08 9.06848E-09
 -1      2127 1.75586E-08 2.73955E-08-4.24143E-09
 -1      2128 1.79501E-08 2.75557E-08-2.29010E-09
 -1      2129 1.69852E-08-2.76862E-08 3.56737E-09
 -1      2130 1.53222E-08-2.73127E-08 6.92549E-10
 -1      2131 1.55990E-08-2.71197E-08-9.65005E-10
 -1      2132 1.74855E-08-2.75460E-08-3.81133E-09
 -1      2133 1.84805E-08-2.74704E-08-5.69699E-09
 -1      2134 1.92630E-08 2.77781E-08-3.83561E-10
 -1      2135 2.01372E-08 2.76952E-08 1.68517E-09
 -1      2136 8.68257E-09 2.04718E-08 3.76643E-10
 -1      2137 3.13170E-08 2.91969E-08-1.63027E-08
 -1      2138 1.66665E-08 2.80371E-08 8.43064E-09
 -1      2139 1.23320E-08 2.65690E-08 4.38378E-09
 -1      2140 9.54744E-09 2.36550E-08 2.12990E-09
 -1      2141 1.51138E-08 2.71391E-08-5.29921E-09
 -1      2142 1.50279E-08 2.72256E-08-6.93106E-09
 -1      2143 8.18765E-09-1.79300E-08-6.35172E-10
 -1      2144 9.23061E-09-2.19391E-08-2.72581E-10
 -1      2145 1.82905E-08-2.78543E-08-7.20667E-09
 -1      2146 1.91297E-08-2.84960E-08-9.63545E-09
 -1      2147 2.03489E-08-2.91797E-08-1.11272E-08
 -1      2148 9.18107E-09 2.33944E-08-3.29818E-10
 -1      2149 1.12418E-09-4.82655E-10-6.57700E-13
 -1      2150 1.48475E-09-7.59547E-10 1.43047E-10
 -1      2151 1.74221E-09-1.09455E-09 7.46671E-12
 -1      2152 2.38511E-07 5.43381E-08 1.56546E-08
 -1      2153 2.08721E-07 5.19475E-08 2.26678E-08
 -1      2154 2.46052E-07 5.49941E-08 2.63981E-08
 -1      2155 2.23261E-07 4.51460E-08 1.46718E-08
 -1      2156 2.60429E-07 4.72417E-08 1.85691E-08
 -1      2157 2.30779E-07 4.58375E-08 2.55152E-08
 -1      2158 4.08147E-06 2.11745E-06-2.23783E-08
 -1      2159 4.58021E-07-5.15771E-08 2.95412E-08
 -1      2160 4.11999E-07-1.85228E-08 2.57675E-08
 -1      2161 5.26658E-07-5.10928E-08 2.98721E-08
 -1      2162 4.79208E-07-3.78895E-08 4.93204E-09
 -1      2163 4.80612E-07-1.78206E-08 2.58184E-08
 -1      2164 1.20940E-07 3.31329E-08 3.07665E-08
 -1      2165 1.27199E-07 3.59867E-08 2.81489E-08
 -1      2166 1.06648E-07 3.44625E-08 1.98535E-08
 -1      2167 1.45013E-07 3.50269E-08 3.16867E-08
 -1      2168 1.25048E-07 3.30192E-08 2.37100E-08
 -1      2169 1.32483E-07 3.65548E-08 2.09016E-08
 -1      2170 3.59854E-07 5.54257E-08-8.23418E-10
 -1      2171 3.16004E-07 5.41014E-08 9.42614E-09
 -1      2172 3.55947E-07 5.53329E-08 1.80978E-08
 -1      2173 2.32134E-07 5.46150E-08-1.18579E-08
 -1      2174 2.25059E-07 5.37979E-08-1.81343E-08
 -1      2175 2.53908E-07 5.65460E-08-1.95632E-08
 -1      2176 6.07212E-06 9.51601E-09 4.20782E-08
 -1      2177 6.29318E-06-3.71835E-08 4.82710E-08
 -1      2178 2.77888E-08 7.96475E-09-1.10087E-08
 -1      2179 8.52196E-08 7.07706E-09-3.00957E-08
 -1      2180 4.52458E-08 8.44112E-09-6.91892E-09
 -1      2181 4.85133E-08 1.66639E-09-2.10389E-08
 -1      2182 3.63217E-07 4.05922E-08 3.21627E-08
 -1      2183 3.14217E-07 4.49429E-08 2.14372E-08
 -1      2184 3.16284E-07 4.47469E-08 3.96737E-08
 -1      2185 3.57994E-07 5.51096E-08 3.62204E-08
 -1      2186 3.09343E-07 5.90742E-08 2.56298E-08
 -1      2187 4.12864E-06-2.16809E-06 3.48383E-08
 -1      2188 4.09957E-06-2.15078E-06 9.05284E-09
 -1      2189 4.03860E-06-1.98375E-06 3.07994E-08
 -1      2190 2.24530E-07 5.17518E-08 4.46997E-08
 -1      2191 2.15974E-07 4.42988E-08 4.42389E-08
 -1      2192 2.52354E-07 4.58710E-08 4.02156E-08
 -1      2193 2.03429E-07 5.18309E-08 3.77378E-08
 -1      2194 2.39853E-07 5.43023E-08 3.36454E-08
 -1      2195 2.31073E-07 4.67968E-08 3.31148E-08
 -1      2196 1.15003E-07 3.70772E-08-3.61882E-08
 -1      2197 1.36300E-07 3.96482E-08-4.18902E-08
 -1      2198 9.70292E-08 3.69196E-08-3.78415E-08
 -1      2199 1.17193E-07 3.70586E-08-4.51510E-08
 -1      2200 1.14492E-07 3.54992E-08-3.67883E-08
 -1      2201 2.66794E-07-5.69520E-08 6.30051E-09
 -1      2202 2.36119E-07-5.44907E-08 8.09766E-09
 -1      2203 2.38362E-07-5.46943E-08 2.04859E-09
 -1      2204 2.64419E-10-2.08283E-12 2.49148E-11
 -1      2205 2.02989E-10-1.02543E-11 1.26731E-12
 -1      2206 1.57248E-10-2.11574E-11 1.47185E-11
 -1      2207 2.90101E-07 5.83901E-08-2.31811E-08
 -1      2208 2.92090E-07 5.84667E-08-7.24714E-09
 -1      2209 2.55768E-07 5.67288E-08-3.30500E-09
 -1      2210 2.76679E-07 4.93504E-08-1.55721E-08
 -1      2211 2.69538E-07 5.69063E-08 1.71267E-08
 -1      2212 2.20771E-08 3.19180E-08-4.37840E-09
 -1      2213 1.68270E-08 2.84241E-08-1.65123E-09
 -1      2214 1.74606E-08 3.01091E-08-3.76438E-09
 -1      2215 1.94348E-08 3.08425E-08 1.61227E-10
 -1      2216 1.54504E-08 2.90110E-08-1.75018E-10
 -1      2217 4.95228E-09-6.26099E-09 6.21238E-11
 -1      2218 6.03305E-09-9.81348E-09 2.43598E-10
 -1      2219 6.55088E-09-1.06999E-08-3.02227E-10
 -1      2220 1.35579E-08 2.75503E-08-1.54426E-09
 -1      2221 1.54142E-08 2.88266E-08-4.59378E-09
 -1      2222 3.48082E-08-3.45786E-08-1.47944E-08
 -1      2223 2.55810E-08-3.28896E-08-1.11411E-08
 -1      2224 3.24279E-08-3.39817E-08-1.19646E-08
 -1      2225 8.14218E-12-8.38404E-12 1.08228E-12
 -1      2226 9.97141E-07 3.76629E-08 1.25225E-09
 -1      2227 8.62887E-07 3.78769E-08 1.06607E-09
 -1      2228 1.34313E-07-3.12305E-08 1.56675E-08
 -1      2229 1.54241E-07-3.37986E-08 6.46380E-09
 -1      2230 1.22927E-07-3.06036E-08 7.09071E-09
 -1      2231 1.47511E-07-3.80031E-08 1.17903E-08
 -1      2232 1.15564E-07-3.34069E-08 1.16778E-08
 -1      2233 1.35485E-07-3.58447E-08 3.17298E-09
 -1      2234 4.45929E-08-6.38341E-09-2.33905E-08
 -1      2235 9.20712E-08-1.34764E-08-3.50045E-08
 -1      2236 4.48426E-08-1.54782E-08-2.29728E-08
 -1      2237 2.11014E-07-3.60561E-08-1.72224E-08
 -1      2238 1.87318E-07-4.03937E-08-2.99286E-08
 -1      2239 2.12486E-07-3.49889E-08-3.06184E-08
 -1      2240 1.58543E-07-3.20450E-08-1.94015E-08
 -1      2241 1.83104E-07-2.76480E-08-2.04680E-08
 -1      2242 1.61016E-07-3.13710E-08-3.27306E-08
 -1      2243 3.73902E-11-1.79608E-11 3.95806E-12
 -1      2244 5.30282E-08-3.87889E-08-2.22947E-08
 -1      2245 6.92369E-08-3.76385E-08-2.82753E-08
 -1      2246 7.77207E-08-3.78748E-08-3.31228E-08
 -1      2247 5.34637E-08-3.58361E-08-1.79823E-08
 -1      2248 5.82865E-08-3.65355E-08-2.13189E-08
 -1      2249 7.92828E-08-3.65023E-08-2.64105E-08
 -1      2250 6.28048E-06-3.55557E-08 3.98404E-08
 -1      2251 6.08394E-06 1.62306E-08 2.73253E-08
 -1      2252 6.30612E-06-2.94346E-08 3.17350E-08
 -1      2253 9.94556E-08 3.59701E-08 1.59086E-09
 -1      2254 1.21669E-07 3.82099E-08-6.36660E-10
 -1      2255 9.93707E-08 3.59075E-08-2.71205E-09
 -1      2256 4.13794E-08-1.40564E-08-9.01292E-09
 -1      2257 2.93724E-08-1.45717E-08-5.48113E-09
 -1      2258 7.72577E-08-2.19121E-08-1.87750E-08
 -1      2259 3.04531E-08-1.62991E-08-1.36527E-08
 -1      2260 3.57554E-08-3.65805E-08-1.81688E-08
 -1      2261 2.76553E-08-3.56004E-08-1.39567E-08
 -1      2262 4.15820E-08-3.78006E-08-1.82275E-08
 -1      2263 3.03029E-08-3.46913E-08-1.37011E-08
 -1      2264 5.22069E-06 4.49519E-07 2.74836E-08
 -1      2265 2.37947E-08 1.80893E-08 1.33786E-08
 -1      2266 2.27262E-08 1.64440E-08 7.46839E-09
 -1      2267 5.65977E-08 3.13785E-08 2.19506E-08
 -1      2268 2.82429E-08 2.57720E-08 1.42079E-08
 -1      2269 2.85434E-08 2.40571E-08 9.26168E-09
 -1      2270 1.15956E-07 3.71964E-08 2.36805E-08
 -1      2271 1.16658E-07 3.68818E-08 2.86752E-08
 -1      2272 9.51057E-08 3.55305E-08 2.39572E-08
 -1      2273 2.11797E-08-3.25121E-08-1.06353E-08
 -1      2274 4.10356E-07 5.61603E-08 1.56611E-08
 -1      2275 1.04401E-07 3.60058E-08-2.31150E-08
 -1      2276 1.07567E-07 3.51023E-08-2.79452E-08
 -1      2277 1.27461E-07 3.86927E-08-2.72939E-08
 -1      2278 9.13930E-08 3.57583E-08-2.57159E-08
 -1      2279 1.13616E-07 3.70315E-08-3.09749E-08
 -1      2280 3.53744E-08-3.51507E-08-7.86179E-09
 -1      2281 3.07760E-08-3.46499E-08-4.86467E-09
 -1      2282 3.90982E-08-3.59169E-08-6.75713E-09
 -1      2283 3.34779E-08-3.41522E-08-1.03916E-08
 -1      2284 4.24977E-08-3.53087E-08-1.33883E-08
 -1      2285 1.44050E-07 4.34099E-08-9.53510E-09
 -1      2286 1.62266E-07 4.77617E-08-1.28304E-08
 -1      2287 1.61896E-07 4.78019E-08-7.33585E-09
 -1      2288 1.74633E-07 3.07693E-08 1.27686E-08
 -1      2289 1.72471E-07 2.41332E-08 7.95285E-09
 -1      2290 1.97988E-07 3.57705E-08 6.39962E-09
 -1      2291 1.38823E-07 2.55956E-08 9.76908E-09
 -1      2292 1.62156E-07 3.54812E-08 8.52073E-09
 -1      2293 1.61190E-07 2.93029E-08 3.68218E-09
 -1      2294 1.36358E-06 3.41879E-08 2.34270E-09
 -1      2295 7.02065E-08-2.58169E-08-2.64095E-08
 -1      2296 8.76907E-08-2.16507E-08-3.38263E-08
 -1      2297 2.79674E-07 5.87544E-08-4.09468E-08
 -1      2298 2.64927E-07 4.65560E-08-4.14534E-08
 -1      2299 2.80105E-07 4.97785E-08-2.62889E-08
 -1      2300 3.12359E-07 5.95892E-08-3.40765E-08
 -1      2301 2.97760E-07 4.75959E-08-3.44905E-08
 -1      2302 2.57556E-07 5.70423E-08-3.02415E-08
 -1      2303 1.69794E-06-8.35537E-08-3.89005E-08
 -1      2304 2.43786E-07 4.77170E-08-2.26583E-08
 -1      2305 3.35807E-07 6.02841E-08-1.73010E-08
 -1      2306 6.60098E-13 1.80814E-12-1.85835E-13
 -1      2307 6.58709E-13 1.76412E-12-1.37806E-15
 -1      2308 1.51874E-12 2.83032E-12-2.32631E-13
 -1      2309 1.47722E-12 2.80247E-12 3.92446E-15
 -1      2310 2.70941E-13 1.02190E-12-1.56132E-13
 -1      2311 1.41260E-07-1.97367E-08 2.42825E-08
 -1      2312 1.81133E-07-1.65307E-08 2.01186E-08
 -1      2313 1.40772E-07-2.07415E-08 1.35907E-08
 -1      2314 1.80298E-07-2.41769E-08 2.77726E-08
 -1      2315 1.40022E-07-2.68855E-08 2.10929E-08
 -1      2316 1.79771E-07-2.52947E-08 1.68945E-08
 -1      2317 2.32980E-08 3.10197E-08 2.10752E-09
 -1      2318 2.97640E-08 3.24179E-08 2.75918E-09
 -1      2319 2.71995E-08 3.18950E-08 4.69341E-09
 -1      2320 1.90360E-07 4.07740E-08-2.47956E-08
 -1      2321 2.19202E-07 4.63504E-08-2.43467E-08
 -1      2322 2.00200E-07 5.16522E-08-1.97774E-08
 -1      2323 2.18641E-07 4.33969E-08-3.40481E-08
 -1      2324 1.99507E-07 4.83384E-08-2.96221E-08
 -1      2325 2.29058E-07 5.43349E-08-2.90035E-08
 -1      2326 2.09139E-07-5.00986E-08-2.98884E-08
 -1      2327 2.27191E-07-4.23711E-08-3.91334E-08
 -1      2328 1.95659E-07-4.70326E-08-4.19785E-08
 -1      2329 1.53945E-07-4.21445E-08-3.20788E-08
 -1      2330 1.75123E-07-3.78304E-08-4.18095E-08
 -1      2331 4.13629E-07 5.61137E-08-3.35425E-08
 -1      2332 3.84787E-07 5.55689E-08-1.68986E-08
 -1      2333 4.44681E-07 5.61807E-08-1.90530E-08
 -1      2334 5.84765E-08-3.63195E-08 1.39800E-08
 -1      2335 5.76877E-08-3.63561E-08 1.06080E-08
 -1      2336 4.66457E-08-3.69759E-08 1.12132E-08
 -1      2337 3.88920E-08-3.55338E-08 1.47900E-08
 -1      2338 3.81850E-08-3.53396E-08 1.22695E-08
 -1      2339 2.77972E-07-5.49071E-08 4.09195E-08
 -1      2340 1.74273E-08-1.62551E-08-1.92727E-09
 -1      2341 3.00345E-08-2.71533E-08-5.57984E-09
 -1      2342 2.01020E-08-2.30692E-08-2.69121E-09
 -1      2343 5.82452E-08-3.17959E-08-4.31298E-09
 -1      2344 4.23283E-08-3.20415E-08-1.36589E-09
 -1      2345 4.89402E-08-3.62732E-08-5.82661E-09
 -1      2346 6.80308E-14-8.13233E-14-1.10811E-13
 -1      2347 1.60022E-07-2.81166E-08 1.99651E-09
 -1      2348 1.64688E-07-3.40249E-08 1.56459E-08
 -1      2349 2.01221E-07-2.51387E-08 7.98558E-09
 -1      2350 2.07026E-07-3.23572E-08 2.16512E-08
 -1      2351 1.86345E-07-3.53422E-08 6.82398E-09
 -1      2352 6.03544E-11-2.18679E-11 5.90249E-12
 -1      2353 8.10255E-11-2.24891E-11 5.68003E-13
 -1      2354 4.74834E-11-1.96958E-11 6.30122E-13
 -1      2355 2.15361E-07 4.57934E-08-1.33294E-08
 -1      2356 7.21521E-08-3.73535E-08 2.70339E-08
 -1      2357 5.60410E-08-3.73635E-08 1.89884E-08
 -1      2358 7.45359E-08-3.81291E-08 3.03444E-08
 -1      2359 4.01454E-08-3.60025E-08 1.71855E-08
 -1      2360 5.96743E-08-3.95269E-08 2.78765E-08
 -1      2361 4.73443E-08-3.86649E-08 2.01698E-08
 -1      2362 7.07926E-08-3.69828E-08 2.32798E-08
 -1      2363 8.92006E-08-3.64293E-08 2.92635E-08
 -1      2364 8.74333E-08-3.58684E-08 2.44749E-08
 -1      2365 1.10619E-07-3.60499E-08 1.66114E-08
 -1      2366 7.43327E-08-3.60149E-08 1.04144E-08
 -1      2367 1.11663E-07-3.57753E-08 2.14055E-08
 -1      2368 9.53003E-08-3.46671E-08 1.43631E-08
 -1      2369 7.54993E-08-3.63231E-08 1.44039E-08
 -1      2370 1.86264E-08-1.63700E-08 8.02425E-09
 -1      2371 1.11952E-07 3.53470E-08-4.25271E-08
 -1      2372 1.28629E-07 3.33184E-08-4.48994E-08
 -1      2373 9.54193E-08 3.61946E-08-3.59540E-08
 -1      2374 1.12704E-07 3.34964E-08-3.93931E-08
 -1      2375 8.40295E-09 1.43814E-08 2.79995E-10
 -1      2376 5.97207E-09 9.41815E-09 1.10281E-09
 -1      2377 7.61248E-09 1.50490E-08 6.75245E-10
 -1      2378 1.19036E-08 2.24073E-08 3.59285E-09
 -1      2379 1.07301E-08 2.42873E-08 1.91979E-09
 -1      2380 1.04572E-08 2.08220E-08 3.37618E-09
 -1      2381 1.34630E-08-2.56637E-08-5.20416E-09
 -1      2382 1.11514E-08-2.23487E-08-3.76010E-09
 -1      2383 6.02103E-09-9.04426E-09-1.60110E-09
 -1      2384 1.02508E-08-1.96540E-08-1.77417E-09
 -1      2385 7.92301E-09-1.65636E-08-1.35077E-09
 -1      2386 5.47920E-06-3.34384E-07 4.93112E-08
 -1      2387 5.68222E-06-2.05673E-07 4.81059E-08
 -1      2388 5.23525E-06-4.97813E-07 5.21904E-08
 -1      2389 2.07270E-07 5.28446E-08-1.34682E-08
 -1      2390 1.03328E-08 2.12531E-08-3.17246E-09
 -1      2391 7.03557E-09 1.13982E-08-1.53388E-09
 -1      2392 2.18090E-13-7.70857E-13 1.49425E-13
 -1      2393 7.51837E-08-3.82596E-08 3.18078E-08
 -1      2394 2.18446E-07-2.17013E-08 3.73803E-08
 -1      2395 2.49938E-07-3.17340E-08 3.70021E-08
 -1      2396 2.06473E-07-3.08513E-08 3.06814E-08
 -1      2397 2.03697E-07-3.13406E-08 4.49622E-08
 -1      2398 2.34526E-07-4.26369E-08 4.46324E-08
 -1      2399 2.11612E-09-1.40247E-09-2.11550E-10
 -1      2400 1.44937E-09-7.50994E-10-1.44864E-10
 -1      2401 1.74326E-07 4.28521E-08-1.87235E-08
 -1      2402 1.82673E-07 4.89294E-08-1.56168E-08
 -1      2403 1.84073E-07 5.13433E-08-2.37572E-08
 -1      2404 1.66290E-07 4.80081E-08-1.94515E-08
 -1      2405 5.21339E-06 4.41251E-07 2.10551E-08
 -1      2406 1.84134E-07-4.97608E-08-2.29659E-08
 -1      2407 2.16533E-07-4.56039E-08-2.04240E-08
 -1      2408 1.62360E-07-3.94130E-08-2.26283E-08
 -1      2409 2.94078E-09-2.35039E-09 3.30641E-10
 -1      2410 2.41148E-09-1.84121E-09 1.38511E-11
 -1      2411 2.02715E-09-1.34066E-09 2.12289E-10
 -1      2412 4.83751E-10 8.57917E-11 2.85892E-12
 -1      2413 3.88136E-10 3.77350E-11 3.45080E-11
 -1      2414 6.25062E-10 1.47257E-10 5.96895E-11
 -1      2415 7.74264E-09-1.39645E-08 1.12070E-09
 -1      2416 8.02598E-09-1.55025E-08 1.78590E-10
 -1      2417 1.08686E-08-1.94590E-08 2.03894E-09
 -1      2418 9.51329E-09-1.82971E-08-8.83376E-10
 -1      2419 1.74732E-07 4.01644E-08-2.86066E-08
 -1      2420 6.02270E-08 3.84517E-08-2.85416E-08
 -1      2421 8.07088E-08 2.51780E-08-1.32900E-08
 -1      2422 6.00778E-08 2.15965E-08-6.87150E-09
 -1      2423 6.85400E-08 2.84596E-08-1.03709E-08
 -1      2424 9.12702E-08 2.07712E-08-7.13608E-09
 -1      2425 9.99901E-08 2.70793E-08-1.13514E-08
 -1      2426 7.94972E-08 2.45562E-08-5.10924E-09
 -1      2427 5.65915E-06 1.48832E-07 3.01842E-08
 -1      2428 4.23021E-06-1.91463E-06 5.93802E-08
 -1      2429 2.55205E-07-1.89377E-08 3.71440E-08
 -1      2430 3.01340E-07-1.87832E-08 2.47439E-08
 -1      2431 2.51353E-07-3.66746E-09 3.31953E-08
 -1      2432 2.67085E-07-2.16167E-08 1.03173E-08
 -1      2433 2.17479E-07-6.82076E-09 1.87635E-08
 -1      2434 2.63330E-07-6.04632E-09 6.19967E-09
 -1      2435 4.39912E-06 1.44727E-06 2.40203E-08
 -1      2436 4.73354E-06 9.48308E-07 2.78293E-08
 -1      2437 4.28341E-06 1.64249E-06 1.08267E-08
 -1      2438 4.59535E-06 1.20124E-06 1.60976E-08
 -1      2439 5.66922E-06 1.55731E-07 2.90178E-08
 -1      2440 6.30996E-06-2.08119E-08 3.69873E-08
 -1      2441 1.77868E-10-1.81621E-11-1.34251E-11
 -1      2442 1.25492E-10-2.10331E-11 1.21542E-12
 -1      2443 2.78391E-07 7.93179E-09 3.29787E-08
 -1      2444 2.51666E-07 1.47834E-08 1.54244E-08
 -1      2445 3.29221E-07-6.84252E-09 2.47040E-08
 -1      2446 3.02641E-07 1.04171E-09 7.16490E-09
 -1      2447 3.17294E-07 1.59928E-08 3.37158E-08
 -1      2448 2.31705E-08-2.40251E-08 1.43360E-09
 -1      2449 1.55235E-08-2.02679E-08 7.40169E-10
 -1      2450 7.03974E-11-2.34970E-11-5.84273E-12
 -1      2451 4.02641E-11-1.89809E-11-3.75829E-12
 -1      2452 1.84274E-07 4.85883E-08 3.79350E-08
 -1      2453 1.63488E-07 4.65672E-08 3.38401E-08
 -1      2454 1.67365E-07 4.64431E-08 4.58706E-08
 -1      2455 1.74775E-07 4.27261E-08 3.31965E-08
 -1      2456 1.78133E-07 4.28264E-08 4.46797E-08
 -1      2457 1.58445E-07 4.08579E-08 4.06594E-08
 -1      2458 7.37374E-08 9.63704E-09 1.54981E-08
 -1      2459 3.73135E-08 2.51833E-11 4.81265E-09
 -1      2460 7.39485E-08 9.27123E-09 5.64107E-09
 -1      2461 3.00371E-08 5.92581E-09 4.83122E-09
 -1      2462 6.88329E-08 1.78651E-08 7.31570E-09
 -1      2463 3.17899E-08 6.00989E-09-2.81259E-10
 -1      2464 8.46273E-08-8.97549E-09 6.53622E-09
 -1      2465 7.13090E-08-1.09353E-08 1.52903E-08
 -1      2466 1.10827E-07-5.83977E-09 1.60579E-08
 -1      2467 7.73568E-08-2.01756E-08 8.22525E-09
 -1      2468 1.14989E-07-1.60770E-08 7.20853E-09
 -1      2469 1.01444E-07-1.78440E-08 1.79253E-08
 -1      2470 4.14651E-08-5.97084E-09-6.55740E-09
 -1      2471 9.80135E-08-7.09827E-09-2.05202E-08
 -1      2472 9.18207E-08-1.79825E-08-1.26265E-08
 -1      2473 4.68418E-08 1.22270E-09-4.33144E-09
 -1      2474 4.16193E-08-7.16746E-09 1.62684E-10
 -1      2475 9.54319E-08-7.95808E-09-8.46117E-09
 -1      2476 8.96458E-09 1.45063E-08-9.29384E-10
 -1      2477 1.40255E-08 1.98258E-08 4.41755E-10
 -1      2478 1.45838E-08 2.01582E-08-1.56192E-09
 -1      2479 5.95648E-08 3.84618E-08 2.86929E-08
 -1      2480 5.45500E-08 3.79972E-08 2.29132E-08
 -1      2481 4.57529E-08 3.84129E-08 2.28327E-08
 -1      2482 6.05941E-08 3.97378E-08 2.63688E-08
 -1      2483 4.89160E-08 3.93981E-08 2.22284E-08
 -1      2484 1.78244E-07-2.46520E-08 4.21176E-08
 -1      2485 1.80725E-07-3.37325E-08 4.48903E-08
 -1      2486 1.56224E-07-2.73983E-08 4.15477E-08
 -1      2487 1.65937E-07-3.19149E-08 3.53273E-08
 -1      2488 2.23748E-07 3.60107E-08 4.30708E-08
 -1      2489 2.43070E-07 2.92389E-08 4.29617E-08
 -1      2490 1.93159E-07 2.64186E-08 4.32419E-08
 -1      2491 2.09197E-09 1.34483E-09-2.11036E-10
 -1      2492 2.14165E-07-8.54346E-09 3.75594E-08
 -1      2493 2.09964E-07 5.50139E-09 3.34714E-08
 -1      2494 7.56641E-10 2.51272E-10 6.21184E-12
 -1      2495 9.14820E-10 3.35569E-10 9.68136E-11
 -1      2496 4.12838E-06 2.12121E-06-1.70841E-08
 -1      2497 2.45388E-08-2.54450E-08 3.84501E-09
 -1      2498 2.53162E-08-2.51074E-08 6.52581E-09
 -1      2499 1.53558E-08-2.19323E-08 2.36851E-09
 -1      2500 2.98173E-08-3.46689E-08 7.65378E-09
 -1      2501 1.59249E-08-2.18822E-08 4.05314E-09
 -1      2502 4.10908E-06 2.13584E-06 3.88112E-09
 -1      2503 4.13411E-06 2.13465E-06 2.70223E-08
 -1      2504 4.08730E-06 2.12498E-06 2.47668E-08
 -1      2505 2.19859E-08-1.34579E-08-1.17565E-09
 -1      2506 2.97794E-08-1.32042E-08 2.47055E-09
 -1      2507 1.92940E-08-1.60014E-08 1.88336E-09
 -1      2508 5.32564E-08-2.36090E-08 6.61734E-09
 -1      2509 2.70950E-08-1.72994E-08 6.73795E-09
 -1      2510 3.80778E-08 3.66498E-10 1.66357E-08
 -1      2511 2.83290E-08-6.94662E-09 4.77546E-09
 -1      2512 3.04195E-08-7.54591E-09 1.61272E-08
 -1      2513 3.93218E-06 1.82374E-06-2.17368E-08
 -1      2514 4.03331E-06 1.97439E-06 1.20919E-09
 -1      2515 3.57960E-06 1.31521E-06-2.50426E-08
 -1      2516 3.73448E-06 1.58929E-06 6.63516E-10
 -1      2517 3.93896E-06 1.83486E-06 2.27235E-08
 -1      2518 3.04571E-08-3.42942E-08 1.33563E-08
 -1      2519 3.85912E-10-3.49383E-11 3.46972E-11
 -1      2520 3.58503E-06 1.32313E-06 2.47157E-08
 -1      2521 1.66406E-07-4.50611E-08 2.05462E-08
 -1      2522 1.65858E-07-4.50967E-08 1.53270E-08
 -1      2523 1.58830E-07-3.86834E-08 2.09756E-08
 -1      2524 1.31423E-07-3.81224E-08 2.02180E-08
 -1      2525 1.31124E-07-3.84922E-08 1.52287E-08
 -1      2526 4.28845E-08 3.62907E-08-1.01704E-08
 -1      2527 4.04215E-08 3.33147E-08-1.02316E-08
 -1      2528 3.02906E-08 3.34705E-08-9.59344E-09
 -1      2529 3.87140E-08 3.47166E-08-5.11380E-09
 -1      2530 2.69188E-08 3.34724E-08-5.18696E-09
 -1      2531 2.71934E-08 3.14094E-08-5.42427E-09
 -1      2532 2.33316E-11-1.49967E-11-2.41903E-12
 -1      2533 3.12966E-11-1.58662E-11 2.82284E-13
 -1      2534 2.47214E-07-2.66374E-08-4.42873E-09
 -1      2535 2.84874E-07-3.50007E-08 1.79316E-09
 -1      2536 2.77288E-07-3.37841E-08-1.45257E-08
 -1      2537 2.18050E-07-3.75858E-08-6.75730E-10
 -1      2538 2.48168E-07-4.60616E-08-1.08460E-08
 -1      2539 9.44368E-08-1.71351E-08 3.26023E-08
 -1      2540 1.02908E-07-5.16056E-09 3.17813E-08
 -1      2541 7.58101E-12 7.88987E-12-9.38799E-13
 -1      2542 9.62698E-12 8.87427E-12 4.32559E-14
 -1      2543 1.54579E-11 1.19931E-11-1.55620E-12
 -1      2544 9.13358E-10-3.09418E-10 8.02016E-11
 -1      2545 1.04486E-10 2.44462E-11-8.52496E-12
 -1      2546 8.08724E-11 2.34193E-11 1.23409E-12
 -1      2547 7.21971E-11 2.39926E-11-5.66929E-12
 -1      2548 1.86464E-07 4.92094E-08 3.29023E-08
 -1      2549 1.65779E-07 4.75129E-08 2.87625E-08
 -1      2550 2.50756E-08-3.28135E-08-8.57494E-09
 -1      2551 9.65324E-11 2.43600E-11 1.00928E-11
 -1      2552 1.57150E-10 1.88775E-11 1.36721E-11
 -1      2553 1.24123E-10 2.17263E-11 1.34653E-12
 -1      2554 2.41911E-06-4.15602E-07 3.13386E-08
 -1      2555 2.40121E-06-4.16500E-07-1.30612E-08
 -1      2556 3.14594E-06-8.95466E-07 1.60280E-08
 -1      2557 3.89448E-07 3.90931E-09-2.44145E-08
 -1      2558 4.56105E-07 1.33318E-08-2.42531E-08
 -1      2559 4.41142E-07-1.50209E-08-2.43428E-08
 -1      2560 7.60575E-14-4.57774E-15 1.16545E-13
 -1      2561 1.22465E-13-4.13076E-13 1.61710E-14
 -1      2562 7.58010E-09 1.47520E-08-5.16442E-10
 -1      2563 1.02727E-08 2.38795E-08-4.78654E-10
 -1      2564 1.14131E-08 2.51846E-08-2.62361E-09
 -1      2565 2.96137E-08 3.29251E-08-5.82826E-09
 -1      2566 4.14031E-08 3.50005E-08-7.97771E-09
 -1      2567 4.06680E-08 3.50924E-08-5.23293E-09
 -1      2568 3.75731E-09-3.67137E-09 1.00345E-10
 -1      2569 6.06132E-08-3.65810E-08-8.32041E-09
 -1      2570 6.09210E-08-3.63824E-08-1.16677E-08
 -1      2571 3.85484E-08-3.59191E-08-4.26731E-09
 -1      2572 1.28919E-07 3.61219E-08-4.58301E-08
 -1      2573 1.78945E-07-1.71377E-08 3.47259E-08
 -1      2574 1.83192E-07-8.00787E-09 4.27781E-08
 -1      2575 1.45199E-07-4.14691E-09 2.49681E-08
 -1      2576 1.32793E-07-1.21515E-08 3.35110E-08
 -1      2577 1.37343E-07-3.61533E-09 4.17932E-08
 -1      2578 2.11841E-06 2.31435E-07-1.65813E-08
 -1      2579 2.40380E-06 4.29857E-07 5.94383E-10
 -1      2580 1.87947E-06 1.01264E-07 2.32275E-09
 -1      2581 5.95757E-07-3.38617E-08-2.04028E-08
 -1      2582 5.97036E-07-1.33606E-08 7.26553E-10
 -1      2583 5.47809E-07-3.40231E-10-2.43646E-08
 -1      2584 2.29628E-13 7.91086E-13 1.56383E-14
 -1      2585 4.49252E-13 1.40639E-12 1.81275E-13
 -1      2586 5.62683E-12 6.48248E-12-4.94478E-15
 -1      2587 2.50264E-12 3.88912E-12 3.32462E-14
 -1      2588 4.96792E-12 6.29361E-12-6.73941E-13
 -1      2589 5.22569E-06-5.05136E-07 4.68627E-08
 -1      2590 5.67626E-06-2.11361E-07 5.03780E-08
 -1      2591 1.48714E-07 4.26406E-08-4.41574E-08
 -1      2592 1.65118E-07 4.71064E-08-3.98872E-08
 -1      2593 1.46064E-07 3.88304E-08-3.91843E-08
 -1      2594 1.52510E-07 4.40465E-08-3.82647E-08
 -1      2595 2.73009E-07-3.92887E-08-3.85495E-08
 -1      2596 3.09438E-07-2.72771E-08-2.61275E-08
 -1      2597 3.11086E-07-5.05668E-08-3.60071E-08
 -1      2598 2.79090E-07-5.66781E-08-2.47312E-08
 -1      2599 3.15742E-07-4.46639E-08-1.23310E-08
 -1      2600 1.85323E-08 2.89647E-08 6.16377E-09
 -1      2601 1.98768E-08 3.19293E-08 9.64566E-09
 -1      2602 1.50417E-08 2.86087E-08 4.53919E-09
 -1      2603 1.33675E-08 2.63070E-08 5.92181E-09
 -1      2604 3.11283E-06-8.18830E-07 3.35396E-08
 -1      2605 9.42009E-08 2.89454E-08 2.98211E-08
 -1      2606 6.36350E-08 2.83657E-08 1.88889E-08
 -1      2607 6.06612E-08 2.16206E-08 1.95589E-08
 -1      2608 1.03898E-07 3.08570E-08 2.49191E-08
 -1      2609 1.03995E-07 2.51335E-08 2.58509E-08
 -1      2610 7.26133E-08 2.47250E-08 1.61687E-08
 -1      2611 1.00789E-09-3.79797E-10-8.65952E-11
 -1      2612 4.99090E-06-7.08893E-07 4.92846E-08
 -1      2613 4.75655E-06-9.87884E-07 5.76441E-08
 -1      2614 5.49080E-13-1.52235E-12-1.79777E-13
 -1      2615 1.98839E-13-7.84809E-13-1.34976E-13
 -1      2616 4.22312E-13-1.10103E-12 1.39922E-14
 -1      2617 2.62819E-10 5.55814E-13-2.18210E-11
 -1      2618 2.04580E-10 9.98063E-12 8.88976E-13
 -1      2619 3.15518E-10-1.96322E-11 2.25371E-12
 -1      2620 9.54798E-08-3.69694E-08-3.69169E-08
 -1      2621 7.80479E-08-3.48762E-08-3.11317E-08
 -1      2622 1.86661E-06-1.16327E-07-1.84899E-08
 -1      2623 1.87630E-06-1.19711E-07 2.39004E-08
 -1      2624 2.55368E-07-5.61020E-08-4.98935E-09
 -1      2625 1.87191E-07-4.66878E-08 4.52635E-08
 -1      2626 1.75837E-07-3.93726E-08 4.50991E-08
 -1      2627 2.00904E-07-4.14159E-08 4.49073E-08
 -1      2628 9.89116E-08-3.53529E-08 8.28670E-09
 -1      2629 1.18515E-07-3.62715E-08 6.61833E-09
 -1      2630 4.50530E-09-5.20332E-09 3.31748E-10
 -1      2631 1.78687E-07 4.33483E-09 4.28296E-08
 -1      2632 6.34091E-10-1.40273E-10 5.89054E-11
 -1      2633 7.58761E-10-2.32067E-10 2.05021E-12
 -1      2634 2.23843E-07-5.58056E-08-1.45204E-08
 -1      2635 2.06426E-07-5.37444E-08-7.46862E-09
 -1      2636 2.23716E-07-4.73584E-08-3.86871E-09
 -1      2637 3.54448E-08-2.06291E-08-1.89838E-08
 -1      2638 7.28964E-08-2.96711E-08-3.12122E-08
 -1      2639 6.15915E-08-2.88835E-08-1.75670E-08
 -1      2640 1.66008E-07-2.62526E-08-4.21674E-08
 -1      2641 1.90084E-07-2.17342E-08-4.24258E-08
 -1      2642 1.39734E-07-2.14303E-08-2.99916E-08
 -1      2643 1.22190E-07-2.14306E-08-3.75742E-08
 -1      2644 1.44586E-07-1.70684E-08-3.87998E-08
 -1      2645 4.57330E-07 8.43901E-09 2.58740E-08
 -1      2646 2.82945E-08-3.35884E-08 1.10443E-08
 -1      2647 2.47759E-07-5.43127E-08-3.85897E-08
 -1      2648 2.79118E-08-3.39835E-08-2.53765E-09
 -1      2649 2.05263E-08-3.14504E-08-1.14664E-09
 -1      2650 2.97603E-08-3.43171E-08 6.39697E-10
 -1      2651 2.47248E-08-3.22999E-08 7.61916E-10
 -1      2652 1.78105E-08-3.01275E-08 1.43845E-09
 -1      2653 1.28413E-08-2.24646E-08 1.14533E-09
 -1      2654 4.30172E-06-1.69093E-06 4.41231E-08
 -1      2655 4.41844E-06-1.48695E-06 5.66120E-08
 -1      2656 4.61831E-06-1.24987E-06 4.71460E-08
 -1      2657 1.46401E-07-4.17057E-08-1.48257E-08
 -1      2658 1.30550E-07-3.79372E-08-1.09675E-08
 -1      2659 1.31490E-07-3.80428E-08-1.57520E-08
 -1      2660 1.18287E-07-3.62650E-08 1.98671E-09
 -1      2661 1.54194E-07-4.43636E-08 1.10057E-09
 -1      2662 1.54211E-07-4.45091E-08 6.14479E-09
 -1      2663 4.15661E-06-2.16885E-06 6.01751E-08
 -1      2664 4.18702E-06-2.05524E-06 4.05498E-08
 -1      2665 1.47598E-07 4.29260E-08 2.99013E-08
 -1      2666 1.48522E-07 4.28214E-08 3.52929E-08
 -1      2667 1.43235E-08 2.00765E-08-3.38335E-09
 -1      2668 1.87022E-06 1.17887E-07-1.42532E-08
 -1      2669 1.62097E-06 1.76784E-10-6.17985E-09
 -1      2670 3.40736E-07 4.81620E-08-3.41609E-08
 -1      2671 1.18769E-13 1.85075E-13 3.63313E-15
 -1      2672 3.63479E-07 5.77805E-08-3.20617E-08
 -1      2673 3.83119E-08-3.56773E-08-1.67235E-09
 -1      2674 3.12936E-10 1.98777E-11 2.30686E-12
 -1      2675 7.05045E-08 3.64414E-08 2.67884E-08
 -1      2676 7.66124E-08 3.20912E-08 3.37658E-08
 -1      2677 7.40387E-08 3.06902E-08 2.76461E-08
 -1      2678 5.89436E-08 3.26806E-08 2.69139E-08
 -1      2679 5.54465E-08 2.54037E-08 2.72315E-08
 -1      2680 1.33041E-07-3.22931E-08 4.20872E-08
 -1      2681 1.56985E-07-3.30720E-08 4.35567E-08
 -1      2682 1.50819E-07-3.71464E-08 4.37951E-08
 -1      2683 1.89789E-07 5.86089E-09-2.54274E-08
 -1      2684 1.94180E-07 9.43825E-09-1.48170E-08
 -1      2685 1.53290E-07-1.62573E-09-1.78419E-08
 -1      2686 1.80027E-07 2.22132E-08-2.22174E-08
 -1      2687 1.40314E-07 1.07678E-08-2.49155E-08
 -1      2688 1.44193E-07 1.39613E-08-1.45705E-08
 -1      2689 1.26696E-07 2.74562E-08-1.10572E-08
 -1      2690 1.26698E-07 2.69927E-08-2.16372E-08
 -1      2691 1.11743E-07 3.04703E-08-8.82416E-09
 -1      2692 1.38736E-07 3.11964E-08-1.87268E-08
 -1      2693 1.11866E-07 3.01542E-08-1.87368E-08
 -1      2694 3.79288E-08 3.37901E-08 7.29216E-09
 -1      2695 4.87086E-08 3.67911E-08 6.65585E-09
 -1      2696 3.41712E-08 3.52167E-08 6.43533E-09
 -1      2697 5.70727E-08 3.53129E-08 1.21356E-08
 -1      2698 3.98163E-08 3.56701E-08 1.10198E-08
 -1      2699 4.82016E-08 3.68120E-08 1.07884E-08
 -1      2700 5.61590E-13-1.54714E-12 2.17690E-13
 -1      2701 7.66491E-13-1.86988E-12 1.30287E-14
 -1      2702 3.36046E-08 2.30481E-08 7.60984E-09
 -1      2703 2.88796E-08 1.62092E-08 7.17476E-09
 -1      2704 2.23914E-08 3.34130E-08-1.13668E-08
 -1      2705 3.13867E-08 3.54999E-08-1.57045E-08
 -1      2706 2.98080E-07 2.07622E-09-1.03148E-08
 -1      2707 2.46815E-07 1.55753E-08-2.25399E-09
 -1      2708 2.85585E-07 2.39732E-08-1.13147E-09
 -1      2709 2.06932E-07 3.85526E-08-2.04973E-08
 -1      2710 2.34995E-07 4.04091E-08-2.97573E-08
 -1      2711 2.31302E-07 3.98973E-08-1.88829E-08
 -1      2712 3.79633E-07-5.10477E-08 3.29962E-08
 -1      2713 4.00272E-07-3.77630E-08 8.47980E-09
 -1      2714 7.77245E-08-2.84893E-08 2.19190E-08
 -1      2715 5.47046E-08-2.49227E-08 2.26784E-08
 -1      2716 3.71133E-08-2.70082E-08 1.09355E-08
 -1      2717 6.54289E-08-3.36554E-08 2.82144E-08
 -1      2718 1.43366E-07-3.03355E-08-4.07113E-08
 -1      2719 1.17896E-07-2.60232E-08-2.79225E-08
 -1      2720 1.09499E-07-3.01422E-08-3.74380E-08
 -1      2721 5.46393E-06 2.79422E-07 2.69794E-08
 -1      2722 4.97372E-06 6.61507E-07 2.15347E-08
 -1      2723 1.41462E-08 1.90108E-08 5.59287E-09
 -1      2724 9.05945E-09 1.32309E-08 2.90158E-09
 -1      2725 3.35849E-08-2.69496E-08 5.53970E-09
 -1      2726 4.34280E-08-3.65902E-08 5.87442E-09
 -1      2727 3.13562E-09 2.64851E-09-3.07138E-10
 -1      2728 1.33997E-07-1.91448E-08 4.08037E-08
 -1      2729 9.99241E-08 3.24553E-08-1.11671E-08
 -1      2730 1.26819E-07 3.33047E-08-1.10263E-08
 -1      2731 1.27245E-07 3.28677E-08-2.15461E-08
 -1      2732 8.28559E-08 2.45906E-08 1.06975E-08
 -1      2733 5.45694E-08 2.04275E-08 7.39334E-09
 -1      2734 8.36738E-08 2.45006E-08 9.18784E-10
 -1      2735 5.55406E-08 2.02654E-08-4.53147E-11
 -1      2736 6.80969E-08 2.74564E-08 2.43246E-09
 -1      2737 4.65358E-08-3.63154E-08 1.52672E-09
 -1      2738 1.01451E-07 1.92562E-08 1.23141E-08
 -1      2739 1.02257E-07 1.91824E-08 1.44925E-09
 -1      2740 1.15334E-07 2.56614E-08 4.59153E-09
 -1      2741 4.03378E-08 3.57128E-08 1.36016E-08
 -1      2742 6.15543E-08 3.71055E-08 1.70396E-08
 -1      2743 4.25062E-08 3.59948E-08 1.45979E-08
 -1      2744 7.52801E-08 3.52516E-08 2.31547E-08
 -1      2745 5.30498E-08 3.73511E-08 1.99738E-08
 -1      2746 7.36573E-08 3.66859E-08 2.39543E-08
 -1      2747 4.50790E-08-3.46362E-08 1.92241E-08
 -1      2748 4.73154E-06 9.32622E-07 9.16037E-09
 -1      2749 1.94133E-07 4.33137E-08 2.93599E-08
 -1      2750 2.09263E-07 5.28461E-08 3.03867E-08
 -1      2751 1.85703E-07 4.83075E-08 2.50793E-08
 -1      2752 5.68130E-08-3.63523E-08 4.12263E-09
 -1      2753 3.35626E-08-3.43385E-08 2.29681E-09
 -1      2754 1.39524E-07 3.80084E-08-3.01713E-08
 -1      2755 1.59546E-07 4.20410E-08-2.87424E-08
 -1      2756 1.50162E-07 3.55555E-08-3.22791E-08
 -1      2757 1.37996E-07 3.77577E-08-2.38542E-08
 -1      2758 1.30718E-07 3.31597E-08-2.72737E-08
 -1      2759 1.48578E-07 3.52280E-08-2.60847E-08
 -1      2760 1.35867E-09 6.61097E-10 1.37497E-10
 -1      2761 3.27608E-08 1.12609E-08-2.08804E-09
 -1      2762 3.10214E-08 1.17735E-08 2.88435E-09
 -1      2763 4.12412E-07 5.59273E-08 3.38332E-08
 -1      2764 4.71431E-07 4.68919E-08 3.41041E-08
 -1      2765 4.21565E-07 3.18804E-08 3.22376E-08
 -1      2766 2.00141E-07 5.18008E-08-7.41991E-09
 -1      2767 1.82338E-07 4.89684E-08-1.00552E-08
 -1      2768 1.11502E-07-3.60453E-08-1.25872E-08
 -1      2769 1.11053E-07-3.60492E-08-1.74121E-08
 -1      2770 3.64309E-08-3.73473E-08 1.63814E-08
 -1      2771 3.59094E-08-3.57135E-08 1.58428E-08
 -1      2772 2.64097E-08-3.34086E-08 1.18972E-08
 -1      2773 7.37579E-08-3.53121E-08 1.70721E-08
 -1      2774 7.18939E-08-2.97339E-08 1.25316E-08
 -1      2775 3.63961E-07-5.20072E-08-3.39314E-08
 -1      2776 3.68947E-07-4.58538E-08-1.03332E-08
 -1      2777 4.36757E-07-4.81482E-08-3.39198E-08
 -1      2778 3.81772E-07-2.36847E-08-2.57497E-08
 -1      2779 2.12808E-07 1.00389E-08-4.19289E-08
 -1      2780 2.27753E-07 2.18021E-08-2.58334E-08
 -1      2781 2.26726E-07-4.53495E-09-3.45641E-08
 -1      2782 2.65353E-07 1.18136E-08-3.47820E-08
 -1      2783 2.42523E-07 7.20623E-09-1.83050E-08
 -1      2784 1.64947E-07 4.75473E-08-2.48971E-08
 -1      2785 1.76698E-07-3.46491E-09 1.59392E-08
 -1      2786 1.46280E-07 3.57620E-09 1.55967E-08
 -1      2787 1.15248E-07 2.53892E-09 2.37176E-08
 -1      2788 1.80991E-07 6.00699E-09 2.42394E-08
 -1      2789 4.28417E-07-3.78676E-08-8.92809E-09
 -1      2790 3.72689E-07-1.36688E-08-5.01180E-10
 -1      2791 4.10975E-06-2.14634E-06 5.58629E-08
 -1      2792 3.94631E-06-1.82655E-06 5.06712E-08
 -1      2793 2.44943E-07 1.75060E-08 3.32063E-08
 -1      2794 2.83196E-07 2.60078E-08 3.38578E-08
 -1      2795 5.55924E-09-8.01078E-09 1.21360E-09
 -1      2796 5.67701E-08-3.63610E-08-1.76065E-08
 -1      2797 7.72391E-08-3.60259E-08-2.19587E-08
 -1      2798 6.90237E-08 3.78147E-08 2.56903E-08
 -1      2799 7.61026E-08 3.75819E-08 3.30981E-08
 -1      2800 8.22982E-08 3.86708E-08 3.42061E-08
 -1      2801 9.41482E-08 3.65509E-08 3.23203E-08
 -1      2802 8.40023E-08 3.58380E-08 1.79928E-08
 -1      2803 8.95134E-08 3.52699E-08 1.23675E-08
 -1      2804 7.33981E-08 3.44601E-08 1.31557E-08
 -1      2805 8.84138E-08 3.33163E-08 2.06403E-08
 -1      2806 9.25080E-08 3.27494E-08 1.47229E-08
 -1      2807 2.28394E-07 2.85761E-08-3.84471E-08
 -1      2808 2.51822E-07 2.94402E-08-2.23410E-08
 -1      2809 2.57165E-07 2.44812E-08-3.47330E-08
 -1      2810 2.40433E-07 3.56059E-08-4.19958E-08
 -1      2811 2.64331E-07 3.66860E-08-2.60276E-08
 -1      2812 9.53622E-08 3.51643E-08-1.99849E-08
 -1      2813 9.26175E-08 3.50740E-08-1.50070E-08
 -1      2814 7.89891E-08 3.62071E-08-1.79748E-08
 -1      2815 1.15595E-07 3.48616E-08-1.90195E-08
 -1      2816 1.01890E-07 3.58792E-08-1.77351E-08
 -1      2817 6.08610E-06-9.30875E-08 4.62221E-08
 -1      2818 1.80028E-07 3.26353E-08-4.27033E-08
 -1      2819 1.55175E-07 2.95978E-08-4.02385E-08
 -1      2820 1.75540E-07 3.88603E-08-4.28272E-08
 -1      2821 1.50537E-07 3.44357E-08-4.03756E-08
 -1      2822 1.64475E-07 3.40408E-08-3.23533E-08
 -1      2823 1.21893E-07 3.84412E-08 4.13916E-09
 -1      2824 1.22395E-07 3.79020E-08 1.18502E-08
 -1      2825 1.11476E-07 3.48156E-08 5.83202E-09
 -1      2826 1.00212E-07 3.58847E-08 8.65286E-09
 -1      2827 2.11400E-08 2.32330E-08 7.09467E-09
 -1      2828 2.63854E-08 3.52368E-08 1.33083E-08
 -1      2829 3.53668E-08 3.57045E-08 1.66367E-08
 -1      2830 3.40402E-08 3.59863E-08 1.75416E-08
 -1      2831 4.16601E-08 3.69570E-08 1.79306E-08
 -1      2832 9.69822E-08 3.54929E-08 2.92671E-08
 -1      2833 1.80303E-07 1.56127E-08 2.14469E-08
 -1      2834 1.73840E-07 1.44165E-08 9.81718E-09
 -1      2835 2.11798E-07 1.85058E-08 1.25851E-08
 -1      2836 1.42205E-07 2.11256E-08 1.63146E-08
 -1      2837 1.78742E-07 2.54132E-08 1.94248E-08
 -1      2838 5.93083E-06 1.11599E-07 3.21735E-08
 -1      2839 1.67353E-07 1.34016E-08-4.18130E-08
 -1      2840 1.31589E-07 5.85663E-09-3.39742E-08
 -1      2841 1.23541E-07 1.37890E-08-3.92904E-08
 -1      2842 1.31669E-07 1.84898E-08-3.06023E-08
 -1      2843 9.47575E-08 1.12770E-08-2.13246E-08
 -1      2844 2.05591E-08 2.30841E-08-6.48668E-09
 -1      2845 1.18144E-08 1.51118E-08-4.75823E-09
 -1      2846 3.36576E-08 3.33321E-08-1.50446E-08
 -1      2847 2.18498E-08 2.93488E-08-8.57888E-09
 -1      2848 1.11126E-07 3.61811E-08 4.13063E-08
 -1      2849 1.07977E-07 3.50908E-08 4.09050E-08
 -1      2850 9.64040E-08 3.47928E-08 2.98274E-08
 -1      2851 1.13142E-07 3.52554E-08 3.74969E-08
 -1      2852 1.05626E-07 3.03483E-08 1.60906E-08
 -1      2853 8.33545E-08 3.05732E-08 1.00712E-08
 -1      2854 1.27510E-07 3.28036E-08 1.39432E-08
 -1      2855 1.16834E-07 3.00494E-08 8.93837E-09
 -1      2856 1.04093E-07 3.22924E-08 8.26186E-09
 -1      2857 1.51700E-08 1.77673E-08-3.32221E-09
 -1      2858 6.02810E-08 3.59622E-08-1.04490E-08
 -1      2859 6.16285E-08 3.62105E-08-6.12477E-09
 -1      2860 5.42118E-08 3.70956E-08-9.19022E-09
 -1      2861 7.38465E-08 3.61410E-08-1.06368E-08
 -1      2862 5.49168E-08 3.70637E-08-5.35525E-09
 -1      2863 2.02777E-07 3.64921E-08 3.58265E-08
 -1      2864 1.64356E-07 3.66905E-08 3.62538E-08
 -1      2865 2.02440E-07 3.56890E-08 2.81219E-08
 -1      2866 1.72900E-07 3.09801E-08 3.51660E-08
 -1      2867 1.63640E-07 3.60263E-08 2.85355E-08
 -1      2868 1.63809E-07 3.68225E-08-1.15163E-08
 -1      2869 1.87596E-07 3.41131E-08-1.32355E-08
 -1      2870 1.63713E-07 3.60076E-08-2.25441E-08
 -1      2871 1.61611E-07 2.94189E-08-9.91336E-09
 -1      2872 1.61287E-07 2.87852E-08-2.09257E-08
 -1      2873 5.68495E-08-3.23234E-08 4.02041E-09
 -1      2874 2.23832E-07-5.10322E-08-4.28431E-08
 -1      2875 1.99489E-07-3.31676E-08-4.24290E-08
 -1      2876 2.44101E-07-3.04959E-08-4.21099E-08
 -1      2877 7.02397E-08 2.83672E-08-1.76367E-08
 -1      2878 1.01601E-07 2.69038E-08-2.01168E-08
 -1      2879 8.77166E-08 3.04492E-08-1.67800E-08
 -1      2880 2.86500E-07-5.81197E-08-8.69141E-09
 -1      2881 7.85520E-09-1.18030E-08 2.07829E-09
 -1      2882 2.37836E-07-5.34174E-08-3.10479E-08
 -1      2883 1.99156E-07-1.23245E-08-3.47232E-08
 -1      2884 2.54353E-07-1.96789E-08-3.43057E-08
 -1      2885 5.60039E-09-7.11895E-09 9.63404E-10
 -1      2886 2.58201E-07-1.44655E-08-9.80600E-09
 -1      2887 2.81401E-07-1.06235E-08-2.64727E-08
 -1      2888 6.06239E-08-3.85243E-08-2.88119E-08
 -1      2889 4.47003E-08-3.58999E-08-1.86036E-08
 -1      2890 3.25307E-08 1.37549E-08 1.61543E-08
 -1      2891 3.30880E-07-4.90331E-09-2.60521E-08
 -1      2892 2.09171E-08 1.12651E-08-6.09303E-10
 -1      2893 2.71873E-07 3.83240E-08 4.01435E-08
 -1      2894 2.89987E-07 5.81922E-08 3.95355E-08
 -1      2895 9.74221E-08 3.73393E-08 3.89483E-08
 -1      2896 7.34311E-08-3.64989E-08 2.82078E-09
 -1      2897 5.10244E-08-3.67755E-08-3.55434E-09
 -1      2898 2.48046E-07-5.44474E-08-2.12675E-08
 -1      2899 1.15460E-08-1.68438E-08 3.81363E-09
 -1      2900 1.44287E-07 2.12990E-08-2.35530E-08
 -1      2901 1.00592E-07 2.07858E-08-2.01352E-08
 -1      2902 1.58159E-07 2.56404E-08-3.12927E-08
 -1      2903 1.15136E-07 2.45534E-08-2.81968E-08
 -1      2904 1.18755E-07-3.67235E-08 2.90966E-08
 -1      2905 1.33665E-07-3.51842E-08 2.79022E-08
 -1      2906 1.10534E-07-3.40036E-08 3.22384E-08
 -1      2907 1.04151E-07-3.37941E-08 2.49798E-08
 -1      2908 5.65517E-08 3.54020E-08 5.65476E-09
 -1      2909 3.99810E-08 3.40838E-08 5.71325E-09
 -1      2910 4.26581E-08 3.56092E-08 2.44408E-09
 -1      2911 1.22974E-07 3.79692E-08 1.65214E-08
 -1      2912 1.02206E-07 3.58488E-08 1.78385E-08
 -1      2913 1.52867E-07 4.27002E-08 4.74859E-08
 -1      2914 1.85447E-07-4.88519E-08 2.43034E-08
 -1      2915 1.84668E-07-4.86291E-08 1.85181E-08
 -1      2916 2.09310E-07-5.25220E-08 2.20496E-08
 -1      2917 2.41238E-07-5.49040E-08 1.44313E-08
 -1      2918 2.66768E-07-5.69213E-08 1.87608E-08
 -1      2919 4.88792E-10-8.47221E-11 1.58715E-12
 -1      2920 1.18490E-07-3.55027E-08-3.22729E-08
 -1      2921 1.38590E-07-3.82079E-08-3.61128E-08
 -1      2922 1.37436E-07-3.77465E-08-3.07518E-08
 -1      2923 1.06178E-10-2.41628E-11-9.05289E-12
 -1      2924 1.30823E-07-3.40198E-08-2.12975E-08
 -1      2925 1.86767E-07-3.65234E-08-1.01380E-08
 -1      2926 1.54478E-07-3.21973E-08-9.70620E-09
 -1      2927 1.57915E-07-3.93959E-08-1.29207E-08
 -1      2928 1.02865E-07-2.38680E-08 2.44133E-08
 -1      2929 1.47252E-07-1.33546E-08-2.26291E-08
 -1      2930 1.49779E-07-5.51686E-09-3.44665E-08
 -1      2931 1.30702E-07 3.67205E-08-1.17032E-08
 -1      2932 1.34703E-07 3.70384E-08-1.81426E-08
 -1      2933 1.53899E-07 4.13370E-08-1.58223E-08
 -1      2934 1.44549E-07 3.56296E-08-8.64976E-09
 -1      2935 1.48216E-07 3.58956E-08-1.50988E-08
 -1      2936 2.62290E-07 5.63720E-08 6.37984E-09
 -1      2937 1.52592E-07 4.03383E-08 8.09893E-09
 -1      2938 1.65153E-07 4.03102E-08 2.71541E-09
 -1      2939 1.42976E-07 3.42117E-08 8.83472E-09
 -1      2940 1.73273E-07 4.22673E-08 7.77761E-09
 -1      2941 1.50456E-07 3.55765E-08 1.38393E-08
 -1      2942 2.22706E-08 3.19757E-08 2.11792E-09
 -1      2943 2.38028E-08 3.24361E-08-4.73856E-10
 -1      2944 2.83491E-08 3.22054E-08 3.81118E-10
 -1      2945 3.62386E-08 3.56042E-08-5.51370E-10
 -1      2946 3.09667E-08 3.32933E-08-3.37371E-09
 -1      2947 1.66560E-07-4.47953E-08 4.54934E-08
 -1      2948 1.81971E-07-4.59493E-08 3.85528E-08
 -1      2949 1.55318E-07-4.32763E-08 3.73173E-08
 -1      2950 1.65724E-07-3.83318E-08 3.73431E-08
 -1      2951 1.30372E-07-3.26604E-08-3.99266E-08
 -1      2952 2.75682E-08 2.52995E-08-1.29780E-08
 -1      2953 2.78307E-08 1.84700E-08-1.18243E-08
 -1      2954 6.16337E-08 3.22563E-08-2.63526E-08
 -1      2955 2.75654E-08 2.36595E-08-8.53137E-09
 -1      2956 1.37527E-07 3.92947E-08-4.78236E-08
 -1      2957 1.40503E-13 5.24418E-13 1.33992E-13
 -1      2958 6.24872E-08 3.40504E-08 1.87882E-08
 -1      2959 8.19993E-12-8.04600E-12-1.05000E-12
 -1      2960 1.33494E-11-1.10929E-11-1.47872E-12
 -1      2961 1.09041E-11-9.37090E-12 7.68034E-14
 -1      2962 4.41189E-10-5.56924E-11-3.42742E-11
 -1      2963 1.71225E-07-1.06141E-08-1.60375E-10
 -1      2964 2.07899E-07-5.04345E-10-1.72120E-09
 -1      2965 2.11844E-07-1.44963E-08 2.58064E-09
 -1      2966 3.09769E-06-8.19060E-07-5.91575E-09
 -1      2967 3.61381E-06-1.38776E-06-5.06260E-09
 -1      2968 2.29948E-11 1.44826E-11-2.45075E-12
 -1      2969 1.71438E-11 1.24013E-11-1.90821E-14
 -1      2970 3.02040E-11 1.57626E-11 1.58930E-13
 -1      2971 3.12739E-08-1.52128E-08 1.55736E-08
 -1      2972 1.05115E-10-2.49235E-11 1.05450E-11
 -1      2973 2.66528E-10 1.54259E-12 2.51419E-11
 -1      2974 4.14509E-08-1.40066E-08-2.74011E-09
 -1      2975 2.76980E-08 1.49064E-08 1.65379E-08
 -1      2976 2.68162E-12 4.19184E-12-4.41094E-13
 -1      2977 2.11964E-07 1.81767E-08 2.47280E-08
 -1      2978 2.08909E-07 1.63937E-08 4.32842E-08
 -1      2979 1.18822E-08-2.52835E-08 2.97251E-09
 -1      2980 1.37622E-08-2.72839E-08 2.61571E-09
 -1      2981 1.07559E-08-1.77195E-08 2.83913E-09
 -1      2982 5.63306E-11 2.31239E-11 5.84348E-12
 -1      2983 8.10812E-08-2.91866E-08 3.35602E-08
 -1      2984 8.87950E-08-3.48860E-08 3.43262E-08
 -1      2985 1.08486E-07 2.03421E-08 2.30373E-08
 -1      2986 1.45111E-07 2.67442E-08 2.10738E-08
 -1      2987 1.05449E-07 2.44866E-08 1.66932E-08
 -1      2988 2.11882E-06 2.35456E-07 1.93137E-08
 -1      2989 1.07727E-08-1.63728E-08-1.34411E-09
 -1      2990 4.22012E-09-4.21303E-09 5.29051E-10
 -1      2991 3.95506E-06-1.87351E-06 1.52135E-09
 -1      2992 1.57136E-07 5.38034E-09-1.85961E-09
 -1      2993 9.09885E-08 2.06524E-09-1.55688E-10
 -1      2994 1.08221E-07 1.01133E-08 1.03781E-08
 -1      2995 1.19241E-07 1.18963E-08-5.96048E-09
 -1      2996 1.85066E-07 3.33681E-08-4.64907E-09
 -1      2997 1.61448E-07 3.61293E-08-3.08531E-09
 -1      2998 1.59731E-07 2.26688E-08-3.11724E-09
 -1      2999 1.38107E-07 2.61934E-08-1.46205E-09
 -1      3000 6.87088E-08 3.75929E-08-2.74218E-08
 -1      3001 4.90132E-08 3.58672E-08-2.12637E-08
 -1      3002 5.58091E-08 3.53382E-08 6.99420E-10
 -1      3003 7.39624E-08 3.59792E-08-1.14763E-09
 -1      3004 7.39942E-08 3.59909E-08 2.70945E-09
 -1      3005 2.22716E-08 3.21317E-08 8.81329E-09
 -1      3006 2.78333E-08 3.33446E-08 9.68961E-09
 -1      3007 2.25718E-08 3.14578E-08 4.40527E-09
 -1      3008 1.83468E-08 3.03752E-08 4.56392E-09
 -1      3009 1.87275E-07 3.17616E-08-2.31345E-08
 -1      3010 3.62224E-06-1.38484E-06 4.53541E-08
 -1      3011 8.11697E-08 2.71430E-08 3.41752E-08
 -1      3012 1.22649E-07 2.95454E-08 4.08375E-08
 -1      3013 8.88393E-08 2.31074E-08 3.11255E-08
 -1      3014 9.07545E-08 3.56266E-08 3.68213E-08
 -1      3015 1.80563E-07-4.45167E-08-5.54621E-09
 -1      3016 1.95404E-07-5.25188E-08 3.89135E-10
 -1      3017 2.13004E-07-4.65565E-08 3.94552E-09
 -1      3018 1.59896E-06-8.64073E-09 4.98565E-09
 -1      3019 1.68886E-06-7.62014E-08 4.16032E-08
 -1      3020 1.59787E-06-2.65268E-08 4.68287E-09
 -1      3021 5.44956E-08-3.33934E-08-2.40337E-08
 -1      3022 1.16199E-06 3.69799E-08 1.29754E-09
 -1      3023 2.54676E-07 5.49294E-08 4.12330E-08
 -1      3024 2.70145E-07 5.69105E-08 3.02902E-08
 -1      3025 1.24087E-07 2.17418E-08-4.67154E-09
 -1      3026 1.48082E-07 2.43117E-08-1.32735E-08
 -1      3027 3.60710E-11 1.78329E-11 3.40381E-12
 -1      3028 1.92997E-07-1.88553E-08-1.24418E-08
 -1      3029 2.22712E-07-2.52314E-08-2.26172E-08
 -1      3030 6.39752E-09 1.00960E-08-1.13725E-09
 -1      3031 1.49215E-07-3.62324E-08-4.13979E-08
 -1      3032 2.25298E-07 5.39014E-08-5.86283E-09
 -1      3033 2.46542E-07 4.69795E-08-1.97417E-09
 -1      3034 2.31773E-07 5.37794E-08 3.95877E-09
 -1      3035 1.44505E-06-2.32963E-08 5.18967E-10
 -1      3036 1.51069E-06 4.29308E-10-2.18739E-09
 -1      3037 3.74590E-06-1.59701E-06 2.30805E-08
 -1      3038 1.42270E-07 3.18287E-08 4.26726E-08
 -1      3039 1.57097E-07 2.84469E-08 4.33123E-08
 -1      3040 1.60756E-07 3.39406E-08 4.35291E-08
 -1      3041 1.86279E-07 5.19856E-08 1.24016E-08
 -1      3042 2.02224E-07 5.11394E-08 1.64960E-08
 -1      3043 1.98039E-07 5.07730E-08 6.83610E-09
 -1      3044 1.77563E-07 4.27802E-08 1.74684E-08
 -1      3045 1.89425E-07 4.21035E-08 1.19210E-08
 -1      3046 7.77752E-08 2.22009E-08-3.20580E-08
 -1      3047 7.92838E-08 1.37948E-08-3.38578E-08
 -1      3048 1.03118E-07 1.96402E-08-3.68883E-08
 -1      3049 2.71896E-07 3.50736E-08 1.20346E-08
 -1      3050 3.07068E-07 4.46354E-08 1.08218E-08
 -1      3051 2.79132E-07 3.54564E-08 2.27802E-08
 -1      3052 3.25755E-07 3.18678E-08 1.50429E-08
 -1      3053 1.83911E-07 2.81517E-08-3.36162E-08
 -1      3054 4.45394E-08 3.88263E-08-2.18895E-08
 -1      3055 3.36959E-07 4.57853E-08-2.71646E-09
 -1      3056 3.61983E-07 4.60650E-08-1.88451E-08
 -1      3057 3.86163E-07 4.08839E-08-2.34516E-09
 -1      3058 1.57279E-07 4.15374E-08 2.10089E-08
 -1      3059 1.47448E-07 3.50035E-08 2.14906E-08
 -1      3060 1.74042E-07 4.19240E-08 2.53326E-08
 -1      3061 1.66249E-07 3.57971E-08 1.80869E-08
 -1      3062 1.32326E-07-3.78895E-08 4.60605E-08
 -1      3063 1.39689E-07 3.65184E-08 3.79709E-08
 -1      3064 1.48968E-07 3.52719E-08 4.34693E-08
 -1      3065 3.10986E-06 8.30667E-07 1.96272E-08
 -1      3066 3.11624E-07-5.93184E-08 1.07584E-08
 -1      3067 2.67255E-07-4.55783E-08 2.83737E-08
 -1      3068 3.22718E-07-5.69480E-08 3.29747E-08
 -1      3069 1.84709E-10 1.75828E-11-1.42991E-11
 -1      3070 1.46631E-07 4.29206E-08 2.45618E-08
 -1      3071 6.27626E-06-2.22144E-08 4.43197E-08
 -1      3072 1.51560E-08-2.84637E-08 4.72339E-09
 -1      3073 5.73786E-08-3.64491E-08 7.32758E-09
 -1      3074 3.39146E-08-3.43562E-08 4.76441E-09
 -1      3075 3.41569E-08-3.42836E-08 7.23725E-09
 -1      3076 3.46414E-09 3.31452E-09 1.95949E-11
 -1      3077 4.19472E-09 4.44026E-09-4.66439E-10
 -1      3078 2.27759E-08-3.22838E-08 9.89312E-09
 -1      3079 2.17633E-08-3.15430E-08 7.45198E-09
 -1      3080 2.90146E-08-3.36679E-08 9.35615E-09
 -1      3081 1.82144E-07-4.98652E-08-1.56188E-08
 -1      3082 1.51340E-07-4.17001E-08-2.46168E-08
 -1      3083 6.22453E-10-1.43284E-10-5.28063E-11
 -1      3084 6.09248E-06-6.95645E-08 4.09090E-08
 -1      3085 2.03933E-07-5.15111E-08 2.94578E-08
 -1      3086 2.03064E-07-4.95026E-08 3.83125E-08
 -1      3087 1.91186E-07-4.12572E-08 2.95301E-08
 -1      3088 1.84925E-07-4.66969E-08 3.33808E-08
 -1      3089 1.30120E-08 2.70127E-08 1.64701E-09
 -1      3090 8.52210E-08 1.16242E-08-8.03838E-09
 -1      3091 4.47114E-09-4.94977E-09-4.97252E-10
 -1      3092 3.22336E-09-2.77137E-09-3.23532E-10
 -1      3093 1.16455E-07-3.55531E-08-2.68345E-08
 -1      3094 1.46801E-07 3.73338E-08-4.71730E-08
 -1      3095 2.47186E-07-5.25509E-08 4.41429E-08
 -1      3096 2.13261E-07-5.14504E-08 4.46556E-08
 -1      3097 1.28078E-08 1.91921E-08 1.92630E-09
 -1      3098 1.11514E-07-3.64038E-08 4.11140E-08
 -1      3099 4.60441E-08-3.88299E-08-2.27578E-08
 -1      3100 1.99141E-07-5.27148E-08-1.29779E-08
 -1      3101 6.48252E-07 3.70585E-08 2.66938E-08
 -1      3102 7.12505E-07 3.67895E-08 9.30689E-10
 -1      3103 2.38381E-07-3.35647E-08 1.41743E-08
 -1      3104 8.29894E-08 6.73804E-09 2.92154E-08
 -1      3105 1.18261E-07 9.56306E-09 4.03770E-08
 -1      3106 1.20829E-07-4.21474E-09-2.75324E-10
 -1      3107 2.50023E-07 2.69888E-08 1.35083E-08
 -1      3108 2.38639E-07 3.83283E-08 2.01066E-08
 -1      3109 2.31308E-07 3.77805E-08 9.19798E-09
 -1      3110 2.49928E-07 2.66530E-08 2.54790E-08
 -1      3111 1.04417E-06-3.49588E-08 1.12176E-09
 -1      3112 1.80266E-07 3.03630E-10-3.46807E-08
 -1      3113 6.29733E-06-2.88098E-08 5.14874E-08
 -1      3114 6.08346E-06-7.64931E-08 5.27441E-08
 -1      3115 2.42766E-12-3.99521E-12 4.62560E-13
 -1      3116 2.97334E-09 2.41761E-09 3.35531E-10
 -1      3117 4.20063E-09 4.40395E-09 5.11888E-10
 -1      3118 1.94267E-07-1.79050E-08-2.59173E-08
 -1      3119 7.82944E-08 3.61855E-08-1.38434E-08
 -1      3120 7.91400E-08 3.61155E-08-8.93280E-09
 -1      3121 1.07178E-09 4.53165E-10 1.48250E-11
 -1      3122 9.31309E-10 3.36595E-10-8.22389E-11
 -1      3123 5.40023E-07 5.22249E-08 2.68133E-08
 -1      3124 5.07479E-07 2.73841E-08 2.67256E-08
 -1      3125 4.95890E-07 5.22617E-08 1.01373E-08
 -1      3126 1.73201E-07 2.35335E-08-4.17300E-08
 -1      3127 1.45445E-07 2.00206E-08-4.10744E-08
 -1      3128 5.59365E-08 3.52735E-08-2.63540E-09
 -1      3129 5.12008E-08 3.71016E-08-2.26422E-09
 -1      3130 4.08157E-08 3.50629E-08-2.44780E-09
 -1      3131 1.90698E-08-3.02972E-08 4.82003E-09
 -1      3132 5.93163E-12-6.68854E-12 3.74519E-14
 -1      3133 5.24145E-12-6.27794E-12-6.38351E-13
 -1      3134 1.99301E-08-1.97568E-08 8.00535E-09
 -1      3135 1.38155E-08-1.73745E-08 4.94067E-09
 -1      3136 1.03907E-07 2.69473E-08-4.57543E-09
 -1      3137 1.01878E-07 3.24195E-08-1.97821E-08
 -1      3138 1.05156E-07 3.27006E-08-2.51741E-08
 -1      3139 8.43641E-08 3.36710E-08-2.01510E-08
 -1      3140 4.22037E-06-1.92011E-06 2.47710E-08
 -1      3141 1.50436E-07 4.41762E-08 1.69164E-08
 -1      3142 1.49836E-07 4.42542E-08 1.17950E-08
 -1      3143 1.35754E-07 3.74781E-08 1.34686E-08
 -1      3144 1.67015E-07 4.84348E-08 9.37133E-09
 -1      3145 1.68317E-07 4.85402E-08 1.50401E-08
 -1      3146 5.79960E-08 3.26193E-08-7.39401E-09
 -1      3147 8.21503E-08 3.35153E-08-7.41671E-09
 -1      3148 6.36886E-08 3.20421E-08-2.55103E-09
 -1      3149 5.23727E-08 3.50600E-08-6.11818E-09
 -1      3150 3.90569E-08 3.11376E-08-2.16484E-09
 -1      3151 5.86857E-08 3.48256E-08-1.56473E-09
 -1      3152 4.35389E-07 5.60268E-08-4.09412E-10
 -1      3153 4.71631E-07 3.69681E-08-8.00792E-09
 -1      3154 4.46323E-07 3.72938E-08 8.18531E-09
 -1      3155 1.04878E-07-2.40624E-08 3.75471E-08
 -1      3156 6.59960E-08-2.10433E-08 2.66429E-08
 -1      3157 1.13260E-07-3.03641E-08 3.09005E-08
 -1      3158 1.97195E-08-3.06224E-08 4.18472E-09
 -1      3159 2.45284E-08-2.22516E-08-7.35665E-09
 -1      3160 2.83971E-08-2.31569E-08-1.45689E-08
 -1      3161 2.61478E-08-3.26590E-08 5.13601E-09
 -1      3162 3.79249E-11 1.85157E-11-3.44954E-12
 -1      3163 2.13972E-08-3.14549E-08 7.75070E-09
 -1      3164 2.43642E-08-3.21007E-08 2.84049E-09
 -1      3165 3.18279E-07 3.50570E-08 3.24096E-08
 -1      3166 1.31306E-07-3.52349E-08-4.02409E-08
 -1      3167 1.14501E-07-3.40584E-08-3.79919E-08
 -1      3168 2.96067E-07-3.26353E-08 2.46085E-08
 -1      3169 1.52864E-07-4.15880E-08-4.67327E-08
 -1      3170 1.32479E-07-3.86978E-08-4.61592E-08
 -1      3171 8.84114E-07-3.48653E-08 9.04714E-10
 -1      3172 8.29450E-07 3.50777E-09 9.33826E-10
 -1      3173 8.62056E-07-3.49319E-08 2.77101E-08
 -1      3174 6.97118E-07-3.32262E-08-2.42818E-08
 -1      3175 2.34967E-07-5.54259E-08 2.62716E-08
 -1      3176 2.23379E-07-4.59716E-08 1.29710E-08
 -1      3177 2.35394E-07-4.43005E-08 3.58900E-08
 -1      3178 1.42004E-07-3.11854E-08 3.34741E-08
 -1      3179 1.05636E-07-3.22106E-08 3.81093E-08
 -1      3180 1.32762E-07-2.75594E-08 4.03660E-08
 -1      3181 2.33537E-11 1.49622E-11 2.31789E-12
 -1      3182 1.30744E-07 3.05027E-08-3.88576E-08
 -1      3183 1.36663E-07 3.36342E-08-3.58462E-08
 -1      3184 1.20468E-07 3.31439E-08-3.10554E-08
 -1      3185 4.65330E-09 5.71157E-09 4.14032E-11
 -1      3186 6.79474E-07 3.16110E-09 8.25268E-10
 -1      3187 6.26833E-07-5.07317E-08 2.66714E-08
 -1      3188 7.11550E-07-3.45708E-08 2.71044E-08
 -1      3189 1.49048E-09 7.57931E-10-1.31939E-10
 -1      3190 7.27793E-08-3.14096E-08 1.73042E-09
 -1      3191 5.09694E-08-2.54334E-08-5.49726E-09
 -1      3192 8.33935E-08-3.00974E-08-6.20160E-09
 -1      3193 8.70853E-08-3.42771E-08-4.30975E-09
 -1      3194 6.91005E-08-3.10570E-08-1.20190E-08
 -1      3195 5.81776E-08 3.90875E-08-2.41217E-08
 -1      3196 4.48034E-08 3.83110E-08-1.93920E-08
 -1      3197 8.19611E-08 3.36927E-08-1.23711E-08
 -1      3198 1.14357E-07 3.01464E-08-2.79782E-08
 -1      3199 1.54059E-08-1.95201E-08-5.66901E-09
 -1      3200 2.01289E-08-3.14999E-08-9.14486E-09
 -1      3201 8.61232E-09-1.30619E-08-2.33969E-09
 -1      3202 2.05059E-08-2.72599E-08-4.41098E-09
 -1      3203 3.52812E-07 2.44972E-08 3.23612E-08
 -1      3204 3.96909E-07 1.83751E-08 7.43303E-09
 -1      3205 3.60939E-07 1.00283E-08 8.51060E-09
 -1      3206 3.87797E-07 1.89500E-09 2.58476E-08
 -1      3207 1.72641E-12-3.10456E-12 1.55914E-15
 -1      3208 3.21962E-12-4.54894E-12 3.49498E-14
 -1      3209 2.49693E-12-3.97493E-12-4.07700E-13
 -1      3210 1.84675E-07 4.83397E-08 1.92688E-08
 -1      3211 1.61879E-06 1.18378E-08 5.01250E-09
 -1      3212 1.61942E-06-1.11620E-08 7.03536E-09
 -1      3213 4.57597E-11 1.93506E-11 3.81296E-13
 -1      3214 6.66289E-08-3.60377E-08-6.95224E-10
 -1      3215 8.50589E-08-3.47398E-08 6.58925E-09
 -1      3216 1.58517E-08 2.96276E-08-7.19039E-09
 -1      3217 1.27326E-08 2.56095E-08-5.04585E-09
 -1      3218 4.37421E-08-3.57089E-08-1.60125E-08
 -1      3219 4.87406E-07-4.81539E-08-2.02169E-08
 -1      3220 2.07759E-09 1.31756E-09 2.31133E-10
 -1      3221 1.67994E-09 9.78240E-10 1.13304E-11
 -1      3222 2.40066E-08-1.92493E-08-5.47993E-09
 -1      3223 2.37618E-11-1.49857E-11 2.59391E-12
 -1      3224 1.11948E-07 3.48196E-08-7.51715E-09
 -1      3225 1.30267E-07 3.71121E-08-5.27889E-09
 -1      3226 1.26518E-07 3.35143E-08-4.64502E-09
 -1      3227 1.80368E-08-2.88022E-08 7.61819E-09
 -1      3228 3.33699E-06 1.03474E-06-1.82520E-10
 -1      3229 3.10627E-06 8.25513E-07-2.10980E-08
 -1      3230 2.63587E-10 1.01796E-12-2.14244E-11
 -1      3231 4.32822E-10 5.77995E-11-3.31263E-11
 -1      3232 3.89841E-07 4.32094E-08-3.37758E-08
 -1      3233 4.45396E-07 3.64678E-08-3.38618E-08
 -1      3234 1.57989E-06 1.33721E-08 1.19271E-09
 -1      3235 1.69202E-06 6.70611E-08 1.96434E-09
 -1      3236 1.24229E-06-3.77788E-08 8.29577E-10
 -1      3237 4.20399E-06 1.86450E-06-9.38932E-09
 -1      3238 4.16827E-06 2.00784E-06 7.01269E-09
 -1      3239 8.48458E-08 3.60335E-08-2.24532E-08
 -1      3240 4.40897E-06-1.49298E-06 3.48685E-08
 -1      3241 4.74728E-06-9.93931E-07 3.95136E-08
 -1      3242 5.39844E-07 5.23315E-08-2.33859E-08
 -1      3243 5.06003E-07 3.23058E-08-2.34460E-08
 -1      3244 5.05239E-07 5.22941E-08-8.63845E-09
 -1      3245 4.79057E-07 5.18225E-08-3.44456E-08
 -1      3246 5.44786E-08 3.50694E-08 1.28172E-08
 -1      3247 1.38024E-07 3.08853E-08 2.44700E-08
 -1      3248 1.65443E-08 2.96146E-08 1.28336E-09
 -1      3249 1.33080E-07-3.11836E-08-8.54006E-10
 -1      3250 1.47046E-07-3.76842E-08-5.10564E-09
 -1      3251 1.76263E-07-3.55166E-08-2.26336E-09
 -1      3252 2.00865E-07-5.28032E-08-1.88377E-08
 -1      3253 7.42470E-08-3.61138E-08 6.68341E-09
 -1      3254 9.98337E-08-3.52270E-08 4.04497E-09
 -1      3255 1.30451E-07-3.81412E-08-6.08051E-09
 -1      3256 1.15278E-07-3.34036E-08-3.79864E-09
 -1      3257 7.79790E-08-3.61989E-08-1.14878E-08
 -1      3258 7.82217E-08-3.61937E-08-1.55543E-08
 -1      3259 9.75602E-08-3.41154E-08-1.17814E-08
 -1      3260 1.61339E-06-1.10063E-08-6.94934E-09
 -1      3261 1.15388E-07-2.31858E-08 4.23658E-09
 -1      3262 1.01120E-07-2.67848E-08 1.11927E-09
 -1      3263 1.01788E-07-2.45331E-08 1.46955E-08
 -1      3264 8.76651E-08-2.81086E-08 1.08983E-08
 -1      3265 2.14318E-08 3.18528E-08-6.09043E-09
 -1      3266 3.74717E-08 3.39428E-08 1.97585E-09
 -1      3267 9.56125E-08 3.33559E-08-2.79832E-08
 -1      3268 7.13001E-08 3.63992E-08-2.35002E-09
 -1      3269 8.63246E-08 3.32767E-08-1.51932E-09
 -1      3270 8.55243E-08 3.40168E-08 2.41828E-09
 -1      3271 5.70706E-08 3.54841E-08 1.46228E-09
 -1      3272 6.76301E-08 3.20966E-08 2.51469E-09
 -1      3273 3.21000E-07 3.28087E-08-2.18642E-09
 -1      3274 3.56237E-07 1.11026E-08-8.72691E-09
 -1      3275 2.88714E-08 3.39785E-08-8.06724E-09
 -1      3276 2.12669E-07 4.48709E-08-4.83483E-09
 -1      3277 2.11692E-07 3.55944E-08-1.17273E-08
 -1      3278 1.87821E-07 4.26374E-08-6.32073E-09
 -1      3279 1.97564E-07 5.07826E-08 1.15346E-09
 -1      3280 7.40024E-08 3.58711E-08 8.07808E-09
 -1      3281 6.76103E-08 3.66937E-08 6.12762E-09
 -1      3282 8.98522E-08 3.52653E-08 6.55532E-09
 -1      3283 2.03309E-07 2.92742E-08-1.89086E-08
 -1      3284 1.28831E-07 2.60772E-08-3.88209E-08
 -1      3285 2.60834E-07 3.62902E-08-1.51721E-08
 -1      3286 6.26976E-10 1.56301E-10-5.63755E-11
 -1      3287 1.64616E-07 4.74212E-08 2.29659E-08
 -1      3288 1.04246E-07-3.50770E-08 3.78138E-08
 -1      3289 1.10109E-07-3.55750E-08-8.01824E-09
 -1      3290 9.84545E-08-3.51376E-08-3.41389E-10
 -1      3291 1.54476E-07-4.45093E-08-4.10616E-09
 -1      3292 2.03742E-07-5.17793E-08 1.56042E-08
 -1      3293 2.41492E-07 5.55692E-08-4.15975E-08
 -1      3294 4.14714E-06-2.16782E-06 1.62031E-08
 -1      3295 1.47013E-08-2.70808E-08-6.54887E-09
 -1      3296 2.88391E-08 3.35617E-08 7.72695E-09
 -1      3297 3.46034E-07 3.30021E-08-1.84506E-08
 -1      3298 4.22127E-07 1.80032E-08-8.86320E-09
 -1      3299 1.72344E-07-4.86110E-08 3.48031E-09
 -1      3300 1.93072E-07-5.20952E-08 6.51225E-09
 -1      3301 1.97776E-07 3.33930E-08 4.32787E-08
 -1      3302 1.89722E-07 4.04859E-08 4.45052E-08
 -1      3303 4.16694E-12-5.53919E-12 6.47380E-13
 -1      3304 1.82392E-07-4.98574E-08-9.57717E-09
 -1      3305 1.82212E-07 5.08622E-08-3.72322E-08
 -1      3306 1.63548E-07 4.70261E-08-3.57436E-08
 -1      3307 1.70997E-07-4.82291E-08-1.73294E-09
 -1      3308 2.77581E-08 3.35825E-08 1.15149E-08
 -1      3309 1.02120E-07 3.16853E-08 3.99081E-08
 -1      3310 7.03241E-08 3.76434E-08 2.98343E-08
 -1      3311 5.01656E-08 3.65996E-08 2.30824E-08
 -1      3312 2.97168E-07 3.74503E-08-1.89989E-08
 -1      3313 2.25338E-07-5.21437E-08-2.57073E-08
 -1      3314 2.07697E-08 3.10995E-08-8.70343E-09
 -1      3315 1.46043E-08 2.49132E-08-5.59195E-09
 -1      3316 1.01151E-08 1.44075E-08-3.46114E-09
 -1      3317 3.11924E-08 3.41365E-08 1.23459E-08
 -1      3318 2.38730E-07 3.79357E-08 3.19793E-08
 -1      3319 1.71634E-11-1.22146E-11 1.93440E-13
 -1      3320 4.21017E-06 1.87272E-06 2.52330E-08
 -1      3321 5.79043E-08 2.71653E-08 7.15520E-09
 -1      3322 1.92480E-08 1.42710E-08 2.40814E-09
 -1      3323 1.37380E-07-2.20972E-08-1.70059E-08
 -1      3324 4.82574E-07 1.37743E-08 1.73692E-09
 -1      3325 1.05574E-12-2.35068E-12 2.69429E-13
 -1      3326 1.31271E-07 3.34872E-08 4.19593E-08
 -1      3327 1.31967E-07 3.79594E-08 4.63820E-08
 -1      3328 5.32132E-07 9.44621E-10 2.67873E-08
 -1      3329 6.13284E-07 1.74970E-08 2.71390E-08
 -1      3330 5.98872E-07 1.87649E-08-2.36600E-08
 -1      3331 1.49450E-07 1.38945E-08 3.04216E-08
 -1      3332 1.18194E-07 1.77958E-08 3.75890E-08
 -1      3333 1.63056E-07 2.31607E-08 3.98444E-08
 -1      3334 1.63787E-07 1.45043E-08 4.25586E-08
 -1      3335 6.85786E-08 2.22189E-08-1.77272E-08
 -1      3336 9.03534E-08 2.46157E-08-2.56394E-08
 -1      3337 7.77323E-09-1.33137E-08-1.86845E-09
 -1      3338 2.01934E-07 3.60595E-08 1.61240E-08
 -1      3339 3.24873E-07 3.51134E-08-3.39405E-08
 -1      3340 9.23497E-08 3.32204E-08-3.33447E-08
 -1      3341 7.94697E-08 2.86678E-08-3.12447E-08
 -1      3342 1.06818E-07 3.05055E-08-3.62758E-08
 -1      3343 1.41070E-07 4.15814E-08 6.82379E-09
 -1      3344 1.28067E-07 3.56944E-08 8.43932E-09
 -1      3345 7.72075E-08 1.58054E-08 2.96448E-08
 -1      3346 1.07410E-07 1.25672E-08 2.55219E-08
 -1      3347 4.66671E-08-3.63487E-08-1.98767E-08
 -1      3348 1.61536E-07-2.03744E-08 5.05909E-09
 -1      3349 1.11429E-07-2.69979E-08-6.52812E-09
 -1      3350 9.37175E-08-2.99522E-08-1.36601E-08
 -1      3351 7.49980E-08-2.27291E-08-8.11912E-09
 -1      3352 3.30045E-08-3.62104E-08 1.71756E-08
 -1      3353 4.38238E-08-3.83947E-08 2.20191E-08
 -1      3354 2.52809E-08-3.49825E-08 1.26600E-08
 -1      3355 2.32300E-07 5.38161E-08 9.57641E-09
 -1      3356 2.19331E-07 4.49017E-08 5.03673E-09
 -1      3357 1.71366E-07 3.09075E-08 2.47936E-08
 -1      3358 5.66192E-07 5.21651E-08 2.03735E-09
 -1      3359 7.39660E-08 3.57559E-08-2.87203E-08
 -1      3360 7.25508E-08 3.53446E-08-2.47844E-08
 -1      3361 9.28079E-08 3.61519E-08-3.07869E-08
 -1      3362 1.27736E-07 2.50534E-08 3.80460E-08
 -1      3363 1.99344E-07 2.54820E-08-2.94686E-08
 -1      3364 2.32254E-07 2.58554E-08-1.52716E-08
 -1      3365 7.72650E-08-3.64805E-08-7.55195E-09
 -1      3366 1.18769E-07 3.72447E-08 3.38882E-08
 -1      3367 1.22714E-07 3.78993E-08-1.17919E-08
 -1      3368 1.21904E-07 3.84723E-08-5.41565E-09
 -1      3369 2.25173E-07 5.37824E-08-3.59280E-08
 -1      3370 1.97780E-07 4.61355E-08 4.45296E-08
 -1      3371 1.45436E-07-1.43171E-08-9.73749E-09
 -1      3372 1.35886E-07-2.30556E-08-4.33656E-09
 -1      3373 1.08241E-07 1.40423E-08-1.50131E-08
 -1      3374 9.00585E-08 3.03083E-08-2.67122E-09
 -1      3375 5.35767E-08-3.65333E-08-1.29456E-08
 -1      3376 6.60188E-08-3.41641E-08-1.60833E-08
 -1      3377 1.39219E-07 3.12292E-08 3.19325E-09
 -1      3378 1.15989E-07 3.04528E-08-1.69641E-09
 -1      3379 1.01405E-07 3.56851E-08-1.30980E-08
 -1      3380 1.23213E-07 3.79058E-08-1.65191E-08
 -1      3381 1.51372E-07 4.41068E-08-3.27861E-08
 -1      3382 1.28032E-07 3.66250E-08-3.42518E-08
 -1      3383 1.70642E-07 4.27103E-08-1.21658E-08
 -1      3384 1.80496E-07-4.30631E-08 1.13903E-08
 -1      3385 8.92844E-08 3.54449E-08 3.85952E-11
 -1      3386 9.20802E-08 3.49833E-08-4.08569E-09
 -1      3387 7.88205E-08 3.60918E-08-5.03170E-09
 -1      3388 1.25374E-08-2.24185E-08 4.63649E-09
 -1      3389 1.03434E-08-2.15460E-08 3.57404E-09
 -1      3390 7.77732E-08 1.81590E-08-1.25218E-08
 -1      3391 1.87010E-06 1.22310E-07 1.64767E-08
 -1      3392 1.68731E-07-4.53750E-08-4.22684E-08
 -1      3393 1.36313E-07-3.80943E-08-2.53725E-08
 -1      3394 1.32894E-07-3.55896E-08 4.26106E-08
 -1      3395 1.85724E-07 5.18105E-08-3.00520E-08
 -1      3396 1.76199E-07 4.06220E-08-3.48716E-08
 -1      3397 4.39773E-06 1.43074E-06 2.32529E-09
 -1      3398 9.56516E-08-3.20536E-09-3.14431E-08
 -1      3399 2.78728E-08 3.43576E-08-1.16204E-08
 -1      3400 1.45286E-12-2.89644E-12-2.78160E-13
 -1      3401 1.43149E-07 2.71381E-08 3.11300E-08
 -1      3402 1.73633E-07-4.87157E-08 9.31682E-09
 -1      3403 1.58104E-07 4.59018E-08 4.28886E-09
 -1      3404 1.13194E-07-2.63469E-08-1.85509E-08
 -1      3405 1.04645E-07 2.62368E-08-3.64233E-08
 -1      3406 1.48728E-07 4.36926E-08-2.10755E-08
 -1      3407 6.07174E-08 3.58944E-08-1.38576E-08
 -1      3408 1.10762E-07-3.67507E-08-4.11215E-08
 -1      3409 2.67821E-08-2.75200E-08-1.21015E-08
 -1      3410 6.18327E-08 3.58191E-08-1.73341E-08
 -1      3411 5.04001E-08 3.74256E-08-1.75778E-08
 -1      3412 5.89808E-08 3.68343E-08-1.65498E-08
 -1      3413 4.92005E-08 3.70887E-08-1.45732E-08
 -1      3414 3.41120E-07-4.53857E-08 7.09826E-09
 -1      3415 1.57226E-08-2.89848E-08 6.35651E-09
 -1      3416 2.04985E-07 2.12621E-08-4.18437E-08
 -1      3417 1.67986E-07 4.17473E-08-3.66467E-09
 -1      3418 2.06818E-07 5.40609E-08 4.50638E-08
 -1      3419 1.44600E-07 4.32620E-08-1.45559E-08
 -1      3420 1.96312E-08-3.20050E-08 9.27191E-09
 -1      3421 1.23091E-11 1.06059E-11 1.37943E-12
 -1      3422 7.66729E-12 8.08789E-12 1.00771E-12
 -1      3423 9.62470E-08-3.31787E-08-2.77222E-08
 -1      3424 3.96800E-08 1.31175E-08-9.13331E-09
 -1      3425 9.27458E-08 3.47872E-08-9.58651E-09
 -1      3426 9.93672E-08 3.26501E-08-5.40547E-09
 -1      3427 8.46676E-08 3.38670E-08 8.02034E-09
 -1      3428 1.64114E-07 4.44147E-08-4.81091E-08
 -1      3429 1.61107E-07 4.04239E-08-4.32870E-08
 -1      3430 5.79688E-08 2.52689E-08-2.20295E-08
 -1      3431 1.01386E-07 3.57945E-08 1.31627E-08
 -1      3432 5.82052E-08 3.54321E-08 1.55273E-08
 -1      3433 1.55168E-08 1.79466E-08-1.26031E-09
 -1      3434 2.05213E-08 1.86711E-08-3.98058E-09
 -1      3435 1.58275E-13 5.35310E-13-1.43925E-13
 -1      3436 1.00779E-07 3.58226E-08-8.60487E-09
 -1      3437 2.95800E-08 1.36242E-08-1.14659E-08
 -1      3438 1.66813E-07 4.80467E-08-3.12925E-08
 -1      3439 1.80792E-07 4.81905E-08-4.52925E-08
 -1      3440 1.95958E-07 4.76543E-08-3.66198E-08
 -1      3441 7.10872E-08 1.96806E-08 3.34266E-08
 -1      3442 1.20365E-07-3.66430E-08 3.47238E-08
 -1      3443 1.41183E-07-3.96359E-08 3.84548E-08
 -1      3444 2.34013E-08-3.25364E-08-4.08091E-09
 -1      3445 1.40804E-07 4.16344E-08 1.75631E-09
 -1      3446 1.87911E-07 5.07722E-08 4.55300E-08
 -1      3447 2.06618E-07 5.06561E-08-4.46043E-08
 -1      3448 1.85443E-07-7.27637E-09 2.83349E-08
 -1      3449 2.37180E-08-2.54885E-08-6.94623E-09
 -1      3450 7.56796E-08 3.61277E-08 1.60298E-08
 -1      3451 2.83048E-07 4.88903E-08-5.96572E-09
 -1      3452 7.44815E-08 3.58488E-08 1.19265E-08
 -1      3453 1.30028E-11-1.09979E-11 1.42606E-12
 -1      3454 1.98354E-07 1.69636E-08 1.36837E-09
 -1      3455 2.10067E-07 2.92215E-08 2.27434E-08
 -1      3456 1.79594E-07 2.52643E-08 3.14924E-08
 -1      3457 2.81967E-07 3.45740E-08-3.42902E-08
 -1      3458 3.52879E-07-2.67711E-08 2.44092E-08
 -1      3459 3.67334E-08 3.59900E-08-1.44258E-08
 -1      3460 5.17837E-08 3.79166E-08-2.05930E-08
 -1      3461 9.80474E-08-2.98956E-08-2.22330E-08
 -1      3462 2.18328E-08 3.20235E-08-8.09721E-09
 -1      3463 5.60967E-08 3.52942E-08 4.01903E-09
 -1      3464 4.83415E-08 3.67989E-08 2.48937E-09
 -1      3465 3.75108E-08 3.38488E-08 4.67056E-09
 -1      3466 1.96718E-07 2.75738E-08-5.06533E-10
 -1      3467 1.79074E-07 4.77164E-08 3.82052E-09
 -1      3468 1.79647E-07 4.77883E-08-1.55049E-09
 -1      3469 1.58561E-07 4.60305E-08-9.68425E-10
 -1      3470 1.32619E-07-3.83916E-08 2.54103E-08
 -1      3471 1.50673E-07-4.26984E-08 2.45349E-08
 -1      3472 6.91351E-08 3.71789E-08-2.31338E-08
 -1      3473 6.90875E-08 3.43109E-08-2.15333E-08
 -1      3474 8.29995E-08 3.81799E-08-3.30109E-08
 -1      3475 1.52339E-07-4.13813E-08 4.69254E-08
 -1      3476 6.68889E-08 3.21664E-08-1.34528E-08
 -1      3477 5.22795E-08 3.53243E-08-9.71190E-09
 -1      3478 4.40031E-08 2.85258E-08-7.89566E-09
 -1      3479 9.18977E-08-3.73543E-08 3.55201E-08
 -1      3480 5.76232E-08 3.17744E-08 7.30775E-09
 -1      3481 8.18082E-08 3.26993E-08 2.38877E-08
 -1      3482 7.25084E-09-1.21370E-08 1.80198E-09
 -1      3483 2.41148E-09 1.80222E-09 1.90340E-11
 -1      3484 5.99731E-09-8.59928E-09-7.77007E-10
 -1      3485 1.80613E-07 1.61678E-08 3.42010E-08
 -1      3486 1.42094E-07 3.47233E-08-2.44298E-09
 -1      3487 1.18806E-07 3.25934E-08 3.58432E-09
 -1      3488 1.28066E-07 3.61202E-08 7.34346E-10
 -1      3489 1.04011E-07 3.24693E-08 1.31971E-09
 -1      3490 2.51516E-08 1.32041E-08-4.19918E-09
 -1      3491 9.89329E-08-2.83262E-08 1.90316E-08
 -1      3492 1.35770E-07-3.05301E-08 2.61224E-08
 -1      3493 2.00831E-07 4.07101E-08-4.27172E-08
 -1      3494 3.14203E-07 1.89318E-08-3.42720E-08
 -1      3495 1.39907E-07-3.95718E-08 3.30731E-08
 -1      3496 2.28958E-07 4.59657E-08-4.20200E-08
 -1      3497 1.65115E-07-3.96867E-08 2.83549E-08
 -1      3498 1.65602E-07-3.29685E-08 2.64035E-08
 -1      3499 2.32004E-08 1.66607E-08-5.36278E-09
 -1      3500 5.22927E-08 3.12119E-08-1.41747E-08
 -1      3501 1.79402E-08 2.27284E-08 4.58378E-09
 -1      3502 2.46931E-08 3.07383E-08-1.20105E-09
 -1      3503 2.82955E-08 3.19042E-08 1.51442E-09
 -1      3504 1.82777E-08 1.97408E-08 3.47304E-10
 -1      3505 4.38546E-08 3.52679E-08-1.52656E-09
 -1      3506 2.06552E-07 3.59407E-08-3.03232E-08
 -1      3507 5.66165E-08 3.55692E-08 8.77368E-09
 -1      3508 1.58066E-07-4.40340E-08 3.21419E-08
 -1      3509 2.12424E-07 3.16936E-08-4.25849E-08
 -1      3510 2.35473E-08 1.99366E-08-2.17910E-09
 -1      3511 4.84077E-08 2.83645E-08-4.16274E-09
 -1      3512 1.47221E-07 3.95297E-08-3.03793E-09
 -1      3513 2.57564E-08 2.44765E-08 5.96696E-09
 -1      3514 3.22134E-08 6.19915E-09 1.67553E-08
 -1      3515 1.92990E-08 1.42389E-08-1.97787E-09
 -1      3516 4.64949E-08 2.32787E-08-4.26365E-09
 -1      3517 4.50674E-08 2.69069E-08 1.42401E-09
 -1      3518 1.26507E-07 3.86509E-08-2.21354E-08
 -1      3519 1.66013E-07-4.65737E-08-1.18331E-08
 -1      3520 1.87266E-08 3.05723E-08 3.10288E-09
 -1      3521 2.33820E-08 1.99333E-08 2.88957E-09
 -1      3522 1.87083E-08 2.29240E-08 2.36923E-09
 -1      3523 1.13812E-07 3.24980E-08 3.48098E-08
 -1      3524 1.42294E-07 1.28083E-08 1.89298E-08
 -1      3525 6.33672E-07 3.83014E-08-2.42974E-08
 -1      3526 6.53742E-08-2.34343E-08-4.89326E-10
 -1      3527 1.02504E-07-3.41136E-08-2.03017E-08
 -1      3528 1.49523E-07 4.35861E-08-2.63247E-08
 -1      3529 2.67127E-07 3.58643E-08-5.46066E-09
 -1      3530 3.85470E-12 5.18496E-12 5.68024E-13
 -1      3531 2.08009E-12 3.52418E-12 4.28484E-13
 -1      3532 2.24692E-07 3.79472E-08-6.32070E-10
 -1      3533 7.92974E-09 1.49077E-08 1.35892E-09
 -1      3534 6.44627E-09 1.00415E-08 6.11367E-11
 -1      3535 5.69040E-09 7.99136E-09-6.15136E-10
 -1      3536 5.45837E-09 7.35788E-09 7.20655E-10
 -1      3537 3.79400E-07 2.64191E-08-3.40651E-08
 -1      3538 1.47028E-08-2.85386E-08 6.46057E-09
 -1      3539 2.45168E-07 2.76837E-08-4.17459E-09
 -1      3540 6.40980E-08 2.73362E-08-2.77284E-09
 -1      3541 1.03718E-12 2.33321E-12 2.44383E-13
 -1      3542 1.43942E-07 4.34800E-08-4.46654E-09
 -3
    1PSTEP                         2           1           1          
  100CL  101 1.000000000        3542                     0    1           1
 -4  STRESS      6    1
 -5  SXX         1    4    1    1
 -5  SYY         1    4    2    2
 -5  SZZ         1    4    3    3
 -5  SXY         1    4    1    2
 -5  SYZ         1    4    2    3
 -5  SZX         1    4    3    1
 -1         1-3.50639E-03-1.48772E-02-6.22994E-04-4.87009E-05-2.29609E-05-4.66652E-04
 -1         2 7.48890E-03 2.69982E-03 2.10030E-03-6.18734E-05 3.07968E-05-1.56704E-03
 -1         3 1.70376E-02 1.43368E-02 2.77419E-03-1.00355E-02-4.83105E-05 5.86452E-04
 -1         4 1.73248E-02 1.05935E-02 3.30200E-03 9.78454E-03-4.49349E-04 1.10785E-04
 -1         5 8.29459E-03 3.06954E-04 5.25273E-05 1.19432E-03 6.10907E-05 1.94838E-04
 -1         6 8.33379E-03 1.92959E-04 9.54232E-05-1.09387E-03-5.80072E-05 1.10943E-04
 -1         7-3.51225E-03-1.49017E-02-5.66127E-04-2.04415E-05 1.31041E-05 4.78114E-04
 -1         8 7.56700E-03 2.58270E-03 1.87567E-03-8.64292E-06 2.16427E-05 1.55363E-03
 -1         9 1.65987E-02 1.40781E-02 2.65902E-03-1.01650E-02 2.49851E-04-5.91259E-04
 -1        10 1.66515E-02 1.27713E-02 3.04711E-03 1.12909E-02 1.72058E-04-5.00175E-04
 -1        11 8.31506E-03 2.93443E-04 6.50719E-05 1.08124E-03-9.41797E-05-1.32284E-04
 -1        12 8.29966E-03 2.87216E-04 8.75799E-05-1.16189E-03 8.04203E-05-1.12626E-04
 -1        13 5.90368E-04 1.98544E-03-7.11174E-05 1.39214E-03-2.02083E-04-4.14221E-05
 -1        14 6.72771E-04 1.96817E-03-4.06088E-05-1.37621E-03 2.03887E-04-8.49970E-05
 -1        15 6.17075E-04 2.00082E-03-6.90761E-05 1.33021E-03 2.12839E-04 7.52913E-05
 -1        16 8.00312E-04 1.88341E-03-6.07635E-05-1.39077E-03-1.78440E-04 7.42392E-05
 -1        17-3.29293E-03-1.98510E-02-1.69820E-03 6.97969E-04-9.72225E-08 4.11527E-06
 -1        18-1.94710E-03-1.13999E-02-3.00546E-04 1.73481E-03 9.44840E-04-6.94061E-05
 -1        19 9.75019E-03-7.42117E-04 1.11937E-04-2.39922E-03 5.19270E-04-1.20054E-03
 -1        20 2.52940E-02 1.63135E-03 6.22196E-04-1.92170E-04-6.68111E-04-4.94002E-04
 -1        21 2.20821E-02 2.55761E-03 1.19878E-03 5.02257E-03 4.02266E-05 1.39347E-03
 -1        22 3.52011E-03-1.41958E-02-1.05057E-03-2.95739E-03 1.78515E-03 4.18408E-04
 -1        23-3.67188E-03-1.89262E-02-3.47210E-04 1.00495E-04 9.43584E-05-5.05494E-04
 -1        24 3.96719E-03-1.48517E-02-2.03745E-03 3.10283E-03-2.02236E-03 4.10537E-04
 -1        25 2.17493E-02 1.57676E-03 1.02991E-03-4.71359E-03-2.60289E-04 1.53835E-03
 -1        26 2.51533E-02 1.51045E-03 5.74301E-04 3.90815E-04 5.73124E-04-5.06102E-04
 -1        27 9.71321E-03-7.66508E-04 1.47502E-04 2.40500E-03-5.51374E-04-1.18702E-03
 -1        28-2.21662E-03-1.11469E-02-3.16767E-04-1.77210E-03-9.45641E-04-1.22958E-04
 -1        29-1.99739E-03-1.14505E-02-3.42769E-04 1.73774E-03-9.17063E-04 5.98926E-05
 -1        30 9.79132E-03-6.63449E-04 1.42602E-04-2.45330E-03-5.16371E-04 1.18439E-03
 -1        31 2.51918E-02 1.73783E-03 6.52962E-04-2.28727E-04 6.62270E-04 5.53885E-04
 -1        32 2.17407E-02 2.44460E-03 7.88964E-04 5.52388E-03-1.98891E-04-1.72588E-03
 -1        33 3.30214E-03-1.48276E-02-1.14839E-03-3.48428E-03-1.59543E-03-2.15946E-04
 -1        34-3.97709E-03-1.84714E-02-5.20748E-04 3.16017E-04-1.14431E-04 5.51933E-04
 -1        35 3.93482E-03-1.49638E-02-2.02282E-03 3.20061E-03 2.00261E-03-3.32252E-04
 -1        36 2.16741E-02 1.61345E-03 1.08233E-03-4.72436E-03 2.25658E-04-1.48078E-03
 -1        37 2.51816E-02 1.56861E-03 6.22925E-04 3.72470E-04-5.67813E-04 5.31293E-04
 -1        38 9.56412E-03-7.75018E-04 1.53663E-04 2.39588E-03 5.46610E-04 1.17462E-03
 -1        39-2.25745E-03-1.12095E-02-3.65540E-04-1.81555E-03 8.97864E-04 1.11137E-04
 -1        40 6.19232E-03 2.39795E-03 2.44896E-03-2.64949E-05-3.33848E-06 6.31613E-05
 -1        41 6.95290E-03 1.87811E-03 1.96621E-03-7.33347E-04 3.78950E-04 1.51641E-03
 -1        42 4.37969E-03 1.20157E-04 1.28086E-03-1.04084E-03 2.89867E-04 9.25734E-04
 -1        43 1.53330E-03-5.81234E-04 2.51538E-04-4.00198E-04 1.26824E-04 2.20606E-04
 -1        44 4.21483E-04-2.79823E-04 2.98383E-05-1.00051E-06 4.49793E-05 2.66069E-05
 -1        45 1.54633E-04-8.08589E-05 1.56902E-05 5.06504E-05 1.66342E-05 7.82772E-06
 -1        46 3.38143E-05-9.41815E-06 4.47787E-06 3.57921E-05 5.89591E-06 1.66017E-06
 -1        47 5.21909E-06 4.15058E-06 1.74709E-06 1.60621E-05 2.45836E-06 7.92350E-08
 -1        48-4.42267E-07 4.05337E-06 6.18126E-07 5.24931E-06 7.87634E-07-5.63758E-08
 -1        49-1.07478E-06 2.21688E-06 2.55755E-07 1.13230E-06 2.85727E-07-1.26203E-07
 -1        50-4.83024E-07 8.80418E-07 7.33877E-08 2.27566E-09 7.00452E-08-7.02140E-08
 -1        51-1.28272E-07 2.82509E-07 3.08581E-08-1.00428E-07 1.96620E-08-2.59271E-08
 -1        52-4.12525E-09 6.07967E-08 9.94305E-09-5.90182E-08 4.63899E-09-1.31226E-08
 -1        53 1.79676E-08 1.75328E-08 5.83947E-09 1.95853E-09 9.03771E-10-8.63154E-09
 -1        54-2.07000E-08 8.67935E-08 1.63903E-08 7.58061E-08-6.75112E-09-1.53417E-08
 -1        55-1.73990E-07 3.47584E-07 3.28878E-08 1.20883E-07-2.47116E-08-3.75253E-08
 -1        56-5.19004E-07 9.65092E-07 7.67884E-08-5.54512E-08-7.82499E-08-7.27663E-08
 -1        57-1.03135E-06 2.39576E-06 2.84086E-07-1.42067E-06-2.83302E-07-1.07768E-07
 -1        58-9.36842E-07 4.58274E-06 7.01909E-07-5.78902E-06-9.67097E-07-1.89956E-07
 -1        59 6.28426E-06 3.77599E-06 1.85336E-06-1.66941E-05-2.50274E-06 1.20310E-07
 -1        60 5.07346E-05-1.84499E-05 6.64829E-06-3.90483E-05-6.43830E-06 3.16172E-06
 -1        61 1.78336E-04-9.86265E-05 1.43866E-05-5.82299E-05-1.82790E-05 1.39280E-05
 -1        62 4.77185E-04-3.08626E-04 2.47075E-05 4.73440E-05-4.21967E-05 4.02238E-05
 -1        63 1.85313E-03-5.69248E-04 3.23091E-04 5.18275E-04-1.56380E-04 2.83369E-04
 -1        64 4.68891E-03 1.67013E-04 8.08769E-04 1.06776E-03-2.46028E-04 7.28886E-04
 -1        65 7.11941E-03 1.93238E-03 1.67559E-03 6.16091E-04-3.15872E-04 1.40540E-03
 -1        66 6.99887E-03 1.57721E-03 1.37032E-03-5.84762E-04-2.68324E-04-1.18756E-03
 -1        67 4.27170E-03 2.08838E-05 7.62746E-04-9.15045E-04-1.98833E-04-6.89489E-04
 -1        68 1.90661E-03-6.11321E-04 3.99930E-04-5.02071E-04-1.67655E-04-3.36725E-04
 -1        69 5.38193E-04-3.49592E-04 3.02993E-05-9.53999E-05-4.67453E-05-4.95678E-05
 -1        70 1.96587E-04-1.13528E-04 1.30414E-05 5.74538E-05-1.73223E-05-1.57921E-05
 -1        71 5.39970E-05-1.82924E-05 7.80079E-06 4.11305E-05-7.53073E-06-2.42802E-06
 -1        72 1.00914E-05 2.44859E-06 2.34958E-06 1.94158E-05-3.10176E-06-6.99490E-07
 -1        73 2.11184E-07 4.65559E-06 9.03274E-07 7.54186E-06-1.25988E-06-1.95450E-08
 -1        74-1.28113E-06 3.05626E-06 3.15369E-07 2.19115E-06-4.52606E-07 9.14645E-08
 -1        75-6.17685E-07 1.30456E-06 1.56095E-07 2.67929E-07-1.24270E-07 8.91638E-08
 -1        76-2.39426E-07 4.39064E-07 3.34334E-08-1.07590E-07-4.45225E-08 3.78305E-08
 -1        77-5.96840E-08 1.54280E-07 1.83313E-08-8.67448E-08-6.81058E-09 1.85878E-08
 -1        78 8.45211E-09 3.06121E-08 9.12110E-09-3.45494E-08-7.88498E-10 1.14948E-08
 -1        79 1.72399E-08 2.86359E-08 1.30014E-08 3.81587E-08 2.30635E-09 1.14560E-08
 -1        80-5.52021E-08 1.47691E-07 1.70250E-08 9.34251E-08 1.36744E-08 1.95168E-08
 -1        81-2.59321E-07 5.36586E-07 6.29915E-08 7.07212E-08 3.99057E-08 4.71549E-08
 -1        82-8.14648E-07 1.52953E-06 1.96231E-07-2.47812E-07 1.57648E-07 1.09337E-07
 -1        83-1.29093E-06 2.99044E-06 3.15459E-07-2.11138E-06 4.52102E-07 1.18004E-07
 -1        84 1.68626E-08 4.61235E-06 8.35131E-07-7.28076E-06 1.19507E-06 3.32297E-08
 -1        85 1.27946E-05 1.53738E-06 3.09665E-06-2.11355E-05 3.16023E-06-3.09893E-07
 -1        86 6.34942E-05-2.81420E-05 6.54994E-06-4.74962E-05 8.88325E-06-4.86795E-06
 -1        87 2.01518E-04-1.12829E-04 1.49393E-05-5.15529E-05 1.85764E-05-1.70444E-05
 -1        88 5.54933E-04-3.22799E-04 3.41577E-05 1.29121E-04 4.13972E-05-4.86807E-05
 -1        89 2.11173E-03-5.62964E-04 4.03937E-04 5.63174E-04 1.73882E-04-3.43002E-04
 -1        90 5.08729E-03 3.69013E-04 1.09503E-03 9.98680E-04 3.04747E-04-8.81085E-04
 -1        91 7.80748E-03 2.68403E-03 3.12849E-03 7.07769E-04 3.02029E-04-2.08182E-03
 -1        92 2.07087E-02 1.11387E-02 4.60519E-03-1.09891E-02 1.40679E-05-1.33509E-04
 -1        93 4.94243E-03-1.47593E-03-1.21767E-03-2.28501E-03 8.97429E-04-9.99271E-04
 -1        94-6.97095E-03-3.37672E-03-3.34756E-04 5.21691E-03 3.38635E-04-4.16717E-04
 -1        95-1.70541E-02 9.36053E-04-1.12602E-03 3.04708E-03 1.41637E-04-1.37091E-04
 -1        96-1.17057E-02-5.30120E-04-6.27542E-04-4.62899E-03 1.69726E-04 4.62514E-04
 -1        97-1.16576E-03-2.64435E-03-9.74535E-05-2.53405E-03 3.30588E-04 4.94484E-04
 -1        98 4.37125E-03 1.11368E-03 1.94314E-04 3.34736E-03 3.36536E-04 4.44159E-04
 -1        99 1.52577E-03 1.24728E-02 1.09834E-04 5.45071E-03 1.18893E-04 1.84617E-04
 -1       100 7.44663E-05 1.63532E-02 2.43725E-04 8.42907E-05 2.25770E-05 1.07151E-04
 -1       101 1.36322E-03 1.26736E-02 1.30872E-04-5.34556E-03-1.11669E-04 2.22841E-04
 -1       102 4.44393E-03 1.24655E-03 1.26006E-04-3.29038E-03-3.45231E-04 4.29447E-04
 -1       103-9.69586E-04-2.62884E-03-6.93226E-05 2.36016E-03-3.07346E-04 4.90702E-04
 -1       104-1.18451E-02-4.50867E-04-6.32476E-04 4.60749E-03-1.60902E-04 4.58623E-04
 -1       105-1.70682E-02 1.14539E-03-1.06327E-03-3.36887E-03-9.23568E-05-1.30517E-04
 -1       106-5.04184E-03-3.84947E-03-2.51657E-04-5.14848E-03-3.64386E-04-1.46363E-04
 -1       107 7.44575E-03-2.51685E-03-8.40812E-04 2.90907E-03-2.03772E-04-3.41264E-04
 -1       108 4.77549E-03-1.41549E-03-1.20233E-03-2.29386E-03-8.27354E-04 9.53303E-04
 -1       109-7.04394E-03-3.35086E-03-3.93092E-04 5.19404E-03-3.63492E-04 3.84501E-04
 -1       110-1.71041E-02 8.40523E-04-1.12411E-03 3.01824E-03-1.49194E-04 1.09177E-04
 -1       111-1.17120E-02-5.82766E-04-6.15806E-04-4.58697E-03-1.92958E-04-4.69095E-04
 -1       112-1.19748E-03-2.59832E-03-9.68563E-05-2.52994E-03-3.35430E-04-4.99418E-04
 -1       113 4.31797E-03 1.16712E-03 2.11721E-04 3.35350E-03-3.34372E-04-4.34114E-04
 -1       114 1.52439E-03 1.24696E-02 1.51581E-04 5.41436E-03-1.08142E-04-2.09142E-04
 -1       115 8.96807E-05 1.63735E-02 2.92630E-04 7.43888E-05-8.72586E-06-1.35200E-04
 -1       116 1.37417E-03 1.26881E-02 1.65807E-04-5.32911E-03 1.18431E-04-2.42287E-04
 -1       117 4.42528E-03 1.30049E-03 1.35452E-04-3.31650E-03 3.43633E-04-4.28484E-04
 -1       118-9.59678E-04-2.61286E-03-9.88688E-05 2.33111E-03 3.17902E-04-4.81989E-04
 -1       119-1.17684E-02-4.90178E-04-6.25368E-04 4.55139E-03 1.79390E-04-4.73699E-04
 -1       120-1.66539E-02 8.96009E-04-1.27385E-03-3.60850E-03 5.36758E-05 8.54723E-05
 -1       121-6.63679E-03-3.65405E-03-4.85949E-04-5.97524E-03 6.26505E-04 3.63423E-04
 -1       122 7.84926E-03-2.38629E-03-6.21860E-04 3.29652E-03 1.25277E-04 4.08037E-04
 -1       123 6.61722E-03-1.39587E-04-8.37286E-05 1.56396E-04 1.34906E-05-7.98553E-05
 -1       124 6.57126E-03-2.09915E-06 2.04401E-06 2.08787E-04 1.62816E-06-1.51641E-05
 -1       125 6.69309E-03-2.12992E-05-2.72097E-06 1.94092E-04 1.69434E-06 2.64792E-06
 -1       126 6.84512E-03 5.15527E-06 1.24713E-06 2.01045E-04-3.23858E-07 6.91494E-06
 -1       127 7.02153E-03 4.67941E-06 1.08904E-06 2.10815E-04 2.86379E-07 4.80135E-06
 -1       128 7.22526E-03 1.19650E-05 4.37315E-06 2.22434E-04-3.45894E-06 2.20018E-06
 -1       129 7.45946E-03 1.08676E-05 9.23981E-06 2.60930E-04-3.41946E-06-1.42505E-05
 -1       130 7.52855E-03-4.94800E-05-4.38749E-05 3.37643E-04 1.48318E-05-5.56709E-05
 -1       131 1.00049E-02-6.58493E-04-8.17554E-04-1.26795E-03-9.66526E-05 7.22317E-04
 -1       132 9.01567E-03 6.80793E-04 4.38828E-04 1.53171E-03-3.26803E-05-6.98207E-05
 -1       133 9.72776E-03 2.39212E-04 6.88773E-04 1.39219E-03-2.88269E-05-3.16935E-06
 -1       134 9.57074E-03 5.46677E-04 8.79737E-04 1.46887E-03-1.48267E-05 3.40271E-05
 -1       135 9.58791E-03 4.50705E-04 8.83576E-04 1.43767E-03 1.09989E-05 1.24346E-05
 -1       136 9.65337E-03 2.80339E-04 8.73849E-04 1.28698E-03-6.29287E-06-9.91419E-06
 -1       137 9.78212E-03 4.75404E-04 9.42557E-04 1.45959E-03-6.02009E-06 1.19199E-05
 -1       138 9.50768E-03 4.30152E-04 8.30201E-04 1.36294E-03-7.35948E-06-4.66627E-05
 -1       139 9.58539E-03 4.64580E-04 7.42793E-04 1.46104E-03 1.48553E-05 1.12406E-05
 -1       140 9.51594E-03 4.65190E-04 4.71107E-04 1.48480E-03 9.48357E-06 3.28759E-05
 -1       141 6.78671E-03-3.55305E-05-1.46340E-05 3.50926E-04 1.87340E-05 5.35643E-05
 -1       142 6.59617E-03-1.68008E-05 2.52850E-06 2.31665E-04-3.51186E-06 2.49757E-05
 -1       143 6.66446E-03-1.14042E-05-5.69228E-08 1.96033E-04 7.33458E-08 4.67612E-06
 -1       144 6.84332E-03 4.57226E-06 2.01971E-06 2.02885E-04 8.19575E-07-6.79570E-06
 -1       145 7.01931E-03 6.83811E-06 6.68179E-07 2.10967E-04-1.41855E-07-5.40286E-06
 -1       146 7.21767E-03 8.25198E-06 5.89693E-06 2.26099E-04 7.56461E-07 9.56369E-08
 -1       147 7.45809E-03-1.66734E-05 2.19582E-05 2.68792E-04 8.58562E-06 1.31427E-05
 -1       148 7.61746E-03-3.96368E-04-7.00238E-05 4.45797E-04-4.01003E-05 2.41886E-05
 -1       149 8.41442E-03-8.83740E-04-1.92647E-03 2.57514E-04-1.45963E-04-1.06110E-03
 -1       150 6.74432E-03-9.60695E-05-4.87758E-05-3.37690E-04-1.99203E-05-7.85412E-05
 -1       151 6.59114E-03-1.71421E-05-1.85299E-06-2.25869E-04-9.82553E-06-7.97171E-06
 -1       152 6.68297E-03-2.52461E-06-3.93314E-06-2.09743E-04 1.97303E-06-3.64552E-06
 -1       153 6.88799E-03 4.21917E-06 1.68818E-06-2.03903E-04 8.87483E-07 7.61890E-06
 -1       154 7.10915E-03 5.50947E-06-1.29275E-07-2.19303E-04-3.66761E-07 2.89963E-06
 -1       155 7.34126E-03 1.70124E-06-1.06106E-06-2.35769E-04 6.44329E-06 2.88340E-06
 -1       156 7.36462E-03-2.23886E-04 1.51515E-05-4.50422E-04-2.23008E-05-7.98214E-05
 -1       157 8.98793E-03-1.23827E-03-1.25415E-03 7.97505E-05-1.20178E-04 6.64349E-04
 -1       158 9.19277E-03 4.62564E-04 4.04022E-04-1.41025E-03 5.30061E-05-1.35043E-04
 -1       159 9.61172E-03 4.67092E-04 7.50341E-04-1.50976E-03-1.86454E-05-3.87926E-05
 -1       160 9.41929E-03 4.30064E-04 7.32140E-04-1.17716E-03-3.94746E-05-1.08428E-05
 -1       161 9.18922E-03 6.89046E-04 8.61260E-04-1.44205E-03 9.71496E-06 5.02100E-05
 -1       162 9.48233E-03 7.42765E-04 9.44329E-04-1.60217E-03 1.04199E-05-4.04997E-05
 -1       163 9.24820E-03 4.78872E-04 7.77667E-04-1.17980E-03 1.97101E-05 1.25311E-05
 -1       164 9.58576E-03 5.11603E-04 8.95341E-04-1.57863E-03-2.12097E-05-2.18295E-05
 -1       165 9.88039E-03 3.38804E-04 7.39465E-04-1.52729E-03 1.49150E-05 8.95926E-06
 -1       166 9.13474E-03 4.78170E-04 4.31226E-04-1.37743E-03-1.87622E-05 1.67471E-04
 -1       167 6.62506E-03-1.30333E-04-8.09090E-05-2.60138E-04 1.11992E-06 7.46390E-05
 -1       168 6.61082E-03-2.64564E-05-9.14506E-06-2.34154E-04 4.07116E-06 2.11154E-05
 -1       169 6.77515E-03-2.12741E-06 4.71663E-07-1.95329E-04-2.71534E-06-5.32589E-06
 -1       170 7.01392E-03 5.73679E-06 1.83442E-06-2.10814E-04 3.28146E-08-7.05674E-06
 -1       171 7.25240E-03 8.84970E-06 1.32688E-06-2.43606E-04-1.09225E-06-5.40999E-07
 -1       172 7.53723E-03-1.03455E-04 1.41975E-05-3.27532E-04 1.47085E-05 2.92703E-05
 -1       173 7.99093E-03 1.57414E-04-2.70801E-04 2.67657E-04 2.84873E-05-2.49045E-04
 -1       174-3.72296E-05 8.14070E-04-2.66972E-05-2.92971E-04-2.55521E-05 3.09656E-05
 -1       175 5.74278E-05 7.17537E-04-1.89286E-05-3.28186E-04-1.65701E-05 2.61678E-05
 -1       176 1.36809E-04 5.04244E-04-3.76970E-06-3.39313E-04-2.59640E-06 1.74511E-05
 -1       177 1.93184E-04 1.74423E-04-1.28965E-06-2.09671E-04 2.68824E-06 4.44974E-06
 -1       178 1.26105E-04 3.03093E-05-2.15135E-06-7.01908E-05 2.98766E-06-1.51147E-06
 -1       179 5.77198E-05 1.00892E-05-4.38084E-06-2.38120E-05 1.27376E-06-2.70578E-06
 -1       180 3.20529E-05-1.00842E-06-9.85450E-07-5.77504E-06 8.51034E-07-1.32924E-07
 -1       181 1.47248E-05-8.30139E-07-3.65284E-07 1.05353E-06 3.35392E-07-2.31815E-07
 -1       182 6.06613E-06 2.47536E-07-1.40489E-07 1.95596E-06 7.93079E-08-1.38912E-07
 -1       183 1.99838E-06 6.26310E-07-5.20580E-08 1.29049E-06 2.12397E-08-6.18136E-08
 -1       184 7.34201E-07 4.15972E-07-6.49463E-08 5.44171E-07-2.48613E-08-3.37351E-08
 -1       185 2.42311E-07 3.40449E-07-2.13287E-08 3.33496E-07 6.23352E-09-1.65389E-08
 -1       186 4.87037E-08 2.04655E-07-7.09661E-09 1.17499E-07 3.83880E-09-7.46348E-09
 -1       187 2.49571E-09 1.19383E-07-3.65898E-09 3.84136E-08-1.24530E-09-2.89395E-09
 -1       188 2.11268E-09 7.54741E-08-1.63876E-09 6.97452E-09 8.27556E-10 5.62605E-10
 -1       189-5.01096E-09 8.29941E-08-2.33655E-09-4.44901E-09 1.45354E-09 5.17561E-10
 -1       190 2.64635E-11 1.19809E-07-3.42642E-09-3.14231E-08 2.65585E-10-2.97740E-09
 -1       191 4.60536E-08 2.13080E-07-7.73697E-09-1.27898E-07-8.29364E-10-7.24301E-09
 -1       192 2.24510E-07 3.11641E-07-8.13023E-09-2.45583E-07 8.36869E-09-4.82353E-10
 -1       193 7.08074E-07 5.09968E-07-2.39644E-08-6.79430E-07 2.29625E-08-7.92804E-09
 -1       194 2.08041E-06 6.45322E-07-4.64721E-08-1.32425E-06-1.41456E-08-5.36140E-08
 -1       195 5.96175E-06 1.97716E-07-1.22783E-07-1.98182E-06-9.07581E-08-1.43040E-07
 -1       196 1.44536E-05-1.05770E-06-3.84823E-07-9.67189E-07-3.11998E-07-1.76274E-07
 -1       197 2.67782E-05 6.83266E-07-1.67897E-06 4.23677E-06-2.42106E-07-1.08331E-06
 -1       198 6.00369E-05 1.36880E-06-8.47366E-07 1.63710E-05-9.93590E-07-8.97965E-07
 -1       199 1.14722E-04 2.70183E-05-2.59122E-06 6.57826E-05-3.68486E-06-1.30391E-06
 -1       200 1.77161E-04 1.45025E-04-4.18428E-06 1.87877E-04-5.23327E-06 5.91199E-06
 -1       201 1.92812E-04 4.05064E-04-2.82640E-07 2.98115E-04 1.54350E-05 1.15723E-05
 -1       202 1.26385E-04 6.23014E-04 1.67088E-05 3.01512E-04 2.82289E-05 1.35367E-05
 -1       203-1.21176E-05 8.94488E-04 1.63327E-05 3.43996E-04-2.93014E-06-2.79474E-05
 -1       204 5.85911E-03 2.27243E-03 9.92938E-05-3.31190E-03 2.05047E-04-2.92284E-04
 -1       205 6.07836E-03 2.03469E-03 1.34229E-04 3.10953E-03-1.29992E-04-2.50986E-04
 -1       206 5.79069E-03 2.09913E-03 1.40322E-04 3.03620E-03 1.52464E-04 2.31563E-04
 -1       207 6.53397E-04 1.91875E-03-2.62635E-04 1.26245E-03 5.53022E-04 2.52703E-04
 -1       208 7.65828E-04 2.00666E-03-3.86668E-04 1.72330E-03 2.95592E-04 1.95744E-04
 -1       209 5.28973E-04 1.84657E-03-5.63963E-04 1.31677E-03 2.49875E-04 1.26971E-04
 -1       210 3.40430E-04 2.15195E-03-5.77531E-04 1.33789E-03 1.43939E-04 7.06438E-05
 -1       211 3.85670E-04 1.97304E-03-5.72657E-04 1.25309E-03 1.77667E-05-9.30826E-06
 -1       212 5.62852E-04 2.14095E-03-5.22999E-04 1.57809E-03-1.13343E-04-7.08258E-05
 -1       213 7.41901E-04 1.79651E-03-5.08604E-04 1.39821E-03-2.24089E-04-9.91143E-05
 -1       214 6.77452E-04 2.12951E-03-3.90876E-04 1.67940E-03-3.97255E-04-1.67080E-04
 -1       215 6.36037E-04 1.97182E-03-3.04131E-04 1.42319E-03-4.88727E-04-2.12218E-04
 -1       216 5.73742E-03 1.94497E-03 1.16072E-04-2.91810E-03-1.78603E-04 2.30335E-04
 -1       217 7.58642E-04 1.84412E-03-2.96298E-04-1.45847E-03-4.36170E-04 2.21564E-04
 -1       218 8.96995E-04 2.00966E-03-4.15878E-04-1.64930E-03-3.76156E-04 1.74692E-04
 -1       219 6.46540E-04 1.84419E-03-5.41473E-04-1.35387E-03-2.49666E-04 1.39063E-04
 -1       220 4.59694E-04 1.95142E-03-5.18860E-04-1.32065E-03-1.29816E-04 6.93061E-05
 -1       221 7.51154E-04 1.78878E-03-5.20714E-04-1.39267E-03-9.23514E-05 3.61383E-06
 -1       222 6.76403E-04 1.85448E-03-5.13531E-04-1.49958E-03 1.78578E-04-6.05699E-05
 -1       223 8.00900E-04 1.80112E-03-4.42768E-04-1.45318E-03 1.86755E-04-7.85356E-05
 -1       224 5.66314E-04 1.99145E-03-4.99255E-04-1.18530E-03 4.01188E-04-1.54836E-04
 -1       225 5.55820E-04 1.89649E-03-2.96827E-04-1.26956E-03 5.45838E-04-2.21056E-04
 -1       226-1.47511E-06 7.87462E-04-1.72090E-05-3.10480E-04-5.27092E-08-5.26165E-06
 -1       227 7.83765E-05 6.94850E-04-1.76344E-05-3.38215E-04 2.95848E-05-3.56737E-05
 -1       228 1.85023E-04 4.59817E-04-1.44376E-05-3.51080E-04-6.41838E-06-1.82996E-05
 -1       229 1.67411E-04 1.81133E-04-1.16205E-05-1.86132E-04-1.05488E-05 6.53427E-06
 -1       230 1.12639E-04 4.08349E-05-5.46526E-07-6.50468E-05-9.87719E-08 1.67402E-06
 -1       231 6.87954E-05 6.37334E-06-2.40742E-06-3.09582E-05-1.94642E-06 1.24711E-07
 -1       232 3.28581E-05-8.80008E-07-9.29302E-07-4.69547E-06-6.30761E-07 4.62432E-07
 -1       233 1.47988E-05-7.66745E-07-3.41079E-07 1.44972E-06-2.38794E-07 3.09211E-07
 -1       234 5.32816E-06 5.08451E-07-3.35290E-08 1.48054E-06-8.21677E-09 7.62133E-08
 -1       235 2.24103E-06 2.80139E-07-1.02537E-07 1.08829E-06-1.24729E-07-8.91014E-10
 -1       236 8.39365E-07 4.23372E-07-3.99963E-08 7.22092E-07-1.71117E-08 2.58093E-08
 -1       237 2.18307E-07 3.75726E-07-1.49482E-08 3.25093E-07 3.01170E-09 1.52860E-08
 -1       238 5.35721E-08 1.91035E-07-1.76564E-09 9.68476E-08 2.57665E-09 4.15729E-09
 -1       239 8.70704E-09 1.29471E-07-4.96781E-09 5.06064E-08 1.50645E-10 3.16735E-09
 -1       240-4.83599E-09 8.34476E-08-2.13435E-09 8.89067E-09-7.38420E-12 1.80613E-09
 -1       241-2.34618E-09 7.77157E-08-2.57986E-09-1.35339E-08 4.45743E-10 2.04341E-09
 -1       242 7.04775E-09 1.10442E-07-5.05771E-09-2.77525E-08 8.44271E-10-3.52470E-10
 -1       243 3.89975E-08 2.17815E-07-6.22927E-09-1.14177E-07-3.07551E-09 6.18012E-09
 -1       244 2.23650E-07 3.46780E-07-1.44292E-08-3.09456E-07-2.14258E-09 1.49118E-08
 -1       245 8.35821E-07 4.16758E-07-4.44466E-08-6.85052E-07 1.40871E-08 3.28389E-08
 -1       246 1.86971E-06 5.71966E-07-3.64563E-08-1.03010E-06 1.18638E-08 4.63071E-08
 -1       247 5.67554E-06 3.03488E-07-1.25643E-07-2.00776E-06 5.45461E-08 1.53921E-07
 -1       248 1.42189E-05-6.92702E-07-3.42273E-07-1.41969E-06 2.36531E-07 2.60798E-07
 -1       249 3.06640E-05-1.60616E-06-1.04259E-06 5.24464E-06 8.05368E-07 2.86886E-07
 -1       250 5.00137E-05 4.93471E-06-8.13553E-07 1.49704E-05 1.01174E-06 5.23237E-07
 -1       251 1.12645E-04 2.44789E-05-2.81016E-06 6.26384E-05 3.42426E-06 1.67230E-06
 -1       252 1.86147E-04 1.39151E-04-2.77412E-06 1.82718E-04 4.08770E-06-4.93353E-06
 -1       253 1.98721E-04 3.89292E-04-1.86405E-05 3.17092E-04-9.62783E-06-2.19820E-05
 -1       254 8.23087E-05 6.87139E-04-7.40551E-06 3.17698E-04-1.65033E-05-2.93243E-05
 -1       255 3.13696E-05 8.30453E-04-1.14970E-05 3.40628E-04-1.28618E-05-5.82919E-06
 -1       256-6.71571E-04-3.65993E-03-4.83060E-04 5.66836E-04 2.85204E-05-1.75663E-05
 -1       257 1.89861E-02 2.33161E-03 1.15910E-03-4.27974E-03 1.00338E-05-3.67900E-05
 -1       258 2.81604E-02 3.06641E-03 2.22947E-03 4.43285E-03 1.51118E-05-1.08467E-04
 -1       259 1.18790E-02-3.87203E-03 1.88465E-05 2.42426E-03 4.81447E-05-8.74568E-05
 -1       260-1.96059E-03-1.94168E-02-3.85200E-03-3.37608E-03 1.17169E-04 1.78541E-04
 -1       261-2.68950E-03-1.98806E-02-3.42075E-03 3.42002E-03-1.41436E-04 6.35222E-05
 -1       262 9.63205E-03-3.39545E-03-3.27246E-04-1.97466E-03-6.73584E-05 5.89475E-05
 -1       263 2.81804E-02 3.51726E-03 2.23295E-03-4.41938E-03-6.80354E-06 4.09658E-05
 -1       264 1.86807E-02 2.25318E-03 1.12381E-03 4.35838E-03 2.12676E-06-2.30465E-05
 -1       265-1.06004E-03-5.14273E-03-6.38749E-04-1.21230E-03-3.34052E-05-1.81358E-05
 -1       266 5.64590E-03 1.74946E-03 2.15875E-03-5.94165E-04-3.82456E-05-2.36161E-04
 -1       267 5.72872E-03 1.83288E-03 2.23020E-03 5.41930E-04 2.99882E-05-2.54552E-04
 -1       268 1.62578E-03-3.83774E-04 3.56948E-04-7.53675E-04 6.33624E-05 1.02158E-04
 -1       269 5.94948E-04-3.48380E-04 6.45312E-05-2.28940E-04 8.76611E-06 2.35932E-05
 -1       270 2.73788E-04-2.21481E-04 1.07758E-05 1.34116E-05-3.19287E-06 7.04694E-06
 -1       271 8.18521E-05-5.53440E-05 7.60059E-06 4.22927E-05-3.41049E-07 1.04487E-06
 -1       272 1.55363E-05-6.90716E-06 2.09852E-06 2.43653E-05 5.38939E-08-1.47371E-07
 -1       273 7.66040E-07 2.32949E-06 8.14145E-07 1.02502E-05 5.52179E-08-5.40066E-08
 -1       274-1.84124E-06 2.74159E-06 2.79112E-07 3.16602E-06 3.82051E-08 4.27512E-09
 -1       275-9.44270E-07 1.37375E-06 1.30009E-07 6.25552E-07 8.95882E-09 1.20702E-08
 -1       276-3.60849E-07 4.90887E-07 3.45120E-08-5.16675E-08-2.56882E-09-2.04752E-09
 -1       277-6.67279E-08 1.09331E-07 1.18122E-08-8.56956E-08 2.12116E-09-9.90895E-10
 -1       278 2.18246E-09 1.61248E-08 5.20040E-09-1.58773E-08-3.16162E-10 1.15116E-10
 -1       279-1.51201E-08 4.12212E-08 6.97115E-09 4.08657E-08-4.90985E-10-7.03951E-10
 -1       280-1.25782E-07 1.80180E-07 1.42661E-08 9.38769E-08 1.14172E-09-1.11743E-09
 -1       281-4.25603E-07 5.74707E-07 4.83398E-08-2.60006E-10-5.72627E-09 1.47723E-09
 -1       282-9.82425E-07 1.41928E-06 1.18488E-07-7.06848E-07-1.83298E-08 9.44047E-09
 -1       283-1.62234E-06 2.70010E-06 3.07900E-07-3.39821E-06-2.97678E-08-2.61922E-08
 -1       284 1.05924E-06 2.19435E-06 8.16083E-07-1.04648E-05-4.58010E-08-5.39652E-08
 -1       285 2.07813E-05-1.08674E-05 2.85306E-06-2.67724E-05-8.37939E-08 4.39461E-07
 -1       286 8.97201E-05-6.66695E-05 6.74456E-06-4.84888E-05-5.55144E-07 8.51560E-08
 -1       287 2.69134E-04-2.04901E-04 1.63872E-05-7.00638E-06-7.44273E-07 7.24422E-07
 -1       288 7.70092E-04-4.96021E-04 9.02483E-05 3.97594E-04 7.23089E-07 9.46960E-07
 -1       289 3.04715E-03 5.64270E-06 8.72305E-04-9.72837E-04-8.91725E-05-2.66321E-04
 -1       290 3.97300E-03 3.48407E-04 1.21528E-03-8.92578E-04 9.57172E-05 3.26602E-04
 -1       291 2.16774E-03-4.29038E-04 4.63930E-04 8.31011E-04-1.08928E-04 2.09241E-04
 -1       292 4.48033E-03 6.17064E-04 1.49948E-03 9.49585E-04-9.97104E-05 3.73765E-04
 -1       293 4.52113E-03 6.40686E-04 1.49463E-03 9.51718E-04 1.25167E-04-3.81132E-04
 -1       294 7.72014E-04-4.15684E-04 1.16310E-04-4.37373E-04-2.98962E-05-1.28963E-05
 -1       295 2.29326E-03-4.53166E-04 5.53558E-04 8.63819E-04 1.05740E-04-2.45770E-04
 -1       296 2.45605E-03-3.61977E-04 6.15532E-04 8.79557E-04 7.28293E-06-1.32755E-07
 -1       297 1.17673E-03 4.77843E-04-1.08539E-03 9.43778E-04-5.38116E-05-4.11164E-05
 -1       298-2.01400E-03-2.64770E-03-7.83083E-04 2.60934E-03 5.27138E-05-4.87939E-05
 -1       299-1.53562E-02 1.48203E-03-8.20232E-04-1.04035E-03 1.89409E-05 9.81959E-07
 -1       300 6.62741E-04-9.03144E-04 1.97528E-04-5.47075E-04 3.54277E-05 2.09042E-05
 -1       301-4.80616E-04 1.40989E-02 8.46604E-04 3.19019E-03 2.07103E-05 1.86004E-05
 -1       302 2.27280E-03 7.94053E-03 4.78640E-04-5.56745E-03-6.78300E-06 1.39352E-05
 -1       303-1.56007E-02 1.47620E-03-8.52213E-04 9.44238E-04-3.33519E-06 8.17592E-06
 -1       304-1.04820E-02-1.81909E-03-1.38622E-03-4.95921E-03-1.72713E-04-7.41541E-05
 -1       305 6.02589E-04-9.23180E-04 2.73838E-04 5.04432E-04-2.90652E-05 1.50113E-05
 -1       306-3.03477E-04 1.44894E-02 7.08467E-04-2.64763E-03 4.31084E-06 5.26272E-06
 -1       307-5.30717E-03-1.97358E-03-6.17820E-04-3.41788E-03 6.50752E-06 4.00947E-05
 -1       308-1.13993E-02-1.68026E-03-1.18780E-03 4.69828E-03 1.61170E-05-3.74021E-05
 -1       309 3.03005E-03 6.69805E-03 3.95096E-04 5.42719E-03 2.85284E-05 3.79442E-05
 -1       310-5.30305E-03-2.02217E-03-5.59273E-04 3.40501E-03 5.59428E-07 2.37626E-05
 -1       311 6.68368E-03-2.67141E-05-8.22848E-05 2.37320E-04-7.36097E-06-1.34641E-04
 -1       312 6.72110E-03-9.54189E-07-3.87158E-05 1.99319E-04 2.15699E-06-1.68347E-05
 -1       313 7.08203E-03 8.29177E-06 2.31724E-06 2.17439E-04-5.59054E-07 1.79139E-07
 -1       314 7.33542E-03-8.49598E-05-9.74879E-05 3.50646E-04 7.05312E-06-1.48240E-04
 -1       315 7.15163E-03-8.47531E-05-8.68170E-05 2.90841E-04-2.58924E-06-1.15333E-04
 -1       316 7.30406E-03-1.03489E-04-5.02920E-05 2.78777E-04-3.77581E-06-5.73295E-05
 -1       317 7.39901E-03-8.24045E-05 9.26552E-06 3.02297E-04-5.56784E-06-4.62280E-06
 -1       318 7.39407E-03-1.36392E-04-2.32317E-05 3.29232E-04 7.23018E-07 2.23835E-05
 -1       319 7.32052E-03-1.10673E-04-5.77080E-05 2.62203E-04-4.58885E-06 4.07847E-05
 -1       320 7.25311E-03-5.60739E-05-7.21190E-05 2.18181E-04 1.26256E-05 1.05671E-04
 -1       321 7.33205E-03-4.53605E-05-8.98307E-05 2.29871E-04-2.67650E-06 1.53511E-04
 -1       322 7.33449E-03-1.14048E-04-5.22659E-05 3.90690E-04 2.13894E-05 1.64910E-04
 -1       323 6.63008E-03-1.11926E-05-9.16443E-05 1.94063E-04-8.78190E-07 8.00485E-05
 -1       324 6.73978E-03 1.86786E-06-4.13908E-05 2.05064E-04-1.59297E-06 1.35864E-05
 -1       325 6.91620E-03 6.73503E-06-3.66966E-06 2.12275E-04-8.13945E-07-4.17469E-06
 -1       326 6.61187E-03-3.15978E-06-6.77920E-05 1.82524E-04 4.29496E-06-7.38606E-05
 -1       327 6.88539E-03 2.88573E-06-5.85135E-06 2.08943E-04 1.36321E-06 2.50462E-06
 -1       328 6.80626E-03-1.03796E-04-1.02999E-04 2.11668E-04-4.18981E-06 1.59223E-04
 -1       329 6.70529E-03-1.76731E-05-1.39086E-04 2.03944E-04-1.29721E-07-1.54087E-05
 -1       330 6.77474E-03-5.67339E-05-1.40410E-04 2.10499E-04 3.08570E-06-9.47469E-05
 -1       331 6.93810E-03-9.38333E-05-1.56175E-04 2.04445E-04-1.09302E-07-4.92757E-05
 -1       332 6.92825E-03-5.21343E-05-1.40905E-04 2.40133E-04-2.49387E-06-7.19557E-07
 -1       333 6.79829E-03-2.17885E-05-1.59379E-04 1.93012E-04 1.29161E-06 5.62482E-05
 -1       334 6.89705E-03-8.87146E-05-1.34878E-04 2.10954E-04-2.18713E-06 1.13987E-04
 -1       335 6.69179E-03-5.86479E-05-8.13418E-05-2.20758E-04-1.72978E-07-1.33682E-04
 -1       336 6.61504E-03-2.21487E-05-7.22481E-05-1.72341E-04 1.98210E-06-6.92397E-05
 -1       337 6.97719E-03 2.90638E-07-1.80331E-06-2.08391E-04-9.72857E-07 2.81493E-06
 -1       338 7.21573E-03 9.10997E-06 1.40857E-06-2.24876E-04-3.20184E-07-9.13540E-07
 -1       339 7.37526E-03-3.93288E-05-3.97079E-05-4.34067E-04 2.39775E-05-1.56023E-04
 -1       340 7.30531E-03-4.18787E-05-4.23497E-05-3.17490E-04 2.26737E-06-7.01124E-05
 -1       341 7.34984E-03-6.40569E-05 1.76042E-05-3.11580E-04 1.57129E-05 2.98381E-05
 -1       342 7.27833E-03-5.22013E-05-4.24970E-05-4.12804E-04-1.00571E-05 1.35496E-04
 -1       343 6.61651E-03-2.89125E-05-7.92884E-05-1.95433E-04-2.95408E-06 1.14936E-04
 -1       344 6.84080E-03-9.77721E-06-1.49976E-05-1.98350E-04 1.64312E-06 1.00592E-07
 -1       345 6.76283E-03-8.86302E-06-3.80777E-05-1.91593E-04 3.28093E-07-1.21463E-05
 -1       346 7.64356E-03-1.34394E-04 2.84593E-05-4.68149E-04 2.31881E-05 3.76957E-05
 -1       347 7.43735E-03-1.83933E-04-6.11018E-05-4.05329E-04-1.49112E-05-9.58221E-05
 -1       348 7.20707E-03-5.92113E-05-5.49852E-05-1.64494E-04 5.49083E-06-1.05352E-06
 -1       349 6.68322E-03-1.44275E-05-6.28456E-05-1.89534E-04 2.32328E-06 3.87523E-05
 -1       350 6.84019E-03 1.75519E-07-1.47300E-04-1.96355E-04-5.92571E-06 4.89982E-05
 -1       351 6.70179E-03-2.04907E-05-1.40660E-04-2.03859E-04-1.13476E-05-8.85460E-05
 -1       352 6.81952E-03-8.14083E-05-1.88633E-04-1.84562E-04 3.48225E-08 1.28792E-05
 -1       353 6.80184E-03-8.44129E-06-1.27870E-04-2.36243E-04-6.43821E-06 1.04002E-04
 -1       354 6.85857E-03-8.48967E-05-1.73285E-04-2.04404E-04 4.53062E-06-5.49400E-05
 -1       355 6.66209E-03-6.43635E-06-1.39765E-04-1.92915E-04-6.22961E-07-2.04245E-05
 -1       356 6.68491E-03-3.11745E-05-1.52187E-04-1.81384E-04 1.76354E-06 5.86337E-05
 -1       357 1.96417E-03 1.18830E-03 4.30055E-05-1.65948E-03 1.80965E-05 5.81067E-05
 -1       358 6.48393E-04 4.14500E-04 1.49555E-05-7.00595E-04-1.82649E-05 2.64778E-05
 -1       359 5.77626E-04 5.35776E-04 1.48716E-05 7.16982E-04 2.34117E-06 7.66263E-07
 -1       360 1.81076E-03 1.07339E-03 3.58216E-05 1.49885E-03-6.12533E-05 4.18217E-05
 -1       361 3.74738E-03 6.13202E-04-4.19807E-05-1.54056E-03 1.04200E-04-2.66906E-05
 -1       362 5.56472E-03 1.25338E-03-1.59457E-04-6.78380E-04-1.05734E-04-2.11809E-05
 -1       363 3.68127E-03 6.58132E-04-3.00460E-05 1.60101E-03-8.28298E-05-4.48866E-05
 -1       364 5.58999E-03 1.19957E-03-2.89974E-05 6.73650E-04 3.16769E-05-5.42335E-05
 -1       365 6.19793E-03 7.64975E-04-3.60832E-05-8.14497E-04-2.78842E-05 4.97776E-05
 -1       366 6.57027E-03 2.71219E-04 1.47175E-05-4.55519E-04-6.07004E-07 2.10531E-05
 -1       367 7.00887E-03-1.00484E-05 3.90177E-06-5.80877E-05 1.42809E-06-8.00951E-07
 -1       368 6.32152E-03 7.49484E-04 1.09863E-06 8.45009E-04 1.62241E-05 4.12378E-05
 -1       369 6.79506E-03 7.63482E-05 1.69781E-06 2.24945E-04-2.56172E-06 7.23915E-06
 -1       370 7.02268E-03-1.16524E-05 3.68206E-08 7.32929E-05-1.03880E-06-9.45342E-07
 -1       371 1.79450E-03 7.50174E-03-4.64065E-04-5.91651E-04 1.34750E-04 2.87176E-05
 -1       372 5.77473E-03 4.41908E-04-6.41371E-05 4.88726E-05 7.00056E-06 2.38144E-04
 -1       373 1.37675E-03 8.65689E-04 3.46407E-05-1.15120E-03 4.21946E-05-3.46744E-05
 -1       374 2.07278E-03 4.77885E-04-9.25966E-05 1.18263E-03-6.69452E-05-2.29496E-05
 -1       375 5.71675E-03 3.60281E-04-2.12826E-04 7.84288E-05-4.34908E-07-1.34356E-04
 -1       376 6.31390E-03 6.30945E-04-2.44263E-04-3.35294E-05-1.75912E-05-1.07744E-04
 -1       377 6.95331E-04 1.04574E-03 2.11389E-05 9.63163E-04-3.46768E-05 6.25388E-05
 -1       378 6.83826E-03 7.28471E-05 7.21092E-06-1.59357E-04 2.95949E-06 1.21656E-05
 -1       379 6.62110E-03 2.54620E-04 1.10198E-05 4.86392E-04-3.19514E-06 9.01555E-06
 -1       380 6.89803E-03 9.05124E-06 7.80737E-06 1.28981E-04-2.15167E-06-1.29703E-06
 -1       381 7.18353E-03-1.47900E-05 1.12442E-06 1.31337E-05 8.38294E-07 7.45872E-07
 -1       382 5.25612E-03 4.54850E-04-3.54190E-05-3.65879E-04-1.20221E-05-1.97684E-05
 -1       383 5.21667E-03 4.62905E-04-3.29976E-05 4.80147E-04-1.41593E-06-1.59876E-05
 -1       384 3.98293E-03 8.87407E-05-1.67234E-05-1.06893E-03 6.59837E-05 5.46455E-05
 -1       385 5.84869E-03 5.71249E-04-2.34664E-05-3.35361E-05-7.62540E-06 3.33704E-05
 -1       386 5.49689E-03 8.71632E-04 8.32396E-07-2.00684E-04 1.21853E-06 7.50490E-06
 -1       387 6.09422E-03 6.06315E-04-6.09305E-06 2.50916E-04 2.27346E-06 2.90638E-05
 -1       388 6.91514E-03 6.69162E-05 1.82959E-06 4.31157E-05-3.55629E-07 6.47527E-06
 -1       389 5.42683E-03 4.13251E-04-9.16476E-05-5.38813E-06 4.65672E-05 9.23903E-05
 -1       390 6.58783E-03 2.93939E-04 4.60530E-06 1.76192E-04-1.32298E-06 1.40666E-05
 -1       391 5.49807E-03 8.14760E-04-3.06231E-05 1.18794E-04 2.07160E-05 1.49033E-05
 -1       392 6.29580E-03 4.13111E-04-4.04045E-05-7.99071E-06-4.92354E-06 7.22428E-05
 -1       393 3.80672E-03 1.90053E-04 1.77628E-06 1.12069E-03-4.39605E-05 6.72277E-05
 -1       394 5.90659E-03 6.56423E-04-3.04150E-05-1.11145E-04-8.69571E-06 4.37838E-05
 -1       395 6.40290E-03 3.76446E-04-6.69743E-05-8.15352E-05 9.12133E-06 7.61457E-05
 -1       396 6.69122E-03 2.44322E-04 2.24023E-07-7.56386E-06-3.60387E-06 2.93183E-05
 -1       397 6.03214E-03 2.59099E-03 5.18601E-04 3.24763E-03 2.84676E-04 3.41018E-04
 -1       398 6.10572E-03 2.86008E-03 8.84627E-04 3.89789E-03 9.12656E-05 1.42665E-04
 -1       399 6.12606E-03 2.79875E-03 9.28275E-04 3.62749E-03 1.16063E-05 2.47114E-05
 -1       400 6.14473E-03 2.72931E-03 9.19788E-04 3.63967E-03-1.92570E-05-3.99307E-05
 -1       401 6.00149E-03 2.73288E-03 8.34286E-04 3.68621E-03-1.14359E-04-1.42045E-04
 -1       402 6.35959E-03 2.54970E-03 7.83926E-04 3.61616E-03-1.18965E-04-1.88797E-04
 -1       403 6.15957E-03 2.70531E-03 6.79672E-04 3.94146E-03-2.71138E-04-3.83426E-04
 -1       404 6.45723E-03 2.71211E-03 8.88326E-04 3.59385E-03 1.54915E-04 1.98427E-04
 -1       405 6.56748E-03 2.49408E-03 6.02054E-04-3.26894E-03-2.16809E-04 2.82055E-04
 -1       406 6.66052E-03 2.50648E-03 9.38334E-04-3.39800E-03-9.42017E-05 1.37410E-04
 -1       407 5.94288E-03 2.51490E-03 7.92930E-04-3.10815E-03 5.20380E-05-7.45590E-05
 -1       408 6.06736E-03 2.46202E-03 6.97064E-04-3.06145E-03 1.81385E-04-1.85170E-04
 -1       409 5.96951E-03 2.46477E-03 4.73793E-04-3.09879E-03 2.61239E-04-3.05096E-04
 -1       410 6.44301E-03 2.67497E-03 8.95432E-04-3.60664E-03-6.32662E-05 3.64187E-05
 -1       411 6.70472E-03 2.47219E-03 8.79175E-04-3.29645E-03-1.34606E-04 2.09829E-04
 -1       412 6.59994E-03 2.59874E-03 9.03586E-04-3.58042E-03 7.14432E-05-1.43947E-04
 -1       413 1.59179E-03 1.25310E-03 4.72357E-05-1.50239E-03-2.77460E-05-6.17121E-05
 -1       414 1.13444E-03 8.39113E-04-3.15740E-05-1.12127E-03-4.03861E-05-4.94313E-05
 -1       415 5.10677E-04 4.22307E-04 3.09017E-05 6.17425E-04-4.69856E-06 1.76602E-05
 -1       416 1.78679E-03 1.21017E-03 1.53158E-05 1.59006E-03 1.04927E-05-2.57336E-05
 -1       417 3.74127E-03 3.44326E-04-4.39292E-05-1.33437E-03-6.29163E-05-9.32903E-06
 -1       418 5.38150E-03 1.23030E-03-1.77557E-04-4.99568E-04 8.86209E-05 3.43121E-05
 -1       419 3.53923E-03 6.29309E-04-4.13961E-05 1.57686E-03 5.56490E-05 1.91694E-05
 -1       420 5.46114E-03 1.14084E-03-1.49691E-04 4.88462E-04-1.11365E-04 2.52995E-05
 -1       421 6.17924E-03 7.75427E-04-1.00292E-05-8.15452E-04 1.64453E-05-3.18296E-05
 -1       422 6.78115E-03 7.38427E-05 1.16125E-05-2.31784E-04-7.22701E-06-2.34156E-05
 -1       423 7.05618E-03-1.10178E-05 3.17151E-07-7.69379E-05-7.44866E-07 6.84261E-07
 -1       424 7.51947E-03-4.21688E-05-3.14721E-06 3.01245E-06-9.70160E-06-1.52725E-05
 -1       425 6.42464E-03 6.23378E-04-3.68480E-05 8.81857E-04-3.49885E-05-6.01311E-05
 -1       426 6.71940E-03 1.46020E-04 2.63279E-05 5.25733E-04 1.73877E-05-1.06868E-05
 -1       427 6.91198E-03 1.77738E-05 6.80403E-06 1.15131E-04 2.99070E-06-5.45502E-08
 -1       428 7.03954E-03-1.32410E-05 1.98660E-06 4.77074E-05 1.05486E-06 8.68452E-07
 -1       429 7.20578E-03-1.25826E-05-2.52148E-06 5.02693E-06-1.24234E-06 6.11940E-07
 -1       430 8.51903E-03 3.43796E-04 1.00978E-04 4.85024E-05 4.74305E-06-5.17608E-05
 -1       431-1.26583E-03 7.85476E-03-2.82648E-04 6.09797E-05 2.41109E-05-2.31298E-04
 -1       432 6.10845E-03 4.15270E-04-1.24108E-04 2.79988E-05-1.78445E-05-1.78533E-04
 -1       433 4.89537E-03 2.33469E-04-9.68395E-05-6.31267E-04-5.85810E-05 1.36341E-04
 -1       434 1.27423E-03 8.68568E-04-3.86407E-05 1.14569E-03 5.85119E-05-1.37195E-05
 -1       435 5.87744E-03 4.84825E-04-1.47854E-04-4.59377E-05 2.90449E-05-2.16907E-04
 -1       436 5.20716E-04 3.95446E-04-5.23382E-06-6.10736E-04 1.91408E-05 8.85443E-06
 -1       437 6.65011E-03 2.52706E-04 1.57301E-06-4.95716E-04 1.91306E-06-3.03815E-06
 -1       438 6.95136E-03 1.11172E-05 3.90953E-06-8.41145E-05-2.51267E-06-3.06073E-06
 -1       439 6.76822E-03 1.55741E-04 2.57729E-06 1.74511E-04 2.75314E-06-1.46923E-05
 -1       440 5.08350E-03 1.56802E-04-6.05893E-05 3.10581E-04 6.70317E-05-8.31892E-05
 -1       441 5.20849E-03 3.72057E-04-1.16282E-05-2.29210E-04 1.86010E-05-3.71740E-05
 -1       442 5.20595E-03 3.02994E-04 5.40315E-06 4.82690E-04-1.33606E-06-2.51096E-05
 -1       443 3.52043E-03 2.48610E-04 2.43563E-05 1.28431E-03 1.32806E-05-5.04832E-05
 -1       444 6.51408E-03 3.22654E-04-9.16344E-06 1.65829E-05-1.24782E-06-4.32731E-05
 -1       445 6.07305E-03 6.04175E-04-2.03146E-05-2.47800E-04 9.47169E-06-2.37920E-05
 -1       446 6.79004E-03 1.54898E-04 4.90292E-06-8.76731E-05-6.07039E-07-1.99111E-05
 -1       447 6.89919E-03 7.02824E-05 2.37849E-06 3.30619E-05 7.64799E-07-8.98761E-06
 -1       448 2.99306E-03 5.10090E-04-4.17713E-05-1.16999E-03-4.20864E-09 1.17578E-04
 -1       449 5.76259E-03 8.98427E-04 5.14167E-06 3.65109E-04-1.51823E-05-1.00989E-05
 -1       450 5.57032E-03 7.61023E-04-3.20293E-05-9.71118E-05-5.28068E-06-2.95298E-05
 -1       451 6.34860E-03 4.93722E-04-1.94315E-06 5.24823E-04-5.76835E-06-3.16940E-05
 -1       452 5.59132E-03 5.99527E-04-7.60723E-05 1.75012E-05 7.11133E-06-4.51347E-05
 -1       453 6.46250E-03 3.52388E-04-1.63995E-05-1.64893E-04-3.44972E-06-4.16014E-05
 -1       454 6.18859E-03 5.12688E-04-1.24011E-05 1.74859E-04 1.39483E-06-3.69463E-05
 -1       455 5.58268E-03 3.68145E-04-9.14363E-05 1.42073E-05-3.31692E-05-1.34678E-04
 -1       456 6.71063E-03 1.42999E-04 8.48009E-06 3.53666E-04 5.88412E-06-1.34008E-05
 -1       457-5.13237E-05 5.06131E-04-2.15488E-04-1.51026E-04-1.02450E-04 3.78303E-05
 -1       458 1.05868E-04 2.95958E-04 2.98941E-05-2.50951E-04 9.69433E-06 2.67282E-06
 -1       459 7.12237E-05 2.17401E-05 2.98001E-06-4.01168E-05-4.96325E-07-2.30170E-06
 -1       460 2.08021E-05-1.55745E-06 7.78895E-07-1.62494E-06 1.12783E-07 1.22593E-07
 -1       461 3.50266E-06 2.19184E-07 9.18738E-08 1.49585E-06-6.79810E-08 6.98923E-09
 -1       462 4.50524E-07 3.12761E-07 2.15976E-08 4.75038E-07 4.56424E-09-4.19455E-10
 -1       463 2.57265E-08 1.30055E-07 2.31361E-09 6.64700E-08-3.39622E-09 1.33381E-09
 -1       464-4.48581E-09 6.88188E-08 2.89995E-09-2.32485E-09 5.24476E-10-1.65655E-10
 -1       465 1.16718E-08 1.47131E-07 6.39204E-09-6.48184E-08-1.28568E-09-6.05392E-11
 -1       466 4.42986E-07 3.14970E-07 2.68896E-08-4.31210E-07 1.06322E-08-1.03107E-08
 -1       467 3.28404E-06 3.35542E-07 1.57735E-07-1.50408E-06-2.05288E-08 1.75469E-08
 -1       468 1.96979E-05-2.03102E-06 4.85375E-07 2.01893E-06-2.78024E-08 8.92381E-08
 -1       469 7.74070E-05 7.83154E-06 3.94103E-06 3.48488E-05-2.25002E-08 4.62236E-07
 -1       470 1.11524E-04 2.61877E-04 3.26900E-05 2.26552E-04-3.44697E-06-7.43310E-07
 -1       471-8.41867E-05 5.36552E-04-2.12033E-04 1.78948E-04 7.32030E-05-2.87714E-06
 -1       472-1.18986E-04 5.10100E-04-6.14801E-04-9.25904E-05-2.12668E-04 6.37375E-05
 -1       473-7.29661E-05 6.43727E-04-7.72387E-04-1.87340E-04-1.41636E-04 4.53157E-05
 -1       474-1.24797E-04 4.90307E-04-7.28279E-04-1.03540E-04-5.33822E-05 5.57409E-05
 -1       475-2.19057E-04 6.53055E-04-6.65434E-04-9.47383E-05 5.03652E-05 3.05326E-06
 -1       476-1.91581E-04 8.39629E-04-7.44194E-04-2.35353E-04 1.42978E-04-4.18558E-05
 -1       477-1.91510E-04 6.38862E-04-6.08949E-04-1.22370E-04 1.96289E-04-1.03061E-04
 -1       478-6.74563E-06 7.68195E-04-3.75881E-04-3.45907E-04 2.31193E-04-7.90313E-05
 -1       479-1.77652E-04 8.34559E-04-3.42199E-04 4.32471E-04 2.41696E-04 4.77846E-05
 -1       480-1.13963E-04 6.44499E-04-6.99253E-04 2.52831E-04 1.05270E-04 5.03888E-05
 -1       481-1.99482E-06 7.15041E-04-7.11360E-04 3.59013E-04-3.98301E-05-1.40793E-05
 -1       482-2.59684E-04 6.83588E-04-4.12811E-04 2.47787E-04-2.01690E-04-3.89694E-05
 -1       483 6.64948E-05 4.09830E-04-8.82478E-05-1.53340E-04-1.09962E-05 1.86215E-06
 -1       484 1.19848E-06 5.47565E-04-7.56585E-05-3.04397E-04-7.86918E-06-1.31069E-05
 -1       485 1.39193E-04 9.63353E-05 1.36016E-05-1.37158E-04 6.85136E-07-3.45474E-06
 -1       486 4.31627E-05 4.86935E-07 1.34283E-06-1.60140E-05 2.08900E-08 4.87764E-08
 -1       487 8.72618E-06-4.66955E-07 3.41627E-07 1.60399E-06 7.42482E-08 5.42004E-08
 -1       488 1.16737E-06 4.08831E-07 5.72494E-08 6.79701E-07-2.75027E-08 3.88489E-09
 -1       489 8.74487E-08 2.65386E-07 1.50060E-08 1.91197E-07 4.02774E-09-3.37809E-09
 -1       490-3.45129E-09 9.28841E-08 2.35751E-09 2.88071E-08 1.61992E-10-1.89887E-09
 -1       491 4.40226E-09 7.51670E-08 3.30301E-09-1.45344E-08-4.14968E-10-6.63909E-10
 -1       492 1.08527E-07 2.31136E-07 9.11316E-09-1.99722E-07-1.28786E-09-1.02577E-09
 -1       493 1.19057E-06 3.63171E-07 1.42572E-08-6.83671E-07 3.34077E-08-2.33145E-08
 -1       494 8.66752E-06-4.73223E-07 3.56237E-07-1.53764E-06-4.75748E-08 4.38666E-08
 -1       495 3.39398E-05 2.22177E-06 2.74638E-07 1.00316E-05 2.62843E-07-9.98672E-07
 -1       496 1.39498E-04 6.50047E-05 1.36953E-05 1.12229E-04 2.30120E-07 1.07810E-06
 -1       497 3.61830E-05 4.37075E-04-6.03954E-05 1.89231E-04-1.45507E-05-2.06580E-06
 -1       498-1.65909E-06 7.16198E-04-3.66157E-04-3.16253E-04-2.21313E-04 4.92664E-05
 -1       499 2.09383E-05 7.28570E-04-7.79506E-04 2.33332E-04 5.11029E-05 1.89375E-05
 -1       500-1.31301E-04 5.19213E-04-5.24059E-04 1.74393E-04 1.69319E-04 1.92531E-05
 -1       501-3.26818E-05 6.29705E-04-6.49506E-04 2.01186E-04-1.52816E-04-7.08013E-05
 -1       502 2.65480E-05 4.06536E-04-4.58582E-05 2.04941E-04 7.13386E-08 1.27868E-06
 -1       503-1.20054E-04 4.52443E-04-3.93508E-04-1.11970E-04-6.44829E-05 4.42866E-05
 -1       504-4.00751E-05 4.38637E-04-4.92438E-04 1.12578E-04-3.74090E-05-7.37143E-06
 -1       505-1.09638E-04 6.17578E-04-3.21946E-04-2.51970E-04 2.57073E-05-2.55387E-06
 -1       506-1.32390E-04 8.02887E-04-3.86753E-04-3.64645E-04 5.85439E-05-3.35104E-05
 -1       507-9.36749E-06 4.65791E-04-5.98210E-04 1.41791E-04 2.61230E-05 2.39408E-05
 -1       508-3.79624E-05 3.33465E-04-2.93661E-04 1.36151E-04 2.00758E-05 7.84926E-06
 -1       509-8.72320E-05 4.18346E-04-2.54395E-04 1.28938E-04-4.96940E-05-2.78686E-05
 -1       510-6.28571E-05 6.17651E-04-1.86625E-04-2.20741E-04 9.24296E-05 2.55398E-05
 -1       511 6.73655E-03 3.29956E-04-3.93190E-05 2.84836E-04 1.60226E-06 8.03665E-05
 -1       512 6.45305E-03 9.41987E-04 1.71857E-04 2.30902E-05 6.72018E-07-2.69649E-05
 -1       513 6.60985E-03 8.20553E-04 1.02304E-04 4.35910E-05-1.65806E-07-2.86165E-05
 -1       514 6.95793E-03 7.73981E-04 1.92258E-04-2.76097E-05-3.79132E-06-2.45422E-05
 -1       515 6.83239E-03 2.89022E-05-3.68297E-05 1.74346E-04-5.79385E-06 3.16783E-05
 -1       516 6.80250E-03 4.29332E-04-4.55637E-05-4.98428E-05-1.08346E-06 7.23024E-05
 -1       517 6.81739E-03 6.91591E-05-2.88709E-05 2.46171E-04 7.58939E-06-6.30588E-05
 -1       518 6.54193E-03 7.23635E-04 4.48192E-05 1.07836E-04-3.59597E-06-4.96117E-05
 -1       519 6.75922E-03 6.70241E-04 5.37093E-05-5.32199E-06-5.88745E-06-5.03423E-05
 -1       520 6.93203E-03 4.88603E-06-8.48920E-06 1.07770E-04-2.78887E-06 4.56968E-06
 -1       521 6.86041E-03 1.76886E-04-3.63535E-05 1.37323E-04-4.03984E-06 4.49911E-05
 -1       522 6.61660E-03 4.59003E-04-1.48759E-05 5.07216E-04 8.48410E-06 1.04138E-04
 -1       523 6.23487E-03 1.02170E-03 2.15440E-05 3.68686E-04 8.71345E-06 6.39497E-05
 -1       524 1.05198E-03 8.83246E-04 5.53061E-05 8.94500E-04-4.75460E-05-5.80705E-05
 -1       525 3.60548E-03 6.98668E-04 6.50392E-05 1.19645E-03-1.63136E-04-1.41616E-04
 -1       526 3.49457E-03 6.56124E-04 4.19936E-04 9.94371E-04-5.38700E-05-1.31659E-04
 -1       527 4.27535E-03 6.49008E-04 4.61485E-04 8.56224E-04 9.62502E-06 3.11439E-05
 -1       528 5.85356E-03 8.97933E-04 1.24638E-04 2.02113E-04-4.36890E-05-1.06478E-04
 -1       529 6.88084E-03 9.63856E-04 4.44982E-04 2.87984E-06 8.52134E-06 1.20191E-04
 -1       530 6.82918E-03 4.00843E-04-6.61682E-05 4.23025E-05 7.32078E-07-6.12508E-05
 -1       531 6.52616E-03 8.77997E-04 1.70475E-04-8.04241E-05-2.03631E-05-9.23663E-05
 -1       532 5.85828E-03 9.68301E-04 3.29480E-04 2.35928E-04-2.22710E-05-7.50411E-05
 -1       533 5.99594E-03 1.05246E-03 3.17221E-04 1.65109E-04 1.67286E-05 1.89344E-05
 -1       534 6.43024E-03 1.11478E-03 1.54438E-04 4.74721E-04-8.54550E-06 3.13263E-06
 -1       535 6.99817E-03 1.07808E-03 3.15519E-04 1.06045E-03 1.17171E-06-1.05420E-05
 -1       536 6.55620E-03 5.39528E-04-2.64018E-05 1.16632E-04 3.39724E-06 1.01531E-04
 -1       537 7.00004E-03 1.15664E-05-7.01282E-06-1.45059E-05-1.74125E-07-6.33363E-07
 -1       538 6.90021E-03 2.29357E-05-2.09498E-05 1.23489E-04 3.18112E-06-1.17884E-05
 -1       539 6.91751E-03 1.21354E-04-3.84775E-05-9.56825E-05 1.29968E-07 3.70165E-06
 -1       540 6.87233E-03 1.66027E-04-3.60713E-05 1.16298E-04 2.17390E-06-3.20226E-05
 -1       541 6.79700E-03 1.02900E-04-2.22497E-05 2.98203E-04-9.25589E-06 7.27673E-05
 -1       542 6.98120E-03 3.42171E-04-3.51222E-06 5.95345E-04-5.89767E-06 6.07517E-05
 -1       543 6.75327E-03 3.86943E-04-4.36404E-05-1.56086E-04-3.00942E-06-7.54968E-05
 -1       544 6.25896E-03 1.26980E-03 5.90525E-05-6.38987E-04-1.15882E-05 4.60501E-05
 -1       545 5.76033E-03 8.43383E-04 4.13952E-04-9.64764E-05 2.12060E-05-2.00191E-04
 -1       546 4.97496E-03 5.07127E-04 5.00091E-05-4.87097E-04 1.06262E-04-1.73720E-04
 -1       547 5.05127E-03 7.25076E-04 2.21038E-04-1.05329E-03 1.18628E-04-1.15901E-04
 -1       548 2.18892E-03 8.41290E-04-8.56729E-05-1.27547E-03 2.20558E-04-8.51775E-05
 -1       549 2.24392E-03 9.75976E-04 1.21532E-04-1.25458E-03 1.82840E-05-1.99760E-05
 -1       550 6.84379E-03 1.41352E-04-4.37016E-05-3.25862E-04 7.29754E-06 8.54986E-05
 -1       551 6.79326E-03 2.88166E-04-1.04267E-05 5.42497E-04-4.57728E-06-1.18315E-04
 -1       552 6.14599E-03 1.08946E-03 1.76199E-05 4.05460E-04-1.86107E-05-4.93226E-05
 -1       553 6.50283E-03 1.53514E-03 4.38329E-04 8.61749E-04 4.40462E-05 3.99710E-05
 -1       554 3.75494E-03 6.11534E-04 1.04462E-05 1.13298E-03 1.61201E-04 1.23878E-04
 -1       555 2.16712E-03 9.61105E-04 2.00383E-05 1.28458E-03 1.43051E-04 1.01843E-04
 -1       556 5.56186E-03 7.39429E-04 3.74159E-05 5.34512E-04 9.86088E-05 9.48556E-05
 -1       557 5.60840E-03 7.93376E-04 2.68939E-04 3.29490E-04 6.43739E-05 1.61379E-04
 -1       558 5.72439E-03 6.79792E-04 2.35489E-04 1.52781E-04 5.77924E-05 3.12535E-04
 -1       559 6.44936E-03 8.81832E-04 4.20903E-04-7.84342E-05-9.34018E-06 2.24584E-04
 -1       560 6.61840E-03 4.10774E-04-2.17301E-05 2.54768E-04-1.00217E-06-8.77446E-05
 -1       561 6.40293E-03 1.05966E-03 1.15773E-04 4.12419E-04 8.50353E-06-3.12900E-05
 -1       562 6.89627E-03 3.70284E-04-1.47393E-05 5.73994E-04 2.62435E-06-7.62298E-05
 -1       563 6.63747E-03 4.52079E-04 5.62808E-06-5.59934E-04 1.78658E-05-1.07894E-04
 -1       564 1.76820E-03 1.10261E-03-6.54971E-06-1.27113E-03-1.92153E-04 7.08461E-05
 -1       565 6.38652E-03 1.20646E-03 6.34144E-05-7.41843E-04 2.44867E-05-4.07011E-05
 -1       566 6.29013E-03 8.45465E-04-1.30061E-05-1.57077E-04 6.28358E-06-6.18585E-05
 -1       567 6.37305E-03 1.38827E-03 2.02772E-04-7.54290E-04-2.00720E-05-1.62503E-05
 -1       568 5.55617E-03 7.05540E-04 5.90922E-05-6.45220E-04-1.10844E-04 1.29727E-04
 -1       569 4.66376E-03 7.08710E-04 1.78973E-04-1.17120E-03-8.32445E-05 8.28499E-05
 -1       570 6.23604E-03 8.44573E-04 4.27425E-04 5.98191E-05-1.62785E-05 2.32269E-04
 -1       571 6.90462E-03 3.49045E-04-1.84529E-05-5.66105E-04-3.06086E-06-7.68477E-05
 -1       572 6.81912E-04 8.41471E-04 2.17066E-05 7.84721E-04 1.44621E-05 1.86523E-05
 -1       573 6.48902E-03 7.47527E-04 1.14340E-06 1.04899E-04 5.57256E-07-5.98658E-05
 -1       574 6.70053E-03 5.47007E-04-2.21317E-05 7.29110E-06 2.88193E-07-7.23331E-05
 -1       575 1.36940E-03 1.27799E-03-1.67053E-04 1.33895E-03 5.46115E-05 4.88810E-05
 -1       576 5.57590E-03 8.48136E-04 9.22480E-04 2.49162E-04-2.90783E-05 4.28013E-05
 -1       577 5.66541E-03 7.76980E-04 6.58069E-04 2.14917E-04 3.96203E-06-2.66872E-04
 -1       578 4.63564E-03 1.12540E-03 2.55933E-04 1.64538E-03 1.35581E-05 2.10061E-05
 -1       579 6.95535E-03 4.52180E-04 1.77943E-05 6.24589E-04 5.04233E-06-5.60534E-06
 -1       580 6.46303E-03 1.00288E-03 7.16408E-04-2.12917E-05 1.44011E-05-1.32322E-05
 -1       581 2.15968E-03 1.17014E-03-9.25651E-06 1.42582E-03-7.52376E-05-5.91337E-05
 -1       582 5.20391E-03 9.18337E-04 3.06909E-04 1.12457E-03-3.82527E-05-5.45064E-05
 -1       583 6.90900E-03 1.17754E-04-5.84745E-05 3.27035E-04-1.68029E-06 4.46774E-05
 -1       584 6.54910E-03 1.61919E-03 3.44998E-04 1.04197E-03-5.47884E-05-6.35714E-05
 -1       585 5.86127E-03 1.47670E-03 1.85810E-04 1.22614E-03-1.10364E-04-1.64440E-04
 -1       586 5.05541E-03 9.61128E-04 2.01695E-04 1.25983E-03-1.28619E-04-1.29290E-04
 -1       587 4.54528E-03 1.04540E-03 1.87913E-04 1.47636E-03 9.90175E-05 9.86208E-05
 -1       588 6.01296E-03 1.52393E-03 2.51761E-04 1.15397E-03 1.07103E-04 9.23960E-05
 -1       589 7.04881E-03-8.33344E-06 8.21583E-07 8.30830E-05 9.58161E-08-4.81808E-08
 -1       590 6.89479E-03 1.15810E-04-6.24184E-05 2.80861E-04 3.61677E-06-2.12178E-05
 -1       591 6.78484E-03 4.20038E-04-4.78558E-05 2.81618E-04 2.70051E-07-3.88419E-05
 -1       592 6.69299E-03 5.95767E-04-2.20128E-05 2.37071E-04-3.55693E-06 4.54489E-05
 -1       593 6.49476E-03 1.66097E-03 5.28252E-04 1.04492E-03 3.66128E-07-2.02154E-06
 -1       594 6.39598E-03 1.56431E-03 4.08769E-04 8.14746E-04-2.77025E-05-4.66664E-05
 -1       595 6.41320E-03 1.39089E-03 6.15280E-05 9.77311E-04 8.11097E-05-9.87413E-06
 -1       596 7.09470E-03 7.80980E-04 1.51114E-04 1.00269E-03-8.43316E-06-7.38173E-05
 -1       597 7.22116E-03 5.66298E-04 1.50147E-04 8.88374E-04 1.62488E-05-3.29518E-05
 -1       598 7.15695E-03 6.51818E-04 1.47869E-04 9.63820E-04 1.60313E-06 6.50271E-05
 -1       599 7.29698E-03 7.90168E-04 2.78485E-04 1.04992E-03-8.12929E-06 1.67129E-05
 -1       600 7.13046E-03 5.82123E-04 5.89806E-05 9.53806E-04 2.23820E-05 1.17578E-04
 -1       601 5.13668E-03 6.85769E-04 7.54918E-04-3.96606E-04 3.11233E-05 2.80900E-06
 -1       602 6.38830E-03 9.81368E-04 7.72080E-05-2.58411E-04 4.13763E-06-2.53925E-05
 -1       603 7.09310E-03 4.80672E-04 7.71797E-05-7.80726E-04-8.19148E-06-4.19001E-06
 -1       604 5.91817E-03 1.25446E-03 2.79715E-04-4.03561E-04-1.26104E-05 3.04339E-05
 -1       605 1.29059E-03 1.12649E-03-8.30538E-05-1.13784E-03-6.78509E-05 4.51847E-05
 -1       606 7.06160E-03 2.39425E-04-9.05427E-06-5.59082E-04 7.01386E-06 4.00268E-05
 -1       607 6.69086E-03 6.36231E-04-2.26001E-05-3.12714E-04 1.98485E-06 3.38145E-05
 -1       608 6.24181E-03 1.35919E-03 2.32914E-04-5.84719E-04-6.95020E-06 1.66970E-05
 -1       609 6.60416E-03 9.03806E-04 4.03316E-04 8.74039E-05-7.96893E-06-2.43832E-05
 -1       610 6.91275E-03 8.13936E-05-6.74431E-05-2.78185E-04 4.56301E-07-1.49697E-05
 -1       611 6.49360E-03 5.40244E-04-1.61269E-05-2.41874E-04-9.72642E-06 8.62070E-05
 -1       612 5.74088E-04 6.56001E-04-1.31436E-05-5.74442E-04-5.31867E-05 3.04453E-05
 -1       613-2.88574E-03-1.69059E-02-4.01140E-04-8.00370E-05-4.54111E-06-8.02824E-05
 -1       614-2.82584E-03-1.68718E-02-4.45998E-04-9.03976E-05-3.32171E-06 1.09470E-04
 -1       615-3.12137E-03-1.69246E-02-9.75477E-04 1.61819E-03 4.77694E-04 4.14390E-06
 -1       616 2.80605E-03-5.01951E-03-6.84189E-05-8.30107E-04 1.29261E-03-1.13185E-03
 -1       617 2.05122E-02 1.06004E-03 7.46438E-04-2.47997E-03-1.73736E-04-1.43347E-03
 -1       618 2.88087E-02 2.44399E-03 1.56329E-03 3.57246E-03-4.53177E-04 7.62356E-04
 -1       619 1.31180E-02-4.46395E-03 5.67598E-04 3.25209E-03 1.56452E-03 2.03314E-03
 -1       620-3.37450E-03-2.10805E-02-2.11575E-03-5.67443E-03 6.40954E-04 1.21358E-04
 -1       621-2.32815E-03-2.09784E-02-2.45989E-03 5.30371E-03-8.82838E-04-3.90546E-04
 -1       622 1.45774E-02-5.05226E-03 5.19658E-04-3.33283E-03-1.77567E-03 1.88145E-03
 -1       623 2.87272E-02 2.06991E-03 1.58254E-03-3.17262E-03 6.18029E-04 7.78789E-04
 -1       624 2.02352E-02 1.07238E-03 7.29081E-04 2.54162E-03 1.43930E-04-1.45422E-03
 -1       625 2.57214E-03-5.13532E-03-4.32382E-04 7.12782E-04-1.31683E-03-1.09438E-03
 -1       626-3.40570E-03-1.69863E-02-1.15768E-03-1.76867E-03-4.78516E-04-1.29864E-04
 -1       627-3.13840E-03-1.69076E-02-1.02698E-03 1.60175E-03-4.77793E-04-3.69227E-06
 -1       628 2.78145E-03-5.09298E-03-9.00672E-05-8.14060E-04-1.29358E-03 1.11449E-03
 -1       629 2.04283E-02 1.12835E-03 7.66471E-04-2.50797E-03 1.59467E-04 1.46542E-03
 -1       630 2.90316E-02 2.65111E-03 1.51205E-03 3.87452E-03 5.36518E-04-6.93722E-04
 -1       631 1.29159E-02-4.80351E-03 2.55980E-04 2.95704E-03-1.63463E-03-1.75498E-03
 -1       632-4.24447E-03-2.13162E-02-2.48988E-03-5.83648E-03-5.24951E-04-1.23201E-06
 -1       633-2.37035E-03-2.08417E-02-2.53614E-03 5.31229E-03 9.21154E-04 4.13915E-04
 -1       634 1.45099E-02-5.10778E-03 5.31246E-04-3.28726E-03 1.72367E-03-1.84606E-03
 -1       635 2.86282E-02 2.10658E-03 1.59881E-03-3.15371E-03-6.25900E-04-7.53720E-04
 -1       636 2.00629E-02 1.06957E-03 7.25315E-04 2.47753E-03-1.12513E-04 1.47865E-03
 -1       637 2.49137E-03-5.26869E-03-4.61945E-04 6.36634E-04 1.34161E-03 1.08947E-03
 -1       638-3.36486E-03-1.69451E-02-1.20663E-03-1.78251E-03 4.71639E-04 1.27210E-04
 -1       639 6.47568E-03 2.57612E-03 2.71555E-03-1.65539E-05 4.62504E-07 8.44287E-04
 -1       640 6.51394E-03 2.59784E-03 2.73354E-03-3.71883E-05-4.01397E-05-7.91245E-04
 -1       641 7.66593E-03 2.64746E-03 1.96887E-03-4.94512E-04 1.62741E-04 1.63964E-03
 -1       642 6.60843E-03 1.39986E-03 2.39605E-03-9.65628E-04 4.96202E-04 1.62610E-03
 -1       643 2.87815E-03-4.39622E-04 7.28500E-04-6.59194E-04 2.68445E-04 5.45055E-04
 -1       644 9.41439E-04-5.06856E-04 1.29511E-04-1.26670E-04 8.60919E-05 1.13589E-04
 -1       645 2.31046E-04-2.04113E-04-2.30054E-06 5.12297E-05 3.54640E-05 3.22082E-06
 -1       646 6.45166E-05-3.36233E-05 9.17249E-06 5.14121E-05 1.25495E-05 5.52764E-06
 -1       647 1.19270E-05-1.11058E-06 3.20709E-06 2.60301E-05 5.35403E-06 8.29276E-07
 -1       648-8.18204E-07 4.46012E-06 1.07718E-06 1.01926E-05 2.16481E-06-2.19607E-07
 -1       649-1.90279E-06 2.59646E-06 2.94790E-08 2.34219E-06 4.64289E-07-3.60953E-08
 -1       650-8.83767E-07 1.39365E-06 1.51296E-07 2.66452E-07 1.79849E-07-1.33063E-07
 -1       651-3.36116E-07 4.97799E-07 4.77940E-08-1.27916E-07 5.48948E-08-7.02853E-08
 -1       652-4.47902E-08 1.14285E-07 2.06509E-08-9.36271E-08 1.05676E-08-2.53832E-08
 -1       653 1.17608E-08 1.89070E-08 9.08788E-09-3.00118E-08 1.75544E-09-1.42567E-08
 -1       654 9.52373E-09 2.41435E-08 9.97748E-09 3.63791E-08-2.36740E-09-1.45402E-08
 -1       655-9.83250E-08 1.67088E-07 2.03071E-08 1.21829E-07-1.68406E-08-3.56339E-08
 -1       656-3.65846E-07 5.74232E-07 6.18469E-08 1.07749E-07-6.29214E-08-7.38168E-08
 -1       657-8.88899E-07 1.47881E-06 1.75396E-07-3.40817E-07-1.97619E-07-1.37034E-07
 -1       658-2.10767E-06 3.49892E-06 4.10705E-07-3.08054E-06-8.10329E-07-2.91251E-07
 -1       659-2.33274E-07 4.57498E-06 1.28512E-06-1.05372E-05-2.22387E-06-1.84257E-07
 -1       660 1.54636E-05-1.41684E-06 4.16664E-06-2.72480E-05-5.59163E-06 1.06003E-06
 -1       661 8.98393E-05-5.88426E-05 9.13987E-06-6.23904E-05-1.79767E-05 8.84394E-06
 -1       662 2.71201E-04-2.09575E-04 1.81671E-05-4.54661E-05-3.69085E-05 3.15015E-05
 -1       663 1.11220E-03-5.60818E-04 1.64578E-04 1.82217E-04-1.06477E-04 1.50533E-04
 -1       664 3.40979E-03-2.65867E-04 9.39728E-04 7.32146E-04-2.92992E-04 6.31833E-04
 -1       665 6.42168E-03 1.20053E-03 1.35580E-03 8.68891E-04-4.25839E-04 1.20199E-03
 -1       666 7.50154E-03 2.69161E-03 2.09677E-03 4.02267E-04-1.28678E-04 1.60640E-03
 -1       667 7.52804E-03 2.59313E-03 1.75366E-03-3.29100E-04-1.32195E-04-1.38117E-03
 -1       668 6.09864E-03 1.04740E-03 1.22721E-03-8.36011E-04-3.61771E-04-9.32539E-04
 -1       669 3.21229E-03-2.87120E-04 8.77407E-04-6.87233E-04-2.58199E-04-5.56578E-04
 -1       670 1.16724E-03-5.88991E-04 1.72054E-04-2.13958E-04-1.24481E-04-1.81513E-04
 -1       671 3.01714E-04-2.45274E-04 1.65076E-05 3.44555E-05-3.99813E-05-3.57293E-05
 -1       672 9.93957E-05-6.73938E-05 9.45149E-06 6.39352E-05-1.87540E-05-9.65981E-06
 -1       673 1.95904E-05-3.49718E-06 4.78815E-06 2.98236E-05-6.36731E-06-1.44193E-06
 -1       674 1.46896E-06 4.32143E-06 1.72165E-06 1.27747E-05-2.68901E-06 6.30411E-08
 -1       675-1.87857E-06 3.87890E-06 5.94051E-07 4.25203E-06-1.03268E-06 2.88545E-07
 -1       676-1.39253E-06 2.09572E-06 2.08495E-07 8.73624E-07-3.44813E-07 2.03051E-07
 -1       677-4.29226E-07 7.24014E-07 8.78558E-08-5.65068E-08-8.56922E-08 8.77116E-08
 -1       678-1.83709E-07 2.29831E-07 2.26874E-09-1.30180E-07-2.28181E-08 3.02757E-08
 -1       679-2.90908E-08 4.26808E-08-3.47781E-09-6.63539E-08 2.34893E-09 1.56694E-08
 -1       680 1.65284E-08 1.03856E-08 8.02965E-09 7.65938E-09-5.84512E-11 1.09806E-08
 -1       681-1.54336E-08 6.02159E-08 1.33285E-08 7.13652E-08 5.78169E-09 2.00935E-08
 -1       682-1.47731E-07 2.55388E-07 3.19990E-08 1.23545E-07 2.60991E-08 4.34493E-08
 -1       683-6.76076E-07 9.40092E-07 7.87924E-08 1.27909E-08 9.54573E-08 9.45821E-08
 -1       684-1.40402E-06 2.09616E-06 2.05362E-07-9.00434E-07 3.53721E-07 2.05105E-07
 -1       685-1.87589E-06 3.81652E-06 5.75399E-07-4.11166E-06 1.00973E-06 2.88063E-07
 -1       686 1.67740E-06 4.32642E-06 1.78178E-06-1.27158E-05 2.62456E-06 5.17504E-08
 -1       687 2.55029E-05-1.16333E-05 4.09904E-06-3.80665E-05 8.38052E-06-2.10462E-06
 -1       688 1.06691E-04-7.14340E-05 1.04260E-05-6.24642E-05 1.98780E-05-1.08243E-05
 -1       689 2.99889E-04-2.28718E-04 2.10074E-05-3.29021E-05 3.87898E-05-3.52543E-05
 -1       690 1.27754E-03-6.12681E-04 1.98544E-04 2.43097E-04 1.11638E-04-1.67210E-04
 -1       691 3.96703E-03-2.10828E-05 1.17990E-03 7.49255E-04 3.37053E-04-7.64875E-04
 -1       692 6.82057E-03 1.78131E-03 2.57371E-03 8.95627E-04 4.59486E-04-1.71838E-03
 -1       693 8.43248E-03 3.44293E-03 3.55945E-03 3.19280E-04 2.18721E-04-2.29637E-03
 -1       694 2.08273E-02 1.30690E-02 4.33197E-03-1.10385E-02 1.30030E-04-1.06902E-03
 -1       695 2.14003E-02 1.30068E-02 4.32559E-03-1.05747E-02-2.05303E-05 9.50169E-04
 -1       696 2.11439E-02 1.33358E-02 4.38176E-03 1.07115E-02 3.16746E-05-2.15086E-04
 -1       697 9.91518E-03 5.88792E-03-3.08386E-04-1.02531E-02 2.30674E-03-1.41601E-03
 -1       698 2.51516E-04-3.14028E-03-3.62424E-04 1.85914E-03 4.90468E-04-1.17106E-03
 -1       699-1.18901E-02-1.70649E-03-3.91989E-04 4.82216E-03 3.82793E-04-2.70506E-04
 -1       700-1.29394E-02 1.48479E-03 2.44852E-04-1.24499E-03-5.68684E-04 2.98116E-04
 -1       701-6.24471E-03-2.26753E-03-2.26817E-04-4.22419E-03 5.57857E-04 5.45170E-04
 -1       702 2.72415E-03-6.44071E-04 2.80859E-04 6.07338E-04 2.02130E-04 8.32294E-04
 -1       703 3.10613E-03 5.75695E-03-2.23919E-04 4.84499E-03 6.37226E-04 2.32331E-04
 -1       704 4.01989E-04 1.46945E-02-3.25203E-05 2.52677E-03 9.35890E-05 2.63216E-06
 -1       705 2.99281E-04 1.47161E-02-6.48922E-05-2.37288E-03-7.73447E-05 2.28623E-05
 -1       706 3.11394E-03 5.99896E-03-2.02323E-04-4.91603E-03-5.80902E-04 2.79871E-04
 -1       707 2.75111E-03-5.11055E-04 2.80215E-04-7.43411E-04-2.24944E-04 8.33944E-04
 -1       708-6.05890E-03-2.23889E-03-1.96896E-04 4.18965E-03-5.39973E-04 5.43442E-04
 -1       709-1.29138E-02 1.54090E-03 2.49476E-04 1.09996E-03 5.85115E-04 2.91458E-04
 -1       710-1.15131E-02-2.24820E-03-4.82629E-04-5.30094E-03-4.45186E-04-2.77306E-04
 -1       711 1.91053E-03-3.50361E-03-4.43288E-04-1.32772E-03-1.20480E-05-3.96168E-05
 -1       712 1.16598E-02 5.54301E-03 1.18242E-03 1.02010E-02-6.60360E-04-3.86220E-04
 -1       713 9.90959E-03 6.06963E-03-2.28843E-04-1.02995E-02-2.17613E-03 1.43422E-03
 -1       714 1.37077E-04-3.11228E-03-3.85283E-04 1.86230E-03-5.18507E-04 1.12066E-03
 -1       715-1.19584E-02-1.72693E-03-4.76951E-04 4.81225E-03-3.96935E-04 2.52470E-04
 -1       716-1.30394E-02 1.37872E-03 2.27373E-04-1.24633E-03 5.02916E-04-3.14259E-04
 -1       717-6.28839E-03-2.28264E-03-2.74019E-04-4.21500E-03-5.62771E-04-5.68418E-04
 -1       718 2.71113E-03-6.36279E-04 3.16820E-04 5.94379E-04-2.37440E-04-8.21851E-04
 -1       719 3.07778E-03 5.80637E-03-2.00922E-04 4.83801E-03-6.26503E-04-2.54198E-04
 -1       720 4.17116E-04 1.47194E-02 2.82004E-05 2.51242E-03-7.91331E-05-4.13696E-05
 -1       721 3.09936E-04 1.47424E-02-2.26239E-05-2.37398E-03 8.41407E-05-5.50335E-05
 -1       722 3.09327E-03 6.03433E-03-1.86637E-04-4.91624E-03 5.86922E-04-2.98587E-04
 -1       723 2.75430E-03-4.89321E-04 2.91653E-04-7.65456E-04 2.60764E-04-8.23564E-04
 -1       724-6.03126E-03-2.25481E-03-2.10419E-04 4.16593E-03 5.44453E-04-5.47172E-04
 -1       725-1.24251E-02 1.60844E-03 3.24621E-04 9.14976E-04-5.54284E-04-3.87752E-04
 -1       726-1.15345E-02-1.40822E-03-6.42160E-04-5.47309E-03 6.95707E-04 7.07240E-04
 -1       727 2.50451E-03-3.28166E-03-2.21301E-04-1.47373E-03 8.91629E-05 2.18603E-04
 -1       728 1.25671E-02 6.09346E-03 1.47029E-03 1.08667E-02 4.52845E-04 2.18945E-04
 -1       729 7.23256E-03-8.25685E-06-8.17355E-05 5.01954E-04-4.69113E-06-1.41663E-04
 -1       730 6.59542E-03-9.03047E-06-1.98541E-05 2.13180E-04 9.50314E-06-4.36622E-05
 -1       731 6.62302E-03-1.52985E-05 7.78673E-07 1.93697E-04-8.53685E-07-2.97274E-06
 -1       732 6.75589E-03 2.70364E-06 2.63897E-06 1.98737E-04 5.01343E-07 4.07181E-06
 -1       733 6.93672E-03 6.05905E-06 2.02262E-06 2.03847E-04 3.31792E-07 7.12589E-06
 -1       734 7.12039E-03 3.24322E-06 1.66308E-06 2.20143E-04-5.25907E-07 2.98607E-06
 -1       735 7.35743E-03 2.09928E-05 1.14072E-05 2.38005E-04-4.20593E-06-4.87372E-06
 -1       736 7.51506E-03 8.50205E-06-8.76398E-07 2.82924E-04-6.07007E-06-3.03870E-05
 -1       737 8.38633E-03 5.80629E-04-1.14071E-04-4.50545E-04 2.92023E-06 1.94433E-04
 -1       738 1.96830E-02 1.00931E-03 4.58368E-04-6.83037E-03-1.35660E-04 1.89428E-03
 -1       739 8.70871E-03 3.97042E-04 2.32190E-04 1.21003E-03-9.42512E-05-2.48747E-04
 -1       740 9.35645E-03 2.68716E-04 5.66499E-04 1.38833E-03-1.43025E-05 1.42130E-04
 -1       741 9.66748E-03 3.53540E-04 7.75020E-04 1.41296E-03-5.42424E-05-5.42693E-05
 -1       742 9.39757E-03 3.69136E-04 8.50556E-04 1.34746E-03-5.12697E-06 3.34774E-05
 -1       743 9.71953E-03 3.38805E-04 8.74471E-04 1.37866E-03 3.26841E-05 5.98994E-05
 -1       744 9.65697E-03 3.25926E-04 8.86083E-04 1.32820E-03-1.64220E-05-4.31963E-05
 -1       745 9.45055E-03 3.44673E-04 8.52626E-04 1.35881E-03-1.50389E-05-3.45445E-06
 -1       746 9.49917E-03 4.32302E-04 7.31167E-04 1.31275E-03 6.54974E-06-2.16716E-05
 -1       747 9.60691E-03 3.51006E-04 6.99380E-04 1.45353E-03 6.43174E-05 1.08841E-05
 -1       748 9.16649E-03 3.83451E-04 2.76665E-04 1.34011E-03 4.51244E-05 1.32305E-04
 -1       749 7.29381E-03 1.43422E-04-1.47851E-05 6.53662E-04 4.80843E-05 6.71672E-05
 -1       750 6.62553E-03-2.41870E-05-5.25164E-06 2.81380E-04-1.52554E-05 3.30648E-05
 -1       751 6.61680E-03-1.04249E-05-2.33903E-06 2.10714E-04 1.64647E-06 1.57221E-05
 -1       752 6.75724E-03 5.51083E-06 9.79745E-07 2.01188E-04-8.43868E-07-3.13242E-06
 -1       753 6.93599E-03 7.36881E-06 1.30423E-06 2.05209E-04-3.75522E-07-6.85711E-06
 -1       754 7.12018E-03 3.47437E-06 1.46363E-06 2.17872E-04-1.05665E-06-2.91561E-06
 -1       755 7.33700E-03-9.86079E-06 1.33381E-05 2.42942E-04 3.61221E-06 4.45184E-06
 -1       756 7.50828E-03 8.54480E-06-9.73970E-06 3.36629E-04 1.65828E-05 3.92948E-05
 -1       757 7.17188E-03-1.26960E-03-7.91665E-04 5.13278E-04-2.97558E-04-2.70420E-04
 -1       758 1.98231E-02 1.05268E-03 9.18422E-07-5.64502E-03-1.10175E-04-1.34851E-03
 -1       759 7.15874E-03-2.89070E-05-1.08130E-04-6.20581E-04 1.22772E-05-1.50124E-04
 -1       760 6.63328E-03-4.68274E-06-8.03235E-06-2.84598E-04-2.48230E-05-3.26803E-05
 -1       761 6.60346E-03-8.78823E-06-5.51603E-06-2.12055E-04 6.01381E-06-6.11351E-06
 -1       762 6.78637E-03 4.23276E-06 7.70103E-07-2.03999E-04-1.96640E-06 3.73285E-06
 -1       763 7.00192E-03 5.59304E-06-1.04408E-06-2.10751E-04-1.33824E-06 5.81920E-06
 -1       764 7.22430E-03 6.58428E-06 9.57102E-07-2.24876E-04-3.46910E-09 1.11275E-06
 -1       765 7.49318E-03 4.99737E-06 1.93017E-06-2.48927E-04-7.59151E-07-2.91242E-05
 -1       766 7.29748E-03 5.72675E-05-4.04018E-04-1.96827E-04-2.78565E-05 1.81157E-04
 -1       767 1.82603E-02 6.60596E-04 5.64660E-04 5.52041E-03 1.92785E-04 1.66021E-03
 -1       768 8.73767E-03 3.78044E-04 2.53855E-04-1.26513E-03 8.29881E-05-1.85043E-04
 -1       769 9.54103E-03 4.07999E-04 5.76366E-04-1.38905E-03-7.62237E-06-1.22648E-04
 -1       770 9.61169E-03 4.93587E-04 8.78763E-04-1.40447E-03 2.65921E-05 7.89415E-05
 -1       771 9.15616E-03 4.90445E-04 7.27562E-04-1.21945E-03 6.32232E-05-4.27851E-05
 -1       772 9.34051E-03 6.58383E-04 9.96953E-04-1.53147E-03 1.93105E-05-4.34911E-05
 -1       773 9.40421E-03 6.18194E-04 8.00529E-04-1.34074E-03-3.97921E-05 7.51365E-05
 -1       774 9.74228E-03 5.33936E-04 1.02453E-03-1.46019E-03-4.29155E-05-1.12079E-04
 -1       775 9.63885E-03 3.59459E-04 7.63521E-04-1.46269E-03-3.93687E-05 1.97891E-05
 -1       776 9.42002E-03 3.67002E-04 5.70852E-04-1.44293E-03 3.64432E-05 9.66445E-05
 -1       777 8.76068E-03 2.98780E-04 2.64516E-04-1.18110E-03-7.02866E-05 2.27083E-04
 -1       778 7.10505E-03-5.14957E-05-1.03058E-04-5.41422E-04-9.47101E-06 1.28773E-04
 -1       779 6.56023E-03-5.59220E-05-2.58485E-05-2.54502E-04 7.79393E-06 3.26617E-05
 -1       780 6.66822E-03-1.17017E-05-6.45596E-06-2.08008E-04 3.37112E-06 2.96424E-06
 -1       781 6.89739E-03 5.35646E-06 1.67596E-06-2.00760E-04 2.02388E-06-6.81600E-06
 -1       782 7.12853E-03 8.13129E-07-7.84974E-07-2.24021E-04-6.53680E-07-6.03874E-06
 -1       783 7.39387E-03-2.27198E-05-7.89325E-06-2.65049E-04 1.25862E-05 7.73226E-06
 -1       784 7.55438E-03 2.29356E-04-8.10095E-05-2.16810E-04 4.54449E-05-5.59906E-06
 -1       785 1.55739E-02 5.17079E-04 4.69684E-04 4.06594E-03-3.39096E-04-8.74109E-04
 -1       786 1.28669E-04 1.13382E-03-5.15199E-05-5.83906E-04 3.92455E-05 4.40582E-06
 -1       787-3.76066E-05 7.91343E-04-4.88868E-05-3.24717E-04-2.94180E-05 3.63014E-05
 -1       788 9.44818E-05 5.99043E-04-2.47859E-06-2.96757E-04-2.48562E-05 2.07075E-05
 -1       789 1.17702E-04 2.58072E-04-3.05612E-05-2.55700E-04 1.05121E-05 2.99567E-05
 -1       790 1.41488E-04 5.97961E-05-1.09218E-05-1.24239E-04 4.65082E-06 2.95953E-06
 -1       791 8.82117E-05 1.32045E-05-7.35799E-06-4.27935E-05 1.03478E-06-4.31435E-06
 -1       792 3.96937E-05 3.69599E-06-2.16131E-06-1.33596E-05 1.64906E-06-1.37393E-06
 -1       793 1.93515E-05-2.80367E-06-1.12591E-06-1.40037E-06 9.00039E-07-3.20189E-07
 -1       794 8.51744E-06-9.97524E-07-5.38959E-07 1.70040E-06 3.45567E-07-2.54371E-07
 -1       795 3.21554E-06 1.92811E-07-2.27794E-07 1.62895E-06 8.73080E-08-1.17189E-07
 -1       796 1.18556E-06 5.09807E-07-1.46142E-07 9.15582E-07-4.33927E-08-5.15635E-08
 -1       797 4.58951E-07 3.31078E-07-3.54573E-08 3.90198E-07-3.64956E-09-3.58267E-08
 -1       798 9.36380E-08 2.41458E-07-2.26927E-08 2.07241E-07 5.55407E-09-1.71803E-08
 -1       799 4.24515E-09 1.36969E-07-1.46234E-08 7.16652E-08-3.64434E-09-8.75444E-10
 -1       800-3.72138E-09 9.21383E-08-5.60969E-09 1.63563E-08 1.31001E-10-2.93470E-09
 -1       801-3.53484E-09 7.22110E-08-5.82225E-09 5.67481E-09 2.41035E-09 1.59968E-10
 -1       802-1.07918E-08 8.60966E-08-1.05445E-08-1.64203E-08 1.80346E-09 2.08064E-10
 -1       803 1.50352E-09 1.41959E-07-9.52039E-09-6.69315E-08-1.27942E-09-7.44364E-09
 -1       804 1.17372E-07 2.24646E-07-1.52057E-08-1.75395E-07 1.13920E-09-1.40756E-08
 -1       805 3.35270E-07 4.10140E-07-4.73697E-08-4.41906E-07 2.56459E-08-1.12329E-08
 -1       806 1.12326E-06 4.48422E-07-1.81188E-07-9.44881E-07 4.35161E-08-3.51581E-08
 -1       807 3.23183E-06 1.96362E-07-2.25489E-07-1.65078E-06-1.00951E-07-1.10685E-07
 -1       808 8.39910E-06-1.01059E-06-4.88125E-07-1.73863E-06-3.33749E-07-2.08082E-07
 -1       809 1.82027E-05-4.73327E-07-9.57913E-07 1.53490E-06-5.77798E-07-6.86679E-07
 -1       810 4.15521E-05-6.95498E-07-2.88667E-06 8.44578E-06 3.92172E-08-1.74157E-06
 -1       811 7.60662E-05 2.20715E-06-4.96005E-06 3.45834E-05-3.30354E-06-5.10155E-07
 -1       812 1.26546E-04 5.01064E-05-1.00592E-05 1.10636E-04-7.65245E-06 2.85730E-06
 -1       813 1.61192E-04 2.45866E-04-7.19668E-06 2.34419E-04 1.57111E-07 1.56963E-05
 -1       814 1.64353E-04 5.59995E-04-4.54878E-07 3.01269E-04 1.47112E-05 2.56459E-05
 -1       815 7.96003E-05 7.74800E-04 5.05371E-05 3.24948E-04 2.88108E-05 7.51889E-06
 -1       816 1.93336E-04 1.21259E-03-8.59465E-06 6.48003E-04-4.31576E-05-4.27913E-05
 -1       817 2.79622E-03 2.55459E-03 9.90006E-05-2.45523E-03 2.82780E-04-2.09630E-04
 -1       818 8.45442E-03 1.06084E-03 2.04455E-04-2.45422E-03 3.54580E-05-1.59717E-04
 -1       819 2.81253E-03 2.67112E-03 6.97434E-05 2.51435E-03-2.47955E-04-2.81684E-04
 -1       820 8.37953E-03 1.03604E-03 2.47573E-04 2.32732E-03 9.57443E-06 1.62681E-05
 -1       821 2.84218E-03 2.64299E-03 1.08876E-04 2.51327E-03 2.67061E-04 1.62106E-04
 -1       822 8.40967E-03 1.10278E-03 2.08753E-04 2.36791E-03 2.58940E-05 1.24861E-04
 -1       823 4.85285E-04 2.00456E-03-1.79523E-04 1.21159E-03 5.01778E-04 2.04108E-04
 -1       824 8.23398E-04 1.75842E-03-3.02926E-04 1.38553E-03 4.37784E-04 1.09281E-04
 -1       825 7.35998E-04 1.95102E-03-5.57428E-04 1.44405E-03 2.44014E-04 1.82095E-04
 -1       826 2.84840E-04 1.90989E-03-5.91454E-04 1.24914E-03 1.55937E-04 6.48663E-05
 -1       827 3.07030E-04 2.03535E-03-6.18219E-04 1.27837E-03 9.98916E-05 6.71399E-05
 -1       828 4.29653E-04 2.02550E-03-5.82913E-04 1.33116E-03-5.75680E-05-1.14209E-04
 -1       829 4.76319E-04 1.83406E-03-5.90287E-04 1.40032E-03-1.14317E-04 5.12005E-06
 -1       830 7.05559E-04 1.89542E-03-4.26272E-04 1.54766E-03-2.90300E-04-2.19935E-04
 -1       831 4.36355E-04 1.99134E-03-4.78503E-04 1.47049E-03-4.36158E-04-1.60281E-04
 -1       832 5.71525E-04 1.99209E-03-1.85024E-04 1.29275E-03-4.54232E-04-1.16384E-04
 -1       833 3.05184E-03 2.52942E-03 1.22507E-04-2.53613E-03-2.81113E-04 1.64880E-04
 -1       834 8.43193E-03 1.06621E-03 2.23957E-04-2.32850E-03-1.07783E-05 1.34150E-04
 -1       835 6.44772E-04 1.85347E-03-1.65132E-04-1.27600E-03-4.20560E-04 1.47970E-04
 -1       836 7.75670E-04 1.82925E-03-3.95014E-04-1.60971E-03-3.69505E-04 1.72792E-04
 -1       837 8.09355E-04 1.95009E-03-5.33493E-04-1.45678E-03-3.04119E-04 1.82584E-04
 -1       838 4.71779E-04 1.88860E-03-5.39026E-04-1.33356E-03-1.46199E-04 8.96685E-05
 -1       839 5.24312E-04 1.88796E-03-5.13055E-04-1.30859E-03-1.77526E-04 3.19950E-05
 -1       840 8.35930E-04 1.73108E-03-6.46438E-04-1.31664E-03 6.51194E-05-6.97703E-05
 -1       841 6.12126E-04 1.75174E-03-4.74502E-04-1.51865E-03 1.38606E-04-3.96264E-05
 -1       842 6.77470E-04 1.88069E-03-5.08362E-04-1.22580E-03 3.16445E-04-1.58414E-04
 -1       843 6.27143E-04 1.85061E-03-4.75740E-04-1.23033E-03 4.57485E-04-1.70327E-04
 -1       844 5.44685E-04 2.00319E-03-1.40691E-04-1.27883E-03 4.63322E-04-1.78269E-04
 -1       845 2.64118E-04 1.13649E-03-2.46926E-05-6.14336E-04-4.17789E-05 1.02495E-05
 -1       846 3.80800E-05 7.83241E-04-1.21528E-05-3.39893E-04 2.62501E-05-3.70537E-05
 -1       847 9.45864E-05 5.23466E-04-3.90247E-05-3.02485E-04 2.78522E-05-2.79806E-05
 -1       848 1.60723E-04 2.94622E-04-1.29465E-05-2.70473E-04-1.80820E-05-6.07204E-06
 -1       849 1.54466E-04 7.06757E-05-8.72970E-06-1.17513E-04-7.74380E-06 2.29678E-06
 -1       850 7.72415E-05 2.30902E-05-4.45279E-06-4.72911E-05-1.90824E-06-5.32858E-07
 -1       851 4.26294E-05-3.56689E-06-2.73983E-06-1.33014E-05-2.12695E-06 2.41364E-07
 -1       852 1.97490E-05-2.93518E-06-1.18296E-06-4.61715E-07-8.54898E-07 3.55973E-07
 -1       853 8.77172E-06-3.89503E-07-3.20377E-07 1.96482E-06-1.22271E-07 1.61280E-07
 -1       854 3.76280E-06 2.94884E-07-1.57146E-07 1.06998E-06-1.40682E-07 1.13388E-07
 -1       855 1.26002E-06 1.48536E-07-1.13356E-07 8.47300E-07-2.52575E-08-1.60865E-09
 -1       856 3.47635E-07 3.38792E-07-4.94888E-08 4.75893E-07-1.64259E-08 3.48151E-08
 -1       857 8.77822E-08 2.74636E-07-1.18370E-08 1.89163E-07 9.64863E-10 7.35942E-09
 -1       858 3.59561E-08 1.41333E-07-7.77159E-09 7.50394E-08 7.92406E-10 6.69793E-09
 -1       859-9.35108E-09 8.75106E-08-5.69657E-09 2.42873E-08-2.26282E-10 4.57685E-09
 -1       860-1.12591E-08 6.61438E-08-4.01181E-09-2.08403E-09-4.87747E-10 3.01963E-09
 -1       861 1.95286E-09 8.65664E-08-8.68733E-09-2.15331E-08 2.04423E-09-4.31128E-10
 -1       862 6.60224E-09 1.52403E-07-7.53512E-09-5.63816E-08-6.30870E-10 4.04483E-09
 -1       863 6.53204E-08 2.37730E-07-2.22470E-08-1.86657E-07 1.96760E-09 1.83306E-08
 -1       864 3.54443E-07 3.08575E-07-4.68953E-08-4.55044E-07 1.48825E-08 3.46709E-08
 -1       865 1.29975E-06 3.60853E-07-8.10373E-08-7.64503E-07 3.38989E-08 4.75909E-08
 -1       866 3.28068E-06 5.06675E-07-1.08476E-07-1.61403E-06 1.71931E-08 7.71524E-08
 -1       867 8.19262E-06-7.45859E-07-4.54744E-07-2.00161E-06 2.92323E-07 2.09948E-07
 -1       868 1.85552E-05-3.10103E-06-1.20202E-06 6.25556E-07 8.83353E-07 3.26687E-07
 -1       869 3.62663E-05 1.96166E-06-1.88882E-06 1.12039E-05 1.43745E-06 2.86023E-07
 -1       870 7.82718E-05 6.63982E-06-2.73761E-06 3.24580E-05 1.57555E-06 1.07885E-06
 -1       871 1.29501E-04 4.68401E-05-9.08158E-06 1.07384E-04 6.67562E-06-2.47110E-06
 -1       872 1.73448E-04 2.28798E-04-3.10893E-05 2.53951E-04 3.42436E-06-1.38970E-05
 -1       873 1.39229E-04 5.26998E-04-1.77580E-05 2.76470E-04-1.27928E-05-3.43368E-05
 -1       874 4.12749E-05 8.11731E-04-2.48895E-05 3.38873E-04-1.47150E-05-4.18129E-05
 -1       875 1.68173E-04 1.16768E-03-3.43265E-05 6.06805E-04 2.63783E-05-4.80508E-06
 -1       876-3.29971E-03-1.69541E-02-1.64248E-03 2.72352E-03 8.51841E-04-4.51041E-04
 -1       877-3.22225E-03-1.69615E-02-1.64626E-03 2.67838E-03-8.44793E-04 4.38917E-04
 -1       878-3.07481E-03-1.89201E-02-1.97280E-03-2.48111E-03-5.99316E-04-2.32650E-04
 -1       879-3.01465E-03-1.88832E-02-1.95570E-03-2.45723E-03 5.84996E-04 2.22540E-04
 -1       880-1.98305E-03-7.31004E-03-4.16134E-04 1.79466E-03-6.62007E-04 6.78983E-07
 -1       881-3.27256E-03-1.53610E-02-2.57158E-03 3.77397E-03-6.66629E-06-2.82501E-05
 -1       882-1.91024E-03-7.18850E-03-3.69488E-04 1.77320E-03 6.82331E-04-1.19695E-05
 -1       883 3.88498E-03-9.28720E-04-7.77650E-05-1.69710E-03-4.17489E-04 9.48584E-04
 -1       884 3.80539E-03-9.83402E-04-1.15327E-04-1.67321E-03 4.33672E-04-9.61573E-04
 -1       885 1.42457E-02 1.60317E-03 7.94644E-04-3.93431E-03 7.29812E-04-9.29288E-04
 -1       886 2.53062E-02 2.21827E-03 1.52995E-03-2.84754E-03-4.64603E-04-2.99844E-04
 -1       887 8.90062E-03 1.03992E-03 7.24339E-04-4.19967E-03 1.38050E-05-2.48847E-05
 -1       888 3.04022E-02 2.50160E-03 1.97601E-03 2.07758E-03-2.75961E-04-4.89483E-04
 -1       889 2.76748E-02 3.41245E-03 2.30856E-03 5.47658E-03 3.41556E-04 9.50726E-04
 -1       890 3.05145E-02 2.16318E-03 3.13843E-03-5.90438E-04 2.00027E-05 3.59309E-05
 -1       891 1.74239E-02 2.26447E-03 1.25584E-03 4.92348E-03-3.46585E-05 1.53975E-03
 -1       892 6.12368E-03-8.25987E-03-8.94339E-04-9.12901E-04 1.97820E-03 6.03745E-04
 -1       893 2.32704E-02 3.59883E-03 2.34375E-03 6.10870E-03-1.09550E-04-6.08938E-05
 -1       894-1.41698E-03-2.11773E-02-3.85449E-03-6.75249E-03 1.75233E-03 2.53329E-04
 -1       895-2.49270E-03-1.98623E-02-1.82212E-03-2.30869E-03-8.75224E-05-7.60201E-04
 -1       896 4.61176E-04-1.64930E-02-3.65613E-03-3.08856E-03 1.84540E-04 1.25206E-04
 -1       897-2.79236E-03-2.03276E-02-1.88533E-03 2.40707E-03 1.78545E-04-6.76841E-04
 -1       898-1.43139E-03-2.13692E-02-4.39778E-03 5.43018E-03-1.88191E-03 1.58133E-04
 -1       899-2.64896E-03-2.33013E-02-5.00301E-03 1.13822E-04-3.29293E-05 1.37280E-04
 -1       900 6.60469E-03-8.21075E-03-8.43957E-04 4.97116E-04-1.66265E-03 3.32069E-04
 -1       901 1.65193E-02 1.38671E-03 1.05195E-03-5.42540E-03-3.17998E-04 1.47441E-03
 -1       902-6.24707E-04-1.69668E-02-4.60105E-03 2.58279E-03-1.03826E-04 4.49829E-05
 -1       903 2.62890E-02 3.71087E-03 2.04127E-03-5.43948E-03-4.68212E-04 1.03007E-03
 -1       904 3.02255E-02 2.60650E-03 2.11108E-03-1.92827E-03 2.75624E-04-4.68686E-04
 -1       905 2.26707E-02 3.61687E-03 2.76609E-03-7.36667E-03-2.17563E-05 5.65148E-05
 -1       906 2.49620E-02 2.15280E-03 1.45075E-03 3.01192E-03 4.31172E-04-3.06593E-04
 -1       907 1.40216E-02 1.53175E-03 7.75229E-04 3.97219E-03-7.26613E-04-9.07016E-04
 -1       908 3.00749E-02 2.20431E-03 3.14305E-03 7.48027E-04-7.83810E-06 1.27616E-05
 -1       909-3.77282E-03-1.62406E-02-2.48430E-03-2.14003E-03-1.06830E-05-1.47460E-05
 -1       910-2.30477E-03-8.78030E-03-7.81808E-04-2.16674E-03 6.61387E-04-1.29621E-04
 -1       911 3.63810E-03-1.04385E-03-1.09114E-05 1.43506E-03 4.06681E-04 1.00111E-03
 -1       912-2.21534E-03-8.66893E-03-7.57172E-04-2.16180E-03-6.95431E-04 1.12184E-04
 -1       913 2.52906E-02 2.29488E-03 1.50645E-03-2.88075E-03 4.62616E-04 3.13085E-04
 -1       914 1.42692E-02 1.57948E-03 7.94431E-04-3.97949E-03-7.18120E-04 8.88336E-04
 -1       915 2.66045E-02 4.19805E-03 2.31472E-03 6.15832E-03-4.35371E-04-1.28234E-03
 -1       916 3.05197E-02 2.78438E-03 2.39327E-03 2.15797E-03 3.08013E-04 4.95475E-04
 -1       917 5.70511E-03-8.70429E-03-8.95778E-04-1.26042E-03-1.77577E-03-5.76764E-04
 -1       918 1.58842E-02 1.80557E-03 1.21960E-03 5.21854E-03-1.56127E-04-1.93672E-03
 -1       919-2.56448E-03-1.90021E-02-1.90516E-03-1.97532E-03 2.82950E-04 9.58025E-04
 -1       920-1.69187E-03-2.12942E-02-4.11763E-03-7.27564E-03-1.47108E-03 9.90554E-05
 -1       921-1.50879E-03-2.15563E-02-4.41250E-03 5.49012E-03 1.73148E-03-9.61694E-05
 -1       922-3.07290E-03-2.01244E-02-1.86281E-03 2.36490E-03-3.47707E-04 7.43506E-04
 -1       923 1.66109E-02 1.44886E-03 1.11568E-03-5.41514E-03 2.72046E-04-1.41487E-03
 -1       924 6.61859E-03-8.33261E-03-8.69087E-04 5.30065E-04 1.57198E-03-2.27717E-04
 -1       925 3.02633E-02 2.65593E-03 2.15908E-03-1.94548E-03-2.67780E-04 4.90341E-04
 -1       926 2.62402E-02 3.61765E-03 2.05533E-03-5.42382E-03 4.49102E-04-9.50463E-04
 -1       927 1.38939E-02 1.40106E-03 7.71705E-04 3.94691E-03 7.18244E-04 8.85535E-04
 -1       928 2.50096E-02 2.20516E-03 1.48851E-03 2.98999E-03-4.17733E-04 3.26779E-04
 -1       929 3.64237E-03-1.04614E-03-2.83528E-05 1.47875E-03-4.11528E-04-1.00161E-03
 -1       930 8.56071E-03 1.03276E-03 7.80732E-04 3.98619E-03-2.09714E-06-2.17612E-05
 -1       931 6.12405E-03 2.34954E-03 2.54106E-03-5.66759E-04 1.15181E-04 7.99198E-04
 -1       932 6.37284E-03 2.57058E-03 2.68221E-03-4.06043E-04-5.94924E-05-9.66646E-04
 -1       933 5.98523E-03 2.35250E-03 2.42174E-03-4.11192E-04 1.30130E-05-1.09233E-04
 -1       934 5.78268E-03 1.88848E-03 2.30109E-03-7.62487E-04 1.25210E-04 6.24967E-04
 -1       935 5.93237E-03 1.79206E-03 2.29236E-03-6.79362E-04-1.00690E-04-8.52300E-04
 -1       936 6.15623E-03 2.41530E-03 2.57059E-03 4.94226E-04-1.04493E-04 7.92133E-04
 -1       937 6.07988E-03 2.39435E-03 2.45979E-03 3.32829E-04-6.20403E-05-7.48522E-05
 -1       938 6.43741E-03 2.54902E-03 2.54148E-03 2.38784E-04 1.49006E-04-9.94378E-04
 -1       939 6.38403E-03 2.16177E-03 2.55896E-03 6.23313E-04 1.81809E-04-1.17234E-03
 -1       940 5.89155E-03 2.04667E-03 2.38125E-03 6.89039E-04-1.17977E-04 6.53538E-04
 -1       941 2.71888E-03-4.14930E-04 6.63351E-04-8.37123E-04 1.86360E-04 4.17190E-04
 -1       942 1.53137E-03-5.79909E-04 2.63566E-04-5.18717E-04 1.01024E-04 1.69405E-04
 -1       943 9.72519E-04-6.29624E-04 1.02679E-04-2.38425E-04 6.47007E-05 9.59304E-05
 -1       944 4.95380E-04-3.17999E-04 4.86252E-05-8.87563E-05 4.86499E-05 2.18689E-05
 -1       945 8.66401E-04-6.99955E-04 5.35941E-05-3.56916E-04 3.68137E-05 5.06857E-05
 -1       946 2.68825E-04-2.37009E-04 9.51947E-06 1.86781E-05 1.59955E-05 1.54385E-05
 -1       947 1.71061E-04-1.75369E-04-1.23420E-06 5.18251E-05 1.27417E-05 8.98342E-06
 -1       948 1.06114E-04-6.66321E-05 1.23810E-05 4.75894E-05 6.46021E-06 7.62731E-06
 -1       949 4.38508E-05-3.07614E-05 2.38443E-06 4.02849E-05 4.45199E-06 8.97122E-07
 -1       950 1.46567E-04-1.54698E-04-2.48268E-06 5.27928E-05 4.09629E-06 2.96385E-06
 -1       951 1.94426E-05-1.05099E-05 2.19885E-06 2.94847E-05 2.90196E-06 6.76286E-07
 -1       952 7.25031E-06-2.02605E-06 9.84453E-07 2.02746E-05 1.66807E-06-1.12218E-07
 -1       953 2.90309E-05-2.58034E-05 9.60031E-07 3.56290E-05-5.07564E-08-2.32271E-09
 -1       954 1.04300E-06 2.08814E-06 7.75546E-07 1.27838E-05 1.32359E-06-1.35280E-08
 -1       955-1.38237E-06 2.87466E-06 2.47659E-07 7.79294E-06 5.47225E-07-2.11091E-07
 -1       956 2.63579E-06-2.24001E-06 1.15598E-07 1.69424E-05 4.15825E-08 1.28034E-08
 -1       957-1.32823E-06 3.10550E-06 5.61101E-07 3.98026E-06 4.42020E-07 3.99381E-08
 -1       958-2.13295E-06 2.14695E-06 4.84120E-09 1.91178E-06 2.16907E-07-1.05654E-07
 -1       959-2.41609E-06 2.22835E-06-5.75627E-08 6.12394E-06 4.11238E-08-3.48985E-09
 -1       960-1.06421E-06 1.70643E-06 2.02528E-07 8.18043E-07 1.59793E-07-2.97908E-08
 -1       961-7.77849E-07 9.78273E-07 3.44889E-08 1.89116E-07 4.45695E-08-5.27587E-08
 -1       962-2.04546E-06 1.88766E-06-4.77301E-08 1.62235E-06 5.48514E-08-2.27995E-08
 -1       963-4.71152E-07 6.02735E-07 3.12009E-08-4.12643E-08 3.54224E-08-3.83494E-08
 -1       964-2.82626E-07 3.45501E-07 1.07331E-08-1.05230E-07 7.90245E-09-2.13577E-08
 -1       965-7.15407E-07 7.48390E-07 9.74409E-09 9.15037E-08-1.36601E-09 2.12476E-09
 -1       966-1.00185E-07 1.68255E-07 2.05234E-08-9.10443E-08 1.32553E-08-1.15348E-08
 -1       967-3.87120E-08 6.75226E-08 5.97724E-09-6.95815E-08 2.87980E-09-8.52228E-09
 -1       968-2.32305E-07 2.29065E-07-1.04355E-09-1.07646E-07 1.99132E-10 4.23177E-10
 -1       969-4.87425E-09 2.35214E-08 3.80159E-09-3.81474E-08 2.12763E-09-6.18373E-09
 -1       970 5.27809E-09 8.94245E-09 3.08033E-09-8.74480E-09 3.82308E-10-4.24913E-09
 -1       971-2.62423E-08 3.15212E-08 1.55938E-09-5.24171E-08-2.12701E-10 6.43553E-10
 -1       972 1.64072E-09 1.32401E-08 2.53769E-09 1.96581E-08 4.74628E-10-5.83797E-09
 -1       973-2.05636E-08 5.48246E-08 1.01485E-08 5.70721E-08-4.82124E-09-8.86187E-09
 -1       974-8.44367E-08 1.10215E-07 4.82957E-09 9.36755E-08-1.52556E-09-1.08124E-08
 -1       975-1.68173E-07 2.26657E-07 1.42856E-08 1.10893E-07-1.23084E-08-2.06833E-08
 -1       976-7.57232E-08 7.05052E-08-1.58958E-09 8.14206E-08-3.23414E-10-5.49203E-10
 -1       977-3.17049E-07 4.09959E-07 1.74572E-08 8.93473E-08-1.43805E-08-2.69437E-08
 -1       978-5.17364E-07 6.71823E-07 3.53190E-08-9.72272E-09-3.30645E-08-3.52132E-08
 -1       979-2.86328E-07 2.94229E-07 2.31132E-09 9.79070E-08-3.66332E-10-2.30516E-11
 -1       980-8.00116E-07 1.04755E-06 4.38831E-08-2.58190E-07-5.85273E-08-5.92626E-08
 -1       981-1.07543E-06 1.72320E-06 1.98880E-07-9.52979E-07-1.67577E-07-2.84705E-08
 -1       982-8.25092E-07 7.78875E-07-9.90871E-09-1.69351E-07-9.34538E-09 2.42237E-08
 -1       983-1.94918E-06 2.40377E-06 8.37617E-08-2.28769E-06-1.73948E-07-1.39910E-07
 -1       984-1.97022E-06 3.10545E-06 2.86690E-07-4.38965E-06-5.48692E-07-1.24326E-07
 -1       985-2.02705E-06 1.84517E-06-5.50945E-08-1.72148E-06-2.47938E-08-9.89840E-09
 -1       986-1.12106E-06 3.01109E-06 3.57151E-07-7.94551E-06-6.21136E-07-2.01748E-07
 -1       987 1.62684E-06 1.83386E-06 8.22114E-07-1.31413E-05-1.27765E-06 4.97105E-10
 -1       988-2.27255E-06 2.18112E-06-2.87746E-08-6.33947E-06-3.91884E-08-3.49345E-09
 -1       989 8.26568E-06-3.14491E-06 8.91839E-07-2.07695E-05-1.87829E-06 1.13037E-08
 -1       990 2.94990E-05-1.49576E-05 4.47113E-06-3.18224E-05-3.22781E-06 2.50514E-06
 -1       991 5.92014E-05-4.88597E-05 1.94645E-06-4.88454E-05-4.93403E-06 7.26805E-07
 -1       992 1.15920E-04-9.10990E-05 6.38792E-06-5.57498E-05-1.05027E-05 7.33072E-06
 -1       993 3.71080E-05-4.15208E-05-1.33792E-06-4.34396E-05-4.63758E-07 1.94832E-07
 -1       994 1.99243E-04-1.68296E-04 4.66624E-06-4.14432E-05-1.23665E-05 7.43483E-06
 -1       995 3.20542E-04-2.71829E-04 1.15619E-05 7.84834E-06-1.81533E-05 2.07862E-05
 -1       996 1.39584E-04-1.50932E-04-3.43519E-06-4.78805E-05-4.45709E-07 3.63569E-07
 -1       997 5.64780E-04-4.50736E-04 2.77851E-05 1.41742E-04-2.92328E-05 1.92416E-05
 -1       998 1.14164E-03-6.82649E-04 1.37522E-04 3.54890E-04-6.92969E-05 1.13522E-04
 -1       999 3.85234E-04-4.17733E-04-9.81629E-06 8.10902E-05-1.54984E-06 1.89590E-06
 -1      1000 2.40732E-03-5.43975E-04 5.59764E-04-6.95555E-04-1.55427E-04-3.15441E-04
 -1      1001 3.53583E-03-2.86788E-05 1.05301E-03-9.18073E-04-1.95404E-04-5.37550E-04
 -1      1002 2.15031E-04-1.85479E-04 2.89646E-06 4.21579E-05-8.47876E-06-6.90532E-06
 -1      1003 3.48873E-04-3.08042E-04 8.31368E-06-2.34575E-05-1.77021E-05-2.33251E-05
 -1      1004 6.38586E-05-3.69089E-05 7.50291E-06 4.24301E-05-5.34552E-06-2.11790E-07
 -1      1005 1.18700E-04-9.83934E-05 4.39816E-06 5.70034E-05-9.50871E-06-7.55995E-06
 -1      1006 1.02727E-05-3.45961E-06 1.56935E-06 2.18395E-05-1.97886E-06-4.16220E-07
 -1      1007 2.38152E-05-1.38659E-05 2.32969E-06 3.12270E-05-2.92063E-06-1.19305E-06
 -1      1008-4.16940E-07 2.90911E-06 5.87766E-07 8.81662E-06-7.22099E-07 1.71628E-08
 -1      1009 2.50726E-06 1.32991E-06 8.69935E-07 1.43119E-05-1.29951E-06-1.85197E-07
 -1      1010-1.85332E-06 2.64159E-06 1.83011E-07 2.68351E-06-2.02838E-07 4.77792E-08
 -1      1011-1.85232E-06 3.12086E-06 2.85734E-07 5.02557E-06-5.36383E-07 5.14426E-08
 -1      1012-8.12245E-07 1.30956E-06 1.40467E-07 4.27456E-07-6.41423E-08 6.88302E-08
 -1      1013-1.59364E-06 1.94969E-06 7.16337E-08 1.24050E-06-2.03546E-07 6.47158E-08
 -1      1014-3.08388E-07 4.41429E-07 3.46051E-08-7.87883E-08-2.61109E-08 2.44257E-08
 -1      1015-5.47375E-07 7.16737E-07 3.76847E-08 2.73751E-08-4.90343E-08 3.30867E-08
 -1      1016-6.30027E-08 1.30854E-07 2.03565E-08-8.62953E-08-5.16705E-09 7.86076E-09
 -1      1017-1.89465E-07 2.20817E-07 9.48474E-09-1.21549E-07-1.22958E-08 1.88458E-08
 -1      1018-2.67226E-08 3.83487E-08 3.51982E-09-5.88581E-08-1.43383E-09 6.22422E-09
 -1      1019 6.07199E-09 4.99419E-09 3.32531E-09 1.31334E-08 4.33057E-10 4.64989E-09
 -1      1020 5.31398E-09 2.18875E-08 8.14436E-09-2.30411E-08-1.84511E-09 6.09485E-09
 -1      1021-4.38465E-08 6.79435E-08 5.13279E-09 7.31285E-08 5.15408E-09 9.16493E-09
 -1      1022 2.09324E-09 3.27597E-08 1.01358E-08 3.91192E-08 5.05553E-10 6.26949E-09
 -1      1023-2.09089E-07 2.71470E-07 1.32728E-08 1.02255E-07 1.64963E-08 1.84064E-08
 -1      1024-1.02185E-07 1.47905E-07 1.10309E-08 9.55486E-08 7.29503E-09 1.15521E-08
 -1      1025-7.74688E-07 8.85873E-07 3.33609E-08-6.20239E-08 5.10374E-08 4.20290E-08
 -1      1026-3.61666E-07 5.63422E-07 5.82069E-08 4.08967E-08 1.61768E-08 3.14343E-08
 -1      1027-1.59006E-06 1.94617E-06 7.77300E-08-1.27350E-06 2.10610E-07 7.63794E-08
 -1      1028-8.97564E-07 1.45027E-06 1.62663E-07-4.61511E-07 7.13924E-08 7.75695E-08
 -1      1029-1.80338E-06 3.07020E-06 2.76063E-07-5.02041E-06 5.24948E-07 6.70014E-08
 -1      1030-1.80416E-06 2.60051E-06 1.84280E-07-2.69430E-06 2.27135E-07 8.67357E-08
 -1      1031 2.77267E-06 8.31459E-07 7.77556E-07-1.44811E-05 1.24414E-06-1.70369E-07
 -1      1032-4.81112E-07 2.82997E-06 5.20860E-07-8.75369E-06 7.02974E-07 5.19772E-08
 -1      1033 3.14361E-05-2.40741E-05 1.73889E-06-3.93469E-05 4.57232E-06-2.15605E-06
 -1      1034 1.53397E-05-4.78815E-06 2.93805E-06-2.39097E-05 1.99990E-06 3.34870E-07
 -1      1035 1.24350E-04-9.89789E-05 5.88505E-06-5.41233E-05 9.64461E-06-7.49888E-06
 -1      1036 6.83163E-05-5.28480E-05 3.36746E-06-4.91511E-05 5.03563E-06-1.91542E-06
 -1      1037 3.33058E-04-2.89165E-04 7.60448E-06 2.03246E-05 1.54239E-05-1.93723E-05
 -1      1038 2.12620E-04-1.76283E-04 6.52032E-06-3.58069E-05 1.15861E-05-9.03934E-06
 -1      1039 1.27314E-03-7.02726E-04 1.70924E-04 3.96769E-04 7.35985E-05-1.24606E-04
 -1      1040 6.10430E-04-4.82777E-04 3.39053E-05 2.18568E-04 3.99640E-05-1.22287E-05
 -1      1041 5.29951E-03 1.09448E-03 1.85299E-03-9.30918E-04 3.04298E-04 9.79692E-04
 -1      1042 4.03999E-03 1.93159E-04 1.23172E-03-1.00684E-03 2.28934E-04 6.80877E-04
 -1      1043 3.69722E-04-2.78099E-04 1.54352E-05-6.28012E-05-3.73871E-05 2.84396E-05
 -1      1044-5.55140E-09 2.65298E-09-6.68853E-10 1.09332E-08-1.88215E-09 5.01418E-10
 -1      1045 3.54348E-06-2.58141E-06 2.85200E-07-1.73023E-05-7.10614E-08 1.61987E-08
 -1      1046 2.01839E-03-5.13503E-04 3.98903E-04 6.59942E-04-1.42274E-04 2.64679E-04
 -1      1047 3.22550E-03-2.71104E-04 8.63722E-04 9.02695E-04-2.27702E-04 5.21323E-04
 -1      1048 4.41677E-03 4.25941E-04 1.41637E-03 1.04282E-03-2.20508E-04 6.92342E-04
 -1      1049 5.43762E-03 1.29330E-03 2.00179E-03 9.02599E-04-2.48858E-04 9.40132E-04
 -1      1050 5.18900E-03 1.34962E-03 1.95494E-03 8.40764E-04-1.61761E-05 1.20999E-04
 -1      1051 3.41715E-03-6.10593E-05 9.64611E-04 9.17010E-04-1.26149E-04 3.36394E-04
 -1      1052 5.13734E-03 1.35815E-03 1.91609E-03 8.57390E-04 6.07622E-05-3.33339E-04
 -1      1053 5.86413E-03 1.58697E-03 2.23457E-03 9.30515E-04 2.53509E-04-1.14211E-03
 -1      1054 4.80304E-03 6.09932E-04 1.56335E-03 1.05872E-03 2.02193E-04-7.76239E-04
 -1      1055 4.53707E-03 6.81878E-04 1.56602E-03 9.97090E-04-6.73238E-07-7.19528E-06
 -1      1056 3.76440E-04-4.43273E-04-2.00967E-05-8.25802E-05-5.63847E-06-7.41147E-06
 -1      1057 5.76336E-04-4.94226E-04 1.10584E-05-1.77919E-04-4.65370E-05-3.79908E-05
 -1      1058 1.22229E-03-6.52244E-04 1.50397E-04-4.06145E-04-8.91764E-05-1.43687E-04
 -1      1059 6.22042E-04-4.51881E-04 4.58232E-05-2.79891E-04 1.48607E-05-2.06632E-06
 -1      1060 2.88009E-03-2.80789E-04 7.39918E-04-8.16591E-04 7.97674E-05 2.07603E-04
 -1      1061 3.49201E-03-1.72937E-04 9.44798E-04 9.21472E-04 2.52799E-04-5.55369E-04
 -1      1062 2.17676E-03-5.37999E-04 4.55071E-04 6.92253E-04 1.53400E-04-3.04024E-04
 -1      1063 1.38754E-03-6.97297E-04 1.93591E-04 5.51354E-04-2.67672E-05 9.51403E-05
 -1      1064 3.47477E-03-3.99563E-05 9.97692E-04 9.68370E-04 1.29300E-04-3.30400E-04
 -1      1065 1.69281E-03-7.18337E-04 3.24591E-04-6.34134E-04-6.42157E-06-1.15536E-04
 -1      1066 4.80066E-03 7.89244E-04 1.61600E-03-9.49136E-04-2.51371E-04-7.92722E-04
 -1      1067 4.52404E-03 8.09191E-04 1.58453E-03-9.35306E-04-7.67968E-05-2.70164E-04
 -1      1068 1.06112E-03-6.05386E-04 1.23666E-04-5.65439E-04-5.13916E-05 4.37829E-05
 -1      1069 4.94394E-03 1.12494E-03 1.80000E-03-8.80702E-04 8.90257E-06 7.59361E-05
 -1      1070 2.33904E-03-5.59684E-04 5.33838E-04-7.75540E-04-9.70103E-06-2.74570E-05
 -1      1071 3.50195E-03 3.13573E-05 1.04250E-03 9.48279E-04-4.04212E-05 1.27022E-04
 -1      1072 3.51101E-03 2.44864E-05 1.04391E-03 9.73310E-04 4.89015E-05-1.45236E-04
 -1      1073 2.37672E-03-4.72245E-04 5.69916E-04 8.55631E-04 5.76412E-05-1.25562E-04
 -1      1074 2.33161E-03-4.59927E-04 5.55289E-04 8.27513E-04-4.06470E-05 9.50862E-05
 -1      1075 1.60998E-03-7.43102E-04 2.59373E-04 5.90161E-04 1.48638E-06-4.38840E-06
 -1      1076 1.50638E-03-7.01593E-04 2.30915E-04 5.81129E-04 2.69322E-05-1.05768E-04
 -1      1077 3.61370E-03 1.54529E-04 1.12575E-03-9.57962E-04-1.08418E-05-1.15280E-05
 -1      1078 1.19813E-02 7.75599E-03 1.75106E-03-1.03564E-02 1.05339E-03-9.09632E-04
 -1      1079 1.19268E-02 7.83844E-03 1.75290E-03-1.03406E-02-9.58576E-04 7.62921E-04
 -1      1080 8.85567E-03 9.37371E-03 1.11431E-03 9.60205E-03-1.86813E-04 1.93149E-04
 -1      1081 8.26168E-03 8.76080E-03 5.44496E-04 9.10374E-03-9.33695E-05-3.94099E-04
 -1      1082 4.41101E-03 6.29550E-04-4.26737E-04 2.24638E-03-1.04374E-04-3.52709E-04
 -1      1083 4.57863E-03 6.79644E-04-4.31560E-04 2.48000E-03 1.01774E-04 3.73158E-04
 -1      1084 9.67673E-03 6.45951E-03 7.98588E-04-8.35641E-03 6.59316E-05-7.77495E-05
 -1      1085 3.04644E-03-1.33575E-03-5.10925E-04 1.36294E-05-7.22940E-05 9.45627E-04
 -1      1086-3.89121E-03-2.34473E-03-5.69172E-04 3.50187E-03-3.72249E-04 3.72917E-04
 -1      1087 3.18638E-03-1.33479E-03-5.17528E-04 5.59270E-06 1.57552E-04-1.00771E-03
 -1      1088-3.85022E-03-2.41078E-03-5.59148E-04 3.52305E-03 4.55194E-04-4.55881E-04
 -1      1089-1.24480E-02 1.04907E-03-1.67426E-04-2.89973E-03-3.18771E-04 4.03698E-05
 -1      1090-1.47495E-02 1.97605E-03-3.16105E-04 9.89377E-04-4.66640E-05 3.87725E-04
 -1      1091 3.35333E-03 6.73938E-04 4.54200E-04 1.63759E-03-2.84874E-05 6.07183E-04
 -1      1092 3.20593E-04-1.13472E-03 9.03766E-05-1.11505E-03 4.21645E-04 4.27349E-04
 -1      1093-1.01796E-04 1.49865E-02 4.46000E-04 9.00887E-04 2.84049E-04-4.82554E-05
 -1      1094 8.12237E-04 1.38330E-02 4.99916E-04 4.37061E-03 1.21778E-04 6.48663E-05
 -1      1095 3.28772E-03 3.85091E-03-5.74003E-05-4.45691E-03-3.61655E-04-2.90828E-04
 -1      1096 1.83721E-03 9.14763E-03 1.44793E-04-5.27815E-03-3.20337E-04 3.11501E-04
 -1      1097-1.48555E-02 2.03906E-03-3.55213E-04-1.20979E-03 6.81451E-05 4.14824E-04
 -1      1098-1.25776E-02 1.10287E-03-1.95032E-04 2.83539E-03 3.19360E-04 5.10481E-05
 -1      1099-2.56019E-03-2.49494E-03-5.58756E-04-2.23050E-03-5.28360E-04-2.35742E-04
 -1      1100-1.47889E-02 1.91488E-03-3.41423E-04 1.00755E-03 6.67046E-05-3.73732E-04
 -1      1101-1.24972E-02 9.72505E-04-1.97999E-04-2.87225E-03 3.14580E-04-5.71665E-05
 -1      1102 3.04953E-04-1.07761E-03 1.30891E-04-1.11984E-03-3.62433E-04-3.90940E-04
 -1      1103 3.24682E-03 6.60404E-04 4.54949E-04 1.63416E-03 5.94546E-05-5.83129E-04
 -1      1104 7.95267E-04 1.37733E-02 5.55487E-04 4.33155E-03-1.01356E-04-6.34901E-05
 -1      1105-9.27903E-05 1.49766E-02 5.06292E-04 8.94633E-04-2.25888E-04 4.74536E-05
 -1      1106 1.80373E-03 9.14933E-03 1.38687E-04-5.23314E-03 3.00467E-04-2.94105E-04
 -1      1107 3.30233E-03 3.93478E-03-3.45993E-05-4.45176E-03 3.48711E-04 2.90495E-04
 -1      1108-1.25657E-02 1.03629E-03-1.85166E-04 2.81892E-03-3.03497E-04-6.88403E-05
 -1      1109-1.47691E-02 1.89271E-03-4.04673E-04-1.24254E-03-9.52376E-05-4.79812E-04
 -1      1110-2.50586E-03-2.43204E-03-4.92054E-04-2.29377E-03 5.81425E-04 1.33161E-04
 -1      1111-1.34271E-02-3.72559E-04-1.06557E-03-4.27792E-03-4.75791E-04-2.91006E-04
 -1      1112-1.23180E-02 3.89056E-04-6.56035E-04-2.51732E-03-2.14802E-04 9.28991E-05
 -1      1113-7.91863E-03-3.07827E-03-7.34035E-04-5.29026E-03 8.33939E-05-2.77098E-04
 -1      1114 3.42582E-03 8.90530E-04 4.93630E-04-1.66265E-03 4.19611E-05 6.01799E-04
 -1      1115 3.15459E-03 2.44718E-03 2.88872E-04-3.02998E-03-3.59842E-05 1.83850E-05
 -1      1116 3.77899E-04-1.05212E-03 1.39253E-04 9.73546E-04-3.69009E-04 4.12667E-04
 -1      1117-1.28743E-04 1.48346E-02 3.86890E-04-7.86938E-04-2.61915E-04-1.08719E-04
 -1      1118-1.08850E-03 1.32188E-02-1.84809E-04-5.04612E-07 1.97784E-05 3.00687E-06
 -1      1119 6.70180E-04 1.40042E-02 5.17147E-04-4.08139E-03-1.23336E-04 4.01170E-05
 -1      1120-8.24442E-03-1.54443E-03-6.11864E-04-4.15395E-03 5.15414E-04 4.27219E-04
 -1      1121-9.30202E-03-4.86891E-04-3.28943E-04-3.35701E-03 9.50178E-06 2.78900E-05
 -1      1122-3.71831E-03-2.33194E-03-3.12625E-04-2.93779E-03 1.05814E-04 5.63647E-04
 -1      1123-1.36241E-02-4.75340E-04-1.00990E-03 4.12067E-03 3.73623E-04-3.39461E-04
 -1      1124-9.34970E-03-2.52700E-03-7.07632E-04 4.96477E-03 6.73740E-05-4.27578E-04
 -1      1125-1.91510E-03-1.38506E-03-3.27665E-05-1.89928E-03 3.85487E-05 4.05497E-05
 -1      1126-6.83624E-03-2.23250E-03-7.48669E-04 3.70850E-03 5.09569E-05-5.38226E-05
 -1      1127 1.62239E-03 1.01162E-02 8.09965E-04 4.90361E-03 4.08914E-05 2.54840E-05
 -1      1128 1.96927E-03 8.80479E-03 1.04464E-04 5.04615E-03 4.10316E-04 4.38736E-04
 -1      1129 3.51687E-03 3.67308E-03 3.91091E-05 4.61648E-03 4.11733E-04-7.43663E-05
 -1      1130 1.92848E-03 8.81652E-03 1.10212E-04 5.00890E-03-3.55337E-04-3.89923E-04
 -1      1131 6.40705E-04 1.12768E-02 7.87472E-04-4.29016E-03-1.06994E-05 2.48710E-05
 -1      1132-9.34220E-03-4.87016E-04-3.07803E-04 3.33439E-03-2.86210E-06 1.37531E-05
 -1      1133-8.24026E-03-1.50667E-03-6.02884E-04 4.14843E-03-5.20465E-04 4.14362E-04
 -1      1134-3.55798E-03-2.35677E-03-2.76079E-04 2.84657E-03-9.19486E-05 5.51299E-04
 -1      1135-8.17483E-03-1.46223E-03-5.70202E-04 4.10171E-03 5.19259E-04-3.95478E-04
 -1      1136-4.52797E-03-2.04243E-03-1.06814E-03-3.10584E-03 4.00076E-05-1.49810E-05
 -1      1137-1.36002E-02-4.60081E-04-1.02575E-03 4.07391E-03-3.51018E-04 2.84618E-04
 -1      1138-1.22884E-02 2.47742E-04-5.16259E-04 2.49151E-03 2.41958E-05-1.07086E-05
 -1      1139-8.19675E-03-1.49598E-03-6.19205E-04-4.08609E-03-5.14048E-04-3.89919E-04
 -1      1140 3.49164E-03 2.24037E-03 3.00517E-04 3.21202E-03 3.85916E-05 3.34474E-05
 -1      1141-9.34977E-03-2.51477E-03-7.84796E-04 4.91879E-03-6.10889E-05 3.69887E-04
 -1      1142 3.50104E-03 3.76772E-03 7.28819E-05 4.60208E-03-3.81436E-04 1.07601E-04
 -1      1143-3.74636E-03-2.29507E-03-3.63148E-04-2.88624E-03-1.10578E-04-5.12726E-04
 -1      1144-1.16311E-04 1.48047E-02 4.23316E-04-7.83191E-04 2.56490E-04 1.00147E-04
 -1      1145 3.35520E-03 8.85708E-04 5.18021E-04-1.66396E-03-7.27996E-05-5.90310E-04
 -1      1146 6.72850E-04 1.39774E-02 5.57673E-04-4.05794E-03 1.36385E-04-4.34053E-05
 -1      1147-1.27359E-02-3.13132E-04-9.05278E-04-3.80360E-03 1.15324E-04 3.98049E-05
 -1      1148 3.52703E-04-1.06085E-03 1.48220E-04 9.71682E-04 3.34808E-04-3.88037E-04
 -1      1149-3.58608E-03-2.35278E-03-3.21085E-04 2.82333E-03 9.73785E-05-5.18046E-04
 -1      1150-9.57964E-03-2.47238E-03-9.23744E-04-5.32812E-03-2.01840E-04 1.47321E-05
 -1      1151-1.96348E-03-1.42081E-03 5.53088E-05 1.82274E-03-2.38811E-05 3.04220E-05
 -1      1152 7.66753E-03 1.17555E-04 5.91314E-05 4.94035E-04-4.74583E-05-2.02668E-04
 -1      1153 6.60939E-03-6.21170E-06-3.42879E-05 2.18716E-04 2.27973E-06-7.43635E-05
 -1      1154 6.62635E-03-9.52564E-06-6.94244E-05 2.12255E-04 3.37815E-06-1.18170E-04
 -1      1155 6.77264E-03-8.70595E-07-1.63982E-05 2.04499E-04 5.36107E-07-3.54583E-06
 -1      1156 6.68330E-03-1.07618E-05-2.46858E-05 1.99455E-04 6.03919E-07-1.50633E-05
 -1      1157 7.15091E-03 3.87813E-06 1.45347E-06 2.23601E-04-1.61514E-06 2.23689E-06
 -1      1158 7.05221E-03 5.88297E-06 2.05743E-06 2.14880E-04 5.22610E-07 3.32917E-06
 -1      1159 7.42778E-03 5.31116E-07 1.45971E-05 2.52033E-04 1.02025E-05-5.97237E-06
 -1      1160 7.34676E-03 9.83994E-06 1.99082E-05 2.33165E-04 5.59070E-06 1.56115E-06
 -1      1161 7.45020E-03 2.33165E-06-5.11476E-06 2.65945E-04 1.12587E-05-2.62928E-05
 -1      1162 2.02587E-02 2.32132E-03 2.44652E-03-5.00629E-03-2.38433E-04 2.79298E-04
 -1      1163 8.23134E-03 2.34902E-04 1.87628E-04 6.96971E-04 1.22560E-05-9.35960E-05
 -1      1164 7.95068E-03 9.17081E-06 1.31350E-04 5.26991E-04 8.95392E-06-1.77554E-05
 -1      1165 7.75615E-03 4.75447E-06 9.84045E-05 5.03868E-04-4.58654E-06-9.83457E-05
 -1      1166 7.94350E-03 7.08707E-05 2.00785E-04 5.80539E-04-3.09592E-05-8.37963E-05
 -1      1167 7.19621E-03-9.75211E-05-9.77265E-05 3.19962E-04-7.85200E-06-1.33678E-04
 -1      1168 8.10380E-03 1.34016E-04 2.72814E-04 6.40360E-04 6.90094E-06-9.13426E-06
 -1      1169 8.09848E-03 8.94648E-05 2.79061E-04 5.63095E-04-1.68460E-05-4.47283E-05
 -1      1170 7.26290E-03-1.03709E-04-7.39574E-05 3.09863E-04 6.02050E-07-7.31588E-05
 -1      1171 8.12671E-03 1.02453E-04 2.94826E-04 6.30555E-04 5.08515E-06 8.03226E-06
 -1      1172 7.96244E-03-2.24490E-05 2.52223E-04 5.24062E-04-5.30014E-06 8.24216E-06
 -1      1173 7.17512E-03-1.32045E-04-6.01538E-05 2.15285E-04-4.63558E-06-2.59232E-05
 -1      1174 7.91274E-03-4.90638E-05 2.17397E-04 5.49260E-04 5.26238E-06 5.90038E-06
 -1      1175 8.09326E-03 6.82284E-05 2.58045E-04 5.65640E-04-1.47148E-05 3.03735E-05
 -1      1176 7.43202E-03-1.18747E-04-8.34423E-06 3.34490E-04 1.62369E-06-8.36929E-06
 -1      1177 8.12616E-03 9.58609E-05 2.84353E-04 5.48660E-04 1.56780E-07 2.68108E-05
 -1      1178 8.07271E-03 1.04414E-04 2.64738E-04 6.00113E-04 4.33998E-06 6.09800E-06
 -1      1179 7.30901E-03-1.35596E-04-6.13518E-05 2.84013E-04-6.78063E-06 4.80535E-05
 -1      1180 8.11636E-03 1.56180E-04 2.64369E-04 5.68068E-04 8.03149E-06 4.83852E-05
 -1      1181 8.11116E-03 1.52607E-04 2.15258E-04 6.04922E-04 1.33845E-05 8.87621E-05
 -1      1182 7.21546E-03-1.05497E-04-6.63408E-05 2.09305E-04-1.03570E-05 6.67474E-05
 -1      1183 8.24785E-03 1.70790E-04 2.48877E-04 5.95552E-04 1.41673E-05 1.15795E-04
 -1      1184 8.14987E-03 1.50215E-04 1.36068E-04 5.41614E-04-4.22540E-05 7.28875E-05
 -1      1185 7.30284E-03-4.01961E-05-8.21164E-05 2.36298E-04-2.87090E-07 1.27778E-04
 -1      1186 7.86735E-03-1.74041E-04-2.25335E-05 6.58455E-04-4.28406E-05 7.79872E-05
 -1      1187 7.68424E-03 1.58870E-05-6.74151E-05 7.21179E-04 7.45443E-05 1.96392E-04
 -1      1188 6.94085E-03-1.05717E-04-7.00317E-05 3.16377E-04-1.57360E-05 1.03325E-04
 -1      1189 7.25349E-03-6.78104E-06-8.95929E-05 3.04949E-04 4.23083E-05 1.58079E-04
 -1      1190 2.02728E-02 2.06394E-03 1.73996E-03-3.60478E-03 3.97133E-04-5.82330E-04
 -1      1191 6.56760E-03-6.41602E-06-4.10265E-05 2.11310E-04-4.64122E-08 5.78310E-05
 -1      1192 6.63211E-03-4.65235E-06-3.60429E-05 1.95831E-04 3.17958E-06 3.72718E-05
 -1      1193 6.68952E-03-1.52972E-06-2.64978E-05 2.04728E-04-2.16737E-06 1.53055E-05
 -1      1194 6.78169E-03 2.64888E-06-1.51828E-05 2.06228E-04 4.47619E-07 3.35981E-06
 -1      1195 6.67886E-03 2.25646E-06-6.42281E-05 2.01534E-04-6.16275E-07 4.41491E-05
 -1      1196 6.87884E-03 5.91157E-06-1.40973E-06 2.08354E-04-1.31687E-06-5.30298E-06
 -1      1197 6.96987E-03 8.51179E-06-5.79892E-07 2.12295E-04-2.88169E-08-5.03964E-06
 -1      1198 6.82724E-03 5.74277E-06-1.69971E-05 2.09597E-04-2.22300E-06 1.92229E-06
 -1      1199 7.05102E-03 7.33959E-06 1.63764E-06 2.14434E-04-1.47219E-06-3.41737E-06
 -1      1200 7.15341E-03 8.23268E-06 3.60861E-06 2.20623E-04-1.51819E-07-6.02651E-07
 -1      1201 7.34654E-03-1.39513E-04-1.43737E-04 4.35484E-04 5.49001E-05-7.82204E-05
 -1      1202 1.00182E-02-5.65864E-04-7.54709E-04-5.05414E-04-3.86534E-05-1.26583E-04
 -1      1203 6.63999E-03-7.88727E-06-3.01375E-05 1.82424E-04-1.31962E-06-3.38574E-05
 -1      1204 6.57731E-03-7.36243E-06-3.65046E-05 1.93348E-04 4.86097E-06-5.15036E-05
 -1      1205 6.95597E-03 7.47262E-06-1.46020E-06 2.11126E-04 4.27779E-07 4.91760E-06
 -1      1206 6.86386E-03 6.89678E-06-4.09057E-06 2.06059E-04 2.43706E-06 5.92957E-06
 -1      1207 7.22383E-03 1.43326E-05 8.10215E-06 2.23342E-04-3.48073E-07 9.17023E-07
 -1      1208 6.63817E-03 4.07371E-06-7.19213E-05 2.20073E-04 8.68913E-06-9.62812E-05
 -1      1209 6.80980E-03-7.99065E-05-4.56715E-05 2.76900E-04 3.58200E-06 1.38496E-04
 -1      1210 6.60525E-03-4.64021E-05-4.91542E-05 2.31519E-04-7.69277E-06 7.49687E-05
 -1      1211 6.98797E-03 9.80960E-06 1.04377E-06 2.14043E-04-4.90944E-07 2.39969E-06
 -1      1212-3.21967E-05 3.64449E-04-4.04300E-04 1.26634E-04-6.30922E-06-4.33559E-06
 -1      1213-9.83490E-05 4.25143E-04-4.03386E-04 1.23221E-04-4.70143E-05-2.33728E-05
 -1      1214-1.52223E-05 4.02755E-04-3.01473E-04 1.58777E-04-2.17715E-05-1.55707E-05
 -1      1215 6.80679E-03 2.33736E-07-1.84235E-05 2.04310E-04 1.53145E-06-5.24444E-06
 -1      1216 6.66774E-03-2.93529E-06-5.02421E-05 1.88908E-04 1.29382E-06-4.35771E-05
 -1      1217 6.65008E-03-2.48149E-06-9.04439E-05 2.18021E-04-5.35315E-06 1.12482E-04
 -1      1218 6.70497E-03-2.62650E-06-8.37164E-05 2.06456E-04 1.91090E-06-1.59293E-05
 -1      1219 6.64441E-03-5.41569E-06-1.15416E-04 1.92347E-04-3.67994E-07-5.19327E-05
 -1      1220 7.72382E-03-7.12765E-04-6.26181E-04-1.91352E-04-3.80224E-05 1.29670E-04
 -1      1221 6.89265E-03-8.65290E-05-1.42277E-04 2.52792E-04 3.24546E-06-1.01816E-04
 -1      1222 6.92406E-03-6.94731E-05-1.32293E-04 2.46364E-04 6.51444E-06-7.25682E-05
 -1      1223 7.06858E-03-9.11268E-05-1.11713E-04 2.21187E-04-1.11665E-05-8.63827E-05
 -1      1224 7.06697E-03-1.10065E-04-1.25197E-04 2.25224E-04 1.86545E-06-8.11804E-06
 -1      1225 6.82350E-03-6.59140E-05-1.52205E-04 2.20853E-04 9.31048E-06-6.77710E-05
 -1      1226 7.03920E-03-8.24141E-05-1.10121E-04 2.59395E-04-2.24446E-06-1.47842E-05
 -1      1227 7.02201E-03-1.18340E-04-1.31199E-04 2.66215E-04 2.79755E-06 8.56826E-06
 -1      1228 6.89625E-03-6.84093E-05-1.54697E-04 2.34108E-04-4.23685E-06-2.68796E-05
 -1      1229 6.96705E-03-5.95886E-05-1.37490E-04 2.35639E-04 2.08386E-06 4.66588E-05
 -1      1230 6.93057E-03-6.43033E-05-1.47953E-04 2.27695E-04 9.23552E-06 6.17098E-05
 -1      1231 6.87595E-03-1.99098E-05-1.46122E-04 2.18431E-04-8.07258E-06 2.34131E-05
 -1      1232 7.02841E-03-1.08359E-04-1.30119E-04 2.20258E-04-1.40135E-05 5.10908E-05
 -1      1233 6.98437E-03-7.83308E-05-1.33993E-04 1.57784E-04 4.15094E-06 1.19422E-04
 -1      1234 6.83117E-03-3.47406E-05-1.40253E-04 2.18736E-04 1.08457E-05 8.45965E-05
 -1      1235 6.67974E-03-9.66298E-06-1.28106E-04 2.03597E-04 5.53815E-07 3.95006E-05
 -1      1236 6.71087E-03 1.68909E-07-8.99827E-05 2.09752E-04-4.38304E-07 2.01615E-06
 -1      1237 6.81496E-03 1.47283E-06-2.41942E-05 2.06055E-04-3.39662E-07 3.72519E-06
 -1      1238 6.90227E-03 5.00520E-06-5.25152E-06 2.10666E-04 3.24728E-07-2.10608E-06
 -1      1239 7.00187E-03 9.23808E-06 2.78400E-06 2.15235E-04-2.42869E-07-2.42631E-06
 -1      1240 6.85750E-03-7.39134E-05-1.08131E-04 2.23631E-04 3.66170E-06 1.50426E-04
 -1      1241 6.67563E-03-2.05196E-05-1.25025E-04 2.14882E-04 1.62093E-06 9.92724E-05
 -1      1242 6.86846E-03-4.17828E-05-1.08414E-04 2.65210E-04-7.32725E-06-1.29877E-04
 -1      1243 6.73711E-03-4.11973E-05-1.20607E-04 2.31914E-04 2.90663E-06-1.15792E-04
 -1      1244 7.00363E-03-8.74573E-05-1.03330E-04 2.18719E-04 4.14319E-06-1.66019E-04
 -1      1245 6.85198E-03-3.79896E-05-1.25418E-04 2.69631E-04-1.57636E-05-1.62174E-04
 -1      1246 6.67881E-03-2.21702E-05-1.42333E-04 1.96498E-04 9.91073E-07 7.24900E-05
 -1      1247 6.93358E-03-7.83517E-05-1.36725E-04 1.75751E-04 1.01653E-05 1.44703E-04
 -1      1248 6.94068E-03-9.95118E-05-1.48349E-04 1.75175E-04 3.97473E-06 1.60161E-04
 -1      1249 6.83140E-03-2.27523E-04-2.09431E-04 1.89414E-04-1.58787E-05 1.51555E-04
 -1      1250 6.65235E-03-1.38136E-06-1.13391E-04 2.12880E-04 3.15002E-06-8.41903E-05
 -1      1251 6.72496E-03 9.16739E-07-5.60048E-05 2.00395E-04-1.21706E-07-3.27258E-06
 -1      1252 6.70129E-03-1.88181E-05-1.45227E-04 2.13676E-04-1.92038E-06-5.70222E-05
 -1      1253 2.13857E-05 4.36106E-04-1.40749E-04 1.46770E-04-2.98186E-05-2.97875E-06
 -1      1254 9.11866E-05 4.71636E-04-1.08338E-04 2.14187E-04 4.77024E-06 9.49737E-06
 -1      1255 1.01458E-04 4.75446E-04-5.56466E-05 2.19699E-04-3.53645E-06 2.35729E-05
 -1      1256 6.71771E-03-2.96234E-05-1.67313E-04 2.15150E-04-2.38749E-07-3.55525E-05
 -1      1257 6.73160E-03-3.25057E-05-1.66982E-04 2.17370E-04-1.84980E-06-8.23804E-06
 -1      1258 6.71454E-03-2.12615E-05-1.67411E-04 1.94164E-04-1.87387E-06 1.89446E-05
 -1      1259 7.50395E-03 6.47467E-05 8.76564E-06-5.60024E-04 4.92289E-05-1.76650E-04
 -1      1260 6.67842E-03-5.17045E-05-6.10861E-05-2.76159E-04-4.61421E-06-1.12107E-04
 -1      1261 6.64148E-03-2.13042E-05-3.56812E-05-2.39443E-04-1.34427E-05-5.51372E-05
 -1      1262 6.55533E-03-7.65370E-06-3.76407E-05-2.03047E-04-7.21193E-06-4.79573E-05
 -1      1263 6.60678E-03-1.97790E-05-3.38363E-05-1.98679E-04 4.63032E-07-2.89611E-05
 -1      1264 6.62995E-03-1.64153E-05-7.41791E-05-1.94754E-04 6.28344E-06-1.06702E-04
 -1      1265 6.92927E-03 7.02444E-06-2.59470E-06-2.10091E-04-2.94401E-06 9.48059E-06
 -1      1266 7.04747E-03 6.64725E-06 1.73392E-06-2.18134E-04-1.88448E-06 5.20347E-06
 -1      1267 7.16023E-03 7.87424E-06-5.00868E-07-2.23500E-04-1.53283E-06 2.52366E-06
 -1      1268 7.28327E-03 1.17135E-05 4.61664E-06-2.27563E-04 4.51359E-07-6.95587E-07
 -1      1269 7.10114E-03 7.23623E-06 1.10773E-06-2.19721E-04 1.06424E-06 4.02367E-07
 -1      1270 7.42585E-03 1.77994E-06 1.05178E-05-2.50114E-04 1.46211E-06 4.28880E-06
 -1      1271 7.48213E-03-3.42468E-05-1.43704E-06-3.19543E-04-1.42581E-05-2.00279E-05
 -1      1272 7.34844E-03-4.11703E-05-8.84035E-05-2.93217E-04 2.41987E-05-8.93225E-05
 -1      1273 8.34857E-03-1.41812E-04-6.35235E-04 2.71171E-04 1.30792E-05 1.02008E-04
 -1      1274 8.11830E-03-8.52205E-05 1.27084E-04-7.88683E-04 9.42012E-06-1.30422E-04
 -1      1275 7.94783E-03 5.06641E-05 4.35843E-05-7.47245E-04 5.93404E-05-1.27101E-04
 -1      1276 8.20804E-03 2.32724E-04 3.54359E-04-6.80980E-04 9.02412E-06 2.08126E-06
 -1      1277 8.02784E-03 1.68722E-04 2.31964E-04-5.78171E-04-4.24917E-05-7.09878E-05
 -1      1278 8.11429E-03 1.76287E-04 3.34774E-04-6.07696E-04 4.56340E-05 1.74688E-05
 -1      1279 8.46263E-03 2.22248E-04 4.39030E-04-7.15286E-04 5.24128E-06 4.52402E-07
 -1      1280 7.93011E-03-3.13945E-04 6.52703E-05-7.67521E-04-1.93937E-06 5.80575E-05
 -1      1281 8.07993E-03-4.26581E-05 2.17584E-04-7.80564E-04-2.88890E-05 7.91222E-05
 -1      1282 7.41694E-03 4.38524E-05 2.81619E-06-5.08303E-04-5.87908E-05 1.91293E-04
 -1      1283 6.57638E-03-4.67271E-05-4.42896E-05-2.06679E-04-5.46598E-06 6.07991E-05
 -1      1284 6.60102E-03-3.54552E-05-5.88041E-05-2.27421E-04 7.07732E-06 9.45012E-05
 -1      1285 6.91922E-03 1.95312E-06-4.18945E-06-2.06586E-04 3.14118E-06-6.75858E-06
 -1      1286 6.80904E-03 1.49043E-06-7.03154E-06-1.99346E-04 3.75097E-06-3.62732E-06
 -1      1287 7.23109E-03 8.94778E-06 2.16118E-06-2.29811E-04-1.26731E-06-4.45417E-06
 -1      1288 7.11450E-03 7.05148E-06-4.83630E-07-2.20012E-04 7.41662E-07-4.27073E-06
 -1      1289 7.02329E-03-5.93512E-05-4.95528E-05-3.76470E-04-1.72562E-05-1.37784E-04
 -1      1290 7.03368E-03-2.80615E-05-6.29509E-05-3.49795E-04-1.45514E-06 1.39630E-04
 -1      1291 6.84654E-03 3.22760E-05-8.84166E-05-3.04089E-04 1.27263E-06 1.31132E-04
 -1      1292 6.82035E-03-7.68376E-05-1.14346E-04-2.69942E-04-1.42609E-08-1.72208E-04
 -1      1293 6.72096E-03-4.77724E-07-2.18430E-05-2.00841E-04-3.51000E-06-1.01401E-05
 -1      1294 6.81223E-03-1.18415E-06-1.44390E-05-2.04344E-04-3.18135E-07 2.31042E-06
 -1      1295 7.39976E-03 1.35235E-05 1.36814E-05-2.35906E-04 4.27471E-06-4.70844E-06
 -1      1296 8.08634E-03-3.64765E-05 2.66536E-04-7.37461E-04 5.89696E-05 2.16652E-05
 -1      1297 7.45169E-03 1.58898E-05 2.21739E-05-3.79416E-04-5.49249E-07 4.34524E-05
 -1      1298 8.32163E-03-8.85822E-05 2.81140E-04-9.45029E-04-1.75149E-05-1.58481E-05
 -1      1299 7.98624E-03-1.21461E-04 1.61017E-04-6.98552E-04-9.79304E-05-3.89170E-06
 -1      1300 8.05852E-03-2.62354E-04 8.72170E-05-8.22411E-04-2.44986E-05-9.54141E-05
 -1      1301 8.36982E-03 2.24507E-04 4.09057E-04-6.70031E-04 1.26641E-05-5.69446E-05
 -1      1302 8.19292E-03 2.09423E-04 3.76618E-04-6.05933E-04-1.11212E-05 5.05972E-05
 -1      1303 7.44750E-03-8.38080E-05 1.14964E-05-4.35335E-04 2.04561E-05 7.99787E-05
 -1      1304 7.36848E-03-9.09491E-05-3.07242E-05-4.26379E-04-8.66694E-06-1.35006E-04
 -1      1305 7.23121E-03-7.34338E-05-8.67268E-06-2.07328E-04 8.21552E-06 1.69837E-05
 -1      1306 6.70642E-03-1.57565E-05-2.70621E-05-1.94332E-04-1.06015E-06 1.39105E-05
 -1      1307 6.62147E-03-1.58348E-05-3.64893E-05-2.06893E-04 1.69612E-06 3.76213E-05
 -1      1308 7.22668E-03-3.16236E-05-7.49967E-05-3.40570E-04 2.02094E-05-1.05843E-04
 -1      1309 7.29034E-03-4.56978E-05-3.75647E-05-2.34114E-04 6.50679E-06-1.85606E-05
 -1      1310 6.62413E-03-1.99241E-05-7.08550E-05-1.84502E-04-3.43340E-06 7.71567E-05
 -1      1311 6.75795E-03-2.27682E-05-4.08492E-05-1.94967E-04 2.37644E-06 1.48326E-05
 -1      1312 6.86687E-03-2.06641E-06-1.54275E-05-2.01214E-04-1.55597E-06 8.07557E-07
 -1      1313 7.09028E-03 2.59252E-05-8.36336E-05-2.75410E-04 6.59783E-06 6.01607E-05
 -1      1314 7.07271E-03-1.80519E-05-9.53217E-05-2.79349E-04-1.03298E-07 3.86925E-05
 -1      1315 6.83305E-03-1.16388E-04-1.34905E-04-2.41784E-04-8.15474E-06-1.26704E-04
 -1      1316 1.74948E-02 8.80493E-04 9.98912E-04 4.05595E-03-2.65362E-05-1.33861E-04
 -1      1317 7.88978E-03 5.58638E-05 6.26435E-05-7.33414E-04-2.81200E-05 1.29457E-04
 -1      1318 6.83719E-03-5.38262E-05-1.57980E-04-2.36373E-04 1.06653E-05-1.11240E-04
 -1      1319 6.65461E-03-3.20513E-05-1.07754E-04-1.94272E-04 9.06453E-06-1.19827E-04
 -1      1320 7.00284E-03-1.16043E-04-1.30033E-04-2.44561E-04 5.90532E-07 2.78508E-05
 -1      1321 6.97589E-03-9.59397E-05-1.46956E-04-1.76228E-04-7.60546E-06 2.77194E-06
 -1      1322 6.81662E-03-1.91220E-05-1.58850E-04-1.87103E-04 1.06688E-05 2.22038E-05
 -1      1323 6.66395E-03-2.09913E-05-1.08466E-04-1.81255E-04 3.34550E-07-7.27398E-05
 -1      1324 6.91528E-03-7.23960E-05-1.33567E-04-2.67563E-04-2.09290E-05-8.22006E-05
 -1      1325 6.68535E-03-1.26794E-05-5.32595E-05-1.82098E-04-3.66918E-07-3.65207E-05
 -1      1326 7.04582E-03 1.48795E-05-7.44150E-05-2.83709E-04 5.20216E-06 8.33422E-05
 -1      1327 6.79360E-03-1.27241E-05-1.43613E-04-2.04054E-04-8.45548E-06 7.97764E-05
 -1      1328 6.99209E-03 3.28023E-05-7.22373E-05-3.29749E-04-1.25729E-06 1.03291E-04
 -1      1329 6.70493E-03-1.32277E-05-1.27631E-04-2.35564E-04 2.76293E-07 1.11739E-04
 -1      1330 7.01772E-03-7.66015E-05-1.25643E-04-1.86618E-04 6.92595E-06-1.95450E-05
 -1      1331 7.01539E-03-1.20178E-04-1.44915E-04-2.59586E-04 4.19772E-06-5.28908E-05
 -1      1332 6.77645E-03-4.64712E-05-1.53207E-04-2.13128E-04-1.14823E-05-6.48989E-05
 -1      1333 6.83835E-03-7.16812E-05-1.90588E-04-1.99178E-04 5.74945E-06-2.61648E-05
 -1      1334 6.64002E-03-8.61045E-06-1.13155E-04-1.92347E-04 1.60029E-06-5.03731E-05
 -1      1335 6.71338E-03 9.09575E-06-8.50460E-05-1.91095E-04 8.55786E-07-2.06697E-05
 -1      1336 6.99524E-03 4.74818E-06-6.99561E-07-2.12509E-04 9.85347E-07-6.58853E-06
 -1      1337 6.67915E-03-6.90066E-06-1.40110E-04-2.08448E-04-1.63945E-06-5.61090E-05
 -1      1338 6.67355E-03 2.43199E-06-1.05493E-04-1.92491E-04-3.23411E-06 1.53211E-05
 -1      1339 6.72588E-03-1.37791E-05-6.20662E-05-1.91095E-04 1.87035E-06 1.01340E-05
 -1      1340 6.90242E-03-4.65324E-06-9.13696E-06-2.01914E-04-8.16855E-07 8.60746E-07
 -1      1341 6.81704E-03-7.09460E-06-2.35645E-05-2.00416E-04 2.48889E-07-5.78289E-06
 -1      1342 6.65210E-03-2.67236E-05-1.13793E-04-1.84323E-04 1.56463E-06 4.74160E-05
 -1      1343 6.63431E-03-2.07726E-05-1.22899E-04-1.96796E-04-1.08179E-06 9.43415E-05
 -1      1344 6.74785E-03-3.07184E-05-1.63613E-04-1.94973E-04 8.27219E-06 2.61562E-05
 -1      1345 6.74286E-03-1.91522E-05-1.59559E-04-1.73661E-04-4.81359E-06 5.60161E-05
 -1      1346 6.70023E-03-1.36924E-05-1.63588E-04-2.09186E-04-1.81800E-06-4.21167E-05
 -1      1347 6.70684E-03-1.66130E-05-1.67903E-04-2.05723E-04-1.87235E-06-2.03019E-06
 -1      1348 6.73059E-03-3.02567E-05-1.47534E-04-2.03052E-04-3.20207E-06 8.87422E-05
 -1      1349 6.67586E-03-1.37913E-05-1.51434E-04-1.96252E-04 2.38318E-07 1.87015E-05
 -1      1350 9.52046E-04 1.16139E-03 9.02498E-05-1.04211E-03-2.15334E-05 3.56154E-05
 -1      1351 1.48247E-03 1.56652E-03 1.77336E-05-1.58442E-03 1.03696E-06 7.37626E-05
 -1      1352 3.96912E-04 4.82762E-04 4.07483E-06-4.96346E-04-9.57452E-06 1.18747E-05
 -1      1353 3.92279E-04 6.13401E-04 1.29515E-05-5.32032E-04-6.63532E-06 5.64054E-06
 -1      1354 3.66041E-04-6.76608E-06 2.69486E-05-1.63328E-04-1.43670E-05-1.80583E-05
 -1      1355 4.09478E-04 1.26698E-04 2.72055E-05-2.73517E-04-1.74370E-05-1.42524E-05
 -1      1356 1.63045E-04-2.66681E-05 8.00281E-06-1.48358E-05-4.97391E-06-7.21103E-06
 -1      1357 2.29854E-04 4.24405E-05 1.40507E-05-8.20783E-05-6.28829E-06-8.32430E-06
 -1      1358 6.50475E-05-5.78763E-06 2.58618E-06 8.05300E-06-2.96565E-06-2.72712E-06
 -1      1359 1.04642E-04 6.10058E-06 6.49600E-06-1.06003E-05-1.69994E-06-4.65694E-06
 -1      1360 4.15131E-05-6.00252E-06 2.79744E-06 1.37044E-05-2.39895E-06-1.03000E-06
 -1      1361 1.36549E-05 1.82857E-06 1.19362E-06 9.27307E-06-9.89738E-07-4.05664E-07
 -1      1362 2.52090E-05 1.08384E-06 1.35033E-06 7.94418E-06-1.33654E-06-6.81422E-07
 -1      1363 3.78613E-06 2.62303E-06 4.52404E-07 4.40907E-06-4.26222E-07-8.53019E-08
 -1      1364 8.99237E-06 2.47976E-06 5.75063E-07 4.93680E-06-5.80955E-07-2.26740E-07
 -1      1365 6.78697E-07 1.82391E-06 1.69317E-07 1.66705E-06-1.60174E-07 4.65189E-09
 -1      1366 2.86093E-06 2.05550E-06 2.15888E-07 2.34157E-06-2.45131E-07-5.76838E-08
 -1      1367 1.26046E-07 9.76809E-07 8.00195E-08 5.03139E-07-8.10065E-08 2.48613E-08
 -1      1368 7.10500E-07 1.21959E-06 1.10332E-07 8.85483E-07-8.92046E-08-2.34235E-08
 -1      1369-9.61112E-08 7.49000E-07 5.12068E-08 2.87966E-07-4.24969E-08 2.40703E-08
 -1      1370-5.41930E-08 3.40233E-07 1.06874E-08 1.41482E-08-1.41371E-08 7.64262E-09
 -1      1371 2.90003E-08 4.73557E-07 2.80985E-08 1.36998E-07-2.58578E-08 1.41845E-08
 -1      1372-1.36989E-08 1.40878E-07 6.33888E-09-1.55679E-08-1.03630E-09 7.26757E-09
 -1      1373-5.86551E-09 2.07477E-07 9.67817E-09 1.41458E-08-2.94213E-09 9.93427E-09
 -1      1374 6.93073E-09 6.55836E-08 7.72727E-09-1.10520E-08-9.85751E-10 5.57290E-09
 -1      1375 1.00259E-08 9.26315E-08 5.83463E-09-3.26893E-09 7.92968E-11 3.48337E-09
 -1      1376 6.84493E-09 6.03624E-08 4.55876E-09-9.59558E-09-1.47743E-10 5.66744E-09
 -1      1377 9.98167E-09 9.18375E-08 7.44575E-09 4.36884E-09 4.09047E-09 3.07977E-09
 -1      1378 5.24879E-09 6.20944E-08 6.48129E-09 1.35000E-08 1.00940E-09 4.92041E-09
 -1      1379 2.32593E-10 2.15191E-07 1.09226E-08-1.82318E-08 9.25788E-09 6.95282E-09
 -1      1380-1.55309E-08 1.39008E-07 9.10882E-09 2.34352E-08 5.39193E-09 5.36921E-09
 -1      1381-5.94236E-09 4.82452E-07 3.88536E-08-1.26117E-07 2.59172E-08 1.83098E-08
 -1      1382-6.69419E-08 3.46861E-07 2.13914E-08-3.88923E-08 1.46125E-08 1.35403E-08
 -1      1383 1.92640E-07 6.69726E-07 6.31238E-08-3.09725E-07 4.29867E-08 3.87797E-08
 -1      1384 8.06204E-07 1.30058E-06 1.44875E-07-9.12521E-07 9.96583E-08-2.35102E-08
 -1      1385 2.62080E-08 9.89437E-07 9.46301E-08-5.10482E-07 6.99815E-08 4.35028E-08
 -1      1386 2.78966E-06 1.99541E-06 2.32773E-07-2.29545E-06 2.23340E-07-4.51037E-08
 -1      1387 7.26767E-07 1.80828E-06 1.85765E-07-1.66649E-06 1.65608E-07 1.23981E-08
 -1      1388 8.61113E-06 2.38099E-06 5.33390E-07-4.79011E-06 5.20644E-07-1.57430E-07
 -1      1389 3.69079E-06 2.58291E-06 4.51140E-07-4.32395E-06 4.08004E-07-6.13517E-08
 -1      1390 2.36272E-05 7.20056E-07 1.21868E-06-9.09350E-06 1.40838E-06-8.33527E-07
 -1      1391 1.38944E-05 8.60300E-07 1.10740E-06-9.16589E-06 1.01963E-06-1.98770E-07
 -1      1392 4.14061E-05 2.29924E-06 2.44212E-06-5.11082E-06 1.07417E-06-1.69291E-06
 -1      1393 1.03490E-04 3.70494E-06 5.07447E-06 9.70473E-06 2.84985E-06-4.03340E-06
 -1      1394 6.37678E-05-9.06117E-06 3.90563E-06-1.17417E-05 2.80654E-06-2.36878E-06
 -1      1395 2.24873E-04 2.54886E-05 1.32851E-05 7.46948E-05 6.25864E-06-8.58040E-06
 -1      1396 1.61050E-04-2.58123E-05 8.81925E-06 1.32482E-05 5.23082E-06-7.23636E-06
 -1      1397 3.55407E-04 6.06386E-04 2.90497E-05 5.24856E-04 5.44955E-06 6.53962E-06
 -1      1398 3.84066E-04 4.59548E-04 7.37005E-06 4.91217E-04 9.74887E-06-9.97740E-07
 -1      1399 1.46758E-03 1.60330E-03 2.70538E-05 1.55521E-03-6.61903E-06 9.53427E-05
 -1      1400 8.67366E-04 1.12865E-03 1.17623E-04 9.98326E-04-6.60124E-06-1.20281E-05
 -1      1401 2.19738E-03 1.19043E-03-5.27755E-05-1.57583E-03 8.60696E-05-9.40968E-05
 -1      1402 4.36419E-03 1.59520E-03 2.32763E-05-2.28919E-03 1.94214E-04-1.55040E-04
 -1      1403 5.98829E-03 1.45116E-03-1.39590E-04-1.91062E-03 1.37692E-06-1.20435E-04
 -1      1404 6.76941E-03 7.57780E-04-5.00994E-05-9.59569E-04-8.86633E-05-3.75158E-05
 -1      1405 4.33977E-03 1.47813E-03-6.82436E-05 2.22531E-03-1.05761E-04-1.81815E-04
 -1      1406 2.10410E-03 1.21699E-03-4.42039E-05 1.60680E-03-7.99098E-05-5.77517E-05
 -1      1407 6.78433E-03 8.12865E-04 4.51309E-05 1.01909E-03 6.93079E-05 6.49208E-05
 -1      1408 6.08078E-03 1.40205E-03-4.97214E-05 1.74437E-03-3.16723E-05-1.55987E-04
 -1      1409 7.02404E-03 5.42259E-04-7.52587E-06-9.63225E-04 1.90187E-05 3.89757E-05
 -1      1410 6.45244E-03 2.18476E-04-7.46488E-05-5.59267E-04-1.99352E-05 4.51950E-05
 -1      1411 6.74738E-03 1.89498E-04 5.17776E-05-4.33903E-04 2.09787E-05 1.54461E-05
 -1      1412 6.69498E-03 1.03588E-04 7.67077E-06-3.44645E-04 6.66802E-06 2.03986E-05
 -1      1413 6.34078E-03 4.31497E-04-3.93611E-05-6.20981E-04-2.50895E-05 2.91240E-05
 -1      1414 6.91600E-03 6.86948E-06 1.36093E-06-1.27786E-04 8.14772E-07-8.68798E-07
 -1      1415 7.01688E-03-1.38758E-07 3.68518E-06-1.33564E-04-9.88230E-07-1.48488E-06
 -1      1416 7.10760E-03-4.52056E-06 6.18168E-07-9.61172E-05-1.18979E-06-1.54792E-07
 -1      1417 7.22333E-03-2.45783E-06 2.00307E-06-1.12736E-04-6.50544E-07 1.57958E-06
 -1      1418 7.09946E-03-1.44515E-05 3.63070E-06-2.28186E-05 5.36775E-07-9.22621E-07
 -1      1419 7.41734E-03 7.71916E-07 2.31474E-05 1.53326E-05-1.90610E-06 9.19175E-06
 -1      1420 7.63363E-03-3.31069E-05 2.73073E-05 8.77290E-07 1.15181E-05 2.57809E-05
 -1      1421 7.77248E-03-1.29901E-04 1.68305E-05-3.90574E-05-4.04288E-06 5.26265E-05
 -1      1422 8.85447E-03 6.67809E-04 1.92967E-04 1.95709E-04-5.89216E-05-8.26586E-07
 -1      1423 6.67084E-03 3.38599E-04 2.34427E-05 6.59905E-04 3.37469E-05 3.36779E-05
 -1      1424 6.98141E-03 5.30407E-04-6.53954E-05 9.92065E-04 1.40345E-05 8.09824E-05
 -1      1425 6.74793E-03 2.38248E-05 5.69389E-06 2.07766E-04-5.01453E-06 3.54540E-06
 -1      1426 6.77097E-03 5.87830E-05 1.21413E-05 2.43606E-04-6.05480E-06 9.61921E-06
 -1      1427 7.01922E-03-9.83030E-07 1.90664E-07 1.41493E-04-1.08885E-07-2.82268E-06
 -1      1428 6.93925E-03-9.40644E-07 1.75909E-06 1.37571E-04-2.57861E-07-3.27148E-06
 -1      1429 5.84682E-03 8.59976E-03-1.30338E-04-4.79484E-03 4.36172E-04-7.39303E-04
 -1      1430 3.73449E-03 1.82105E-03-1.82490E-03-1.60987E-03-1.53490E-04-7.31512E-04
 -1      1431 4.30869E-03-7.63774E-03-1.77432E-03-6.86485E-04 3.72501E-04-1.88666E-05
 -1      1432 1.06117E-02 4.56093E-04 5.92249E-04-3.90091E-03 3.91673E-04 7.92624E-04
 -1      1433 6.39076E-03-1.38471E-03 1.55905E-04 1.21117E-03-2.99680E-04-4.33550E-04
 -1      1434 1.18944E-02-1.54703E-03 2.52598E-05-2.65823E-03 5.86757E-05-4.45511E-04
 -1      1435 3.50708E-03 1.11801E-03-1.57454E-04-5.10788E-04-1.96598E-04-3.91336E-04
 -1      1436 4.38342E-03 3.54575E-04-3.23808E-04-1.97897E-03-3.22781E-04 6.21214E-05
 -1      1437 2.33360E-03 9.35723E-04-5.62292E-04 1.18143E-03-3.03186E-04 1.83797E-04
 -1      1438 4.20705E-03-2.21323E-03-7.05515E-05-6.49155E-04-5.00704E-05 2.98035E-04
 -1      1439 1.21802E-03-4.84912E-04-2.28697E-04-8.89289E-04 5.55571E-05 3.04332E-04
 -1      1440 5.02131E-03-1.31230E-03-3.77880E-05 1.92758E-03 1.69992E-04 3.05616E-04
 -1      1441 4.25730E-05 8.55643E-04 2.43105E-04 2.38959E-03 5.89501E-04-3.55361E-05
 -1      1442 1.47209E-03-3.20844E-03-7.32968E-05 1.51795E-03 3.25969E-04-6.54830E-05
 -1      1443-1.73526E-03 2.34665E-03 1.42152E-04 9.67867E-06-3.60807E-05-4.86923E-04
 -1      1444-1.10642E-03-3.19274E-04-3.99329E-04 2.23866E-03-1.61260E-04-2.63707E-04
 -1      1445-1.16656E-03-2.22042E-04-3.59180E-04-2.24363E-03 1.25774E-04-2.55225E-04
 -1      1446 1.68607E-03-3.22864E-03 1.19320E-04-1.51015E-03-3.31149E-04-1.10135E-04
 -1      1447 9.14267E-05 8.04737E-04 2.81157E-04-2.34814E-03-5.02413E-04-1.97355E-04
 -1      1448 4.32537E-03-2.23368E-03-1.14035E-04 5.76500E-04 5.85270E-05 3.19479E-04
 -1      1449 5.10871E-03-1.29005E-03-1.14428E-04-1.94388E-03-1.11874E-04 3.25716E-04
 -1      1450 1.19284E-03-4.10766E-04-2.48358E-04 8.54842E-04-4.26329E-05 2.76645E-04
 -1      1451 2.25261E-03 1.05769E-03-6.87432E-04-1.43713E-03 3.41388E-04 2.01294E-04
 -1      1452 4.28764E-03 3.74947E-04-3.69702E-04 1.99365E-03 3.34758E-04 5.76275E-05
 -1      1453 7.25498E-03-1.07843E-03-4.58954E-04-1.16200E-03 4.99787E-04 1.45817E-04
 -1      1454 2.90966E-03 1.36563E-03-8.08682E-04 5.31393E-04-1.81328E-04-1.70130E-04
 -1      1455 1.21720E-02-2.21465E-03-3.09502E-04 3.05279E-03 1.23236E-04-5.73658E-04
 -1      1456 1.03330E-02-1.52413E-03 1.95741E-03 4.08953E-03-2.24892E-04 3.75176E-04
 -1      1457 6.89999E-03-7.83292E-03-1.10159E-03 1.77820E-03-4.75177E-04 6.27169E-04
 -1      1458 6.71127E-03 1.24435E-03 2.31221E-04 7.81037E-07-3.52708E-05-5.15231E-04
 -1      1459 6.41420E-03 8.90337E-04 7.14257E-05-2.34229E-04-4.57335E-05-2.99813E-04
 -1      1460 2.77397E-03 3.32091E-04 2.06270E-04-1.05757E-03-4.84244E-05-3.15413E-04
 -1      1461 1.74047E-03 1.16155E-04 1.81870E-04-8.34898E-04-3.95374E-05-2.05430E-04
 -1      1462 3.35611E-04-2.15836E-05 1.59533E-05 1.47846E-04 1.21995E-05-1.68729E-05
 -1      1463 6.21574E-04 7.56511E-06 1.37080E-05 4.06847E-04 2.47010E-05-3.04721E-05
 -1      1464 1.30065E-03 1.10087E-05 1.67644E-04 6.49589E-04 6.50772E-05-1.56503E-04
 -1      1465 2.14578E-03-5.00394E-05 2.61657E-05 9.33278E-04 2.54256E-05-1.69371E-04
 -1      1466 3.49362E-03 2.63900E-04 3.32269E-04 1.04216E-03 1.54579E-04-3.69096E-04
 -1      1467 5.57716E-03 4.75785E-04 3.09330E-04 5.69356E-04 9.34037E-05-5.29415E-04
 -1      1468 6.82109E-03 1.39899E-03 1.15610E-03 3.93388E-04 8.48954E-05-1.03677E-03
 -1      1469 7.14303E-03 1.49283E-03 1.03235E-03 2.68086E-04 1.56967E-04-1.10361E-03
 -1      1470 7.13737E-03 1.61126E-03 7.39538E-04-2.50136E-05 9.50383E-05-9.40411E-04
 -1      1471 3.00243E-03-1.40833E-03 1.35946E-03 2.23543E-03-7.51375E-04 9.89369E-05
 -1      1472 3.97280E-03-5.02183E-04 1.17458E-03-2.69641E-03 2.02850E-04 7.22956E-05
 -1      1473-3.16822E-04-7.47672E-04 6.53298E-04 3.14674E-04-4.06556E-05 1.09011E-04
 -1      1474 9.03200E-04 5.18931E-04 2.75492E-05-8.65504E-04 2.70292E-05-2.76165E-05
 -1      1475 6.29918E-04 8.98691E-04 5.70047E-05-7.65388E-04 7.34830E-06-2.26706E-05
 -1      1476 6.24877E-04-2.39473E-05 1.75723E-05-3.77488E-04-2.57541E-05-1.40978E-05
 -1      1477 1.26921E-03 4.86660E-04-8.71019E-05 9.58312E-04-2.41907E-05-1.25247E-05
 -1      1478 4.07813E-04 9.22389E-05 2.19882E-05 2.50790E-04 2.53645E-05-2.94986E-05
 -1      1479 4.97439E-04 1.10151E-03 4.31944E-05 7.46830E-04 4.08277E-06 4.49531E-05
 -1      1480 4.18485E-04 9.07654E-04 6.13516E-05 6.45532E-04-3.75474E-06 2.67284E-05
 -1      1481 5.89323E-03 1.18054E-03-1.15280E-05-8.55355E-04-6.71809E-05 1.51561E-05
 -1      1482 2.77049E-03 8.01014E-04-4.69729E-05 1.61447E-03-5.71446E-05 1.54131E-05
 -1      1483 6.83746E-03 3.38925E-05 1.00175E-05-1.72071E-04-5.29273E-06 4.22180E-06
 -1      1484 6.93343E-03 2.78640E-05 6.06425E-06-9.21737E-05 2.68826E-06 2.12856E-06
 -1      1485 6.78821E-03 6.27645E-05 1.97155E-05-2.13530E-04 6.05322E-06 8.71274E-06
 -1      1486 7.32262E-03-2.48192E-05 8.37687E-06 1.34884E-04 1.08621E-06 7.17896E-06
 -1      1487 5.91269E-03 1.14229E-03-5.45309E-07 8.43718E-04 1.40546E-05 1.95782E-05
 -1      1488 5.75331E-03 2.06497E-03-5.16477E-04 8.39347E-04 1.12460E-04-2.52035E-04
 -1      1489 7.08011E-03 7.03100E-03-8.95504E-05 3.63437E-03-8.57869E-04-2.79669E-05
 -1      1490 6.68935E-03 1.04846E-04 2.21426E-05 3.60479E-04-1.34343E-06 1.70655E-05
 -1      1491 6.78894E-03 1.80328E-04 3.37561E-05 4.66778E-04-8.22819E-06 1.22282E-05
 -1      1492 6.88109E-03 8.96315E-06 6.11686E-06 1.64212E-04 6.07619E-08-4.93514E-06
 -1      1493 6.80799E-03 1.28928E-05 9.56556E-06 1.70444E-04-2.71336E-06 1.67066E-07
 -1      1494 7.19240E-03-5.88004E-06-7.12179E-07 1.17898E-04 5.14137E-07-4.35043E-07
 -1      1495 7.10282E-03-3.66552E-06 5.27025E-08 1.10160E-04 2.12689E-06-2.42149E-06
 -1      1496 1.19908E-03-3.25936E-05 1.71544E-04-5.94650E-04-7.22015E-05-1.26230E-04
 -1      1497 1.15231E-03 1.00348E-03 3.97448E-06 1.16668E-03-7.15558E-05 2.98801E-05
 -1      1498 6.05971E-03 5.49939E-04-3.35128E-04 1.01631E-05 2.40335E-07-1.18408E-04
 -1      1499 6.06728E-03 6.13409E-04 5.52573E-05 1.09480E-05-1.57576E-05 4.72635E-05
 -1      1500 2.83104E-03 7.43042E-04-6.98718E-05-1.62379E-03 4.94448E-05-6.87439E-07
 -1      1501 5.37628E-03 9.89874E-04-4.89294E-05-1.39918E-03 3.07715E-05-2.30529E-05
 -1      1502 5.36641E-03 7.04072E-04-1.98522E-04-4.17587E-04-2.59714E-05-9.36373E-06
 -1      1503 4.74862E-03 5.95047E-04 7.33711E-05-9.85277E-04 4.10939E-05 3.70151E-05
 -1      1504 5.39632E-03 9.51446E-04-3.41718E-05 1.42342E-03-7.24056E-05-1.30539E-04
 -1      1505 4.55677E-03 5.57160E-04-1.53000E-05 1.04846E-03-5.20333E-05-2.16910E-05
 -1      1506 5.48115E-03 7.89680E-04 1.16980E-05 4.54522E-04 1.52276E-05-7.26128E-08
 -1      1507 6.42575E-03 4.18618E-04-3.00584E-05 6.57768E-04 2.62394E-06 3.18481E-06
 -1      1508 6.84440E-03 4.47051E-05 7.74527E-06 1.70807E-04-2.46488E-06 4.64615E-06
 -1      1509 7.10666E-03-1.63633E-05 1.28718E-06 4.25471E-05 1.03738E-07-1.25638E-06
 -1      1510 4.14616E-03-9.47626E-06 5.16188E-05-1.01744E-03-2.70210E-05-2.22225E-04
 -1      1511 2.67111E-03 5.39011E-04 5.58759E-05-1.25980E-03 1.42986E-05-1.64487E-05
 -1      1512 6.96772E-03-6.78254E-06 1.66550E-06 9.71159E-05-3.20920E-06-1.54155E-06
 -1      1513 6.69855E-03 1.44050E-04-5.57461E-07 3.37668E-04 4.44730E-06 9.29455E-06
 -1      1514 5.64045E-03 6.25745E-04 8.94663E-06-7.17627E-04-5.76755E-05-3.00813E-04
 -1      1515 8.19316E-04 1.05359E-03 9.47519E-05-8.66065E-04-1.98637E-05-2.58350E-05
 -1      1516 5.63656E-03 4.71668E-04-3.14258E-05 2.80782E-05-2.73223E-05-9.19171E-06
 -1      1517 5.86647E-03 5.68833E-04-1.02568E-05-5.58220E-06-2.76428E-06 2.75440E-05
 -1      1518 5.68821E-03 9.83115E-04-3.25644E-05-4.57583E-04-2.12582E-05-2.75789E-05
 -1      1519 5.77636E-03 8.68053E-04-1.68514E-05-4.79035E-04-2.67864E-05 3.50072E-05
 -1      1520 6.28498E-03 4.05574E-04-1.73825E-05 3.74911E-04 5.20861E-07 1.10689E-05
 -1      1521 6.13884E-03 6.93710E-04-1.27032E-05 5.06395E-04 1.32503E-05 4.31593E-05
 -1      1522 7.39263E-03 2.19684E-03 3.12738E-04-5.02341E-04 5.69842E-05-3.88928E-06
 -1      1523 6.90715E-03 3.83984E-05 6.56248E-06 8.51354E-05-5.42517E-07 1.79753E-06
 -1      1524 6.86623E-03 8.43485E-05 8.75008E-06 1.30106E-04-8.21685E-07 5.58098E-06
 -1      1525 6.13767E-03 6.98738E-04 2.22385E-04-2.73357E-04-7.15471E-05-4.65850E-04
 -1      1526 4.73577E-03 1.29763E-04-6.77074E-05-5.38410E-04 7.85848E-05 1.32002E-04
 -1      1527 7.02404E-03-5.44799E-06 5.00408E-06 3.67055E-06 7.28781E-07-3.50790E-06
 -1      1528 6.70652E-03 1.81042E-04 1.55743E-06 2.09891E-04 2.50450E-06 1.28571E-05
 -1      1529 6.59017E-03 2.94996E-04 1.26686E-05 3.18706E-04-7.31530E-06 1.16112E-05
 -1      1530 6.78530E-03 1.68187E-04 9.64258E-06 1.06836E-04 2.15836E-06 8.27296E-06
 -1      1531 5.72582E-03 8.51823E-04-3.20691E-05 4.45306E-04 2.36644E-05 7.50334E-06
 -1      1532 5.56779E-03 9.19262E-04-1.62125E-05 3.91092E-04-1.92783E-05-3.83623E-06
 -1      1533 5.27987E-03 7.10693E-04-2.19240E-05 2.83051E-04 3.16262E-05 6.20021E-06
 -1      1534 5.82016E-03 7.78953E-04-8.59497E-06 2.31154E-04 4.83831E-06 3.61122E-05
 -1      1535 5.50033E-03 4.34282E-04-8.47266E-05 5.98748E-05 3.41712E-05 1.87212E-04
 -1      1536 5.63738E-03 5.38881E-04-3.23771E-05-2.55557E-05 1.33999E-05 4.91888E-05
 -1      1537 5.93125E-03 5.54200E-04-6.35513E-05-1.67651E-05-1.96291E-05 1.45910E-04
 -1      1538 1.53468E-03 9.19995E-04 9.66793E-06-1.39577E-03 3.56582E-05 3.75194E-06
 -1      1539 6.04509E-03 4.83707E-04-4.15366E-05-2.61964E-05-2.71018E-05 5.44846E-05
 -1      1540 6.17090E-03 4.46672E-04-4.75548E-05 1.08168E-05 2.00777E-05 1.08219E-04
 -1      1541 3.88307E-03 4.14767E-04-2.10355E-05 1.36836E-03-9.20203E-05 3.54264E-06
 -1      1542 2.88569E-03 6.12399E-04-6.46025E-06 1.36225E-03-6.25788E-05 6.43633E-05
 -1      1543 6.00616E-03 7.47493E-04-2.12462E-05-4.36446E-04-1.15790E-05 5.59330E-05
 -1      1544 6.17026E-03 4.62124E-04-2.60632E-05-2.96045E-04 5.59640E-06 2.25310E-05
 -1      1545 3.11528E-03 5.60033E-04 7.15532E-06-1.32809E-03 2.68701E-05-2.11044E-05
 -1      1546 3.98975E-03 4.31142E-04-4.55080E-05-1.32698E-03 1.00717E-04 1.69793E-05
 -1      1547 1.95753E-03 7.31303E-04 1.88598E-05 1.33011E-03-9.23463E-05 5.76580E-06
 -1      1548 1.25610E-03 7.26603E-04-2.43435E-05 1.08995E-03-4.12631E-05 1.27016E-05
 -1      1549 5.41678E-03 5.40033E-04-4.24773E-05 5.12415E-05 2.16013E-05 1.24647E-05
 -1      1550 5.70445E-03 6.65313E-04-2.51752E-05 4.12770E-05 9.55911E-06 3.93345E-05
 -1      1551 5.70371E-03 7.87799E-04 2.52484E-06-1.49299E-04-6.12042E-06 2.99603E-05
 -1      1552 4.54353E-03 2.41707E-04-5.49253E-05 7.98973E-04-1.22207E-05 2.80927E-05
 -1      1553 6.69161E-03 1.51080E-04 8.40156E-06-2.84021E-04-7.10118E-06 1.00733E-05
 -1      1554 6.57418E-03 3.14612E-04-4.83415E-06-4.17648E-05-4.47058E-06 4.08175E-05
 -1      1555 6.76074E-03 1.75462E-04 5.10926E-06-8.63401E-05-2.01200E-06 2.49951E-05
 -1      1556 6.62283E-03 2.27009E-04-1.04187E-05-1.46462E-04 7.85836E-06 3.59372E-05
 -1      1557 2.93969E-03 4.27891E-04 4.65379E-05 1.21296E-03-4.35555E-05 2.42071E-05
 -1      1558 6.38182E-03 3.87092E-04-4.14582E-05-1.94476E-05-1.04138E-05 7.31278E-05
 -1      1559 6.51371E-03 3.36993E-04-6.19702E-06 2.84517E-06-4.81630E-06 3.64789E-05
 -1      1560 6.96367E-03 1.81590E-05 1.12752E-06-8.54709E-06-1.10870E-06 3.86710E-06
 -1      1561 6.97745E-03 2.37228E-05-1.79680E-06 6.06384E-05-1.68661E-06 2.81771E-06
 -1      1562 6.06459E-03 5.03294E-04-2.72940E-05-1.03666E-05-1.20966E-05 5.34228E-05
 -1      1563 4.34456E-03 1.84537E-04 2.31564E-05 1.04856E-03 6.45560E-05-2.11512E-04
 -1      1564 4.71084E-03 2.54121E-04-7.96246E-06 5.77685E-04 1.06100E-05 2.26670E-05
 -1      1565 6.15332E-03 4.09662E-04-1.02042E-04-1.63795E-05 7.77146E-06 1.50376E-04
 -1      1566 6.25998E-04 7.78149E-04 3.87654E-05 8.54729E-04-2.02421E-05 4.47780E-05
 -1      1567 6.88382E-03 9.47009E-05 7.21001E-06-5.35882E-05 1.34569E-06 1.14405E-05
 -1      1568 5.34664E-03 3.60312E-04-5.38798E-05 3.30404E-04-9.67471E-06-5.00053E-06
 -1      1569 5.91916E-03 5.90538E-04-2.89085E-05 9.48632E-05-1.15286E-05 1.92683E-05
 -1      1570 5.36091E-03 7.66153E-04-1.13839E-05-3.25843E-04 2.77286E-05-2.79157E-05
 -1      1571 5.36842E-03 4.30136E-04-3.07003E-05-2.02648E-04-9.29642E-06 1.10527E-05
 -1      1572 5.40266E-03 5.76104E-04-1.58754E-05-8.00833E-05-3.17770E-07 2.01435E-05
 -1      1573 6.39136E-03 4.66176E-04 1.78325E-05 2.20754E-04 1.83912E-06 1.47336E-05
 -1      1574 4.55237E-03 2.00980E-04-8.16931E-05-6.79386E-04 1.73633E-05-5.74268E-06
 -1      1575 6.43482E-03 3.61733E-04-7.64879E-06 9.11582E-05 9.52939E-07 2.60399E-05
 -1      1576 6.64196E-03 2.67913E-04 5.95684E-06 8.15434E-05-3.72899E-06 2.22846E-05
 -1      1577 6.81264E-03 1.59076E-04 1.13442E-06 2.36333E-05 1.23837E-06 1.67865E-05
 -1      1578 6.19513E-03 4.96199E-04-4.41694E-06 9.88173E-05-3.76912E-06 2.79779E-05
 -1      1579 6.18235E-03 5.26894E-04-4.48931E-05-1.20990E-04 9.29637E-06 5.02469E-05
 -1      1580 6.51225E-03 4.11971E-04 5.31016E-07-2.83763E-04 8.37879E-06 2.54344E-05
 -1      1581-1.15173E-04 4.99972E-04-1.97362E-04-2.69421E-04 2.33432E-05-1.68099E-05
 -1      1582-3.03217E-05 5.61875E-04-3.26082E-04-1.56505E-04-3.59764E-05 8.77027E-06
 -1      1583 1.92658E-05 4.79556E-04-1.95089E-04-1.84045E-04-3.08506E-05 1.20772E-05
 -1      1584-6.36787E-05 6.57390E-04-3.44014E-04-3.25610E-04 8.91388E-05-8.84087E-05
 -1      1585 4.93699E-06 4.12011E-04-2.19214E-04-2.23908E-04 2.64257E-05 5.26614E-06
 -1      1586 1.41001E-06 4.27032E-04-2.46837E-04-1.89783E-04 2.24550E-05-2.11410E-05
 -1      1587 2.59125E-03 2.90153E-03 3.19529E-05 2.54086E-03 5.03549E-04 2.41607E-04
 -1      1588 8.91066E-03 1.34421E-03 5.42509E-04 2.78704E-03 1.98772E-05 3.12934E-05
 -1      1589 9.06926E-03 1.90981E-03 9.58794E-04 3.09257E-03 1.63920E-04 2.28442E-04
 -1      1590 5.89459E-03 2.32076E-03 3.16091E-04 3.18352E-03 2.08215E-04 2.85955E-04
 -1      1591 3.04487E-03 2.78224E-03 1.32495E-04 2.45738E-03 4.29080E-04 3.04027E-04
 -1      1592 9.42801E-03 1.70700E-03 1.13515E-03 3.10156E-03 1.62552E-04 1.39315E-04
 -1      1593 2.87973E-03 2.38872E-03-1.90610E-05 2.63985E-03 2.18269E-04 3.47657E-04
 -1      1594 2.64106E-03 2.72256E-03 4.48631E-05 2.62755E-03 1.61103E-04 1.08528E-04
 -1      1595 2.69107E-03 2.95642E-03 1.44901E-04 2.61341E-03 1.27863E-04 1.32537E-04
 -1      1596 2.89397E-03 2.95651E-03 2.10116E-04 2.60871E-03 9.45838E-05 5.68868E-05
 -1      1597 2.67339E-03 2.81636E-03 1.11590E-04 2.54749E-03 4.38332E-06-3.95170E-05
 -1      1598 5.91130E-03 2.70747E-03 8.46248E-04 3.69192E-03 7.67837E-05 1.32961E-04
 -1      1599 2.54265E-03 2.81540E-03 1.20550E-04 2.54864E-03 1.40741E-05 3.27579E-05
 -1      1600 2.84109E-03 2.79016E-03 1.50538E-04 2.65605E-03-7.32545E-05-2.98057E-05
 -1      1601 5.95239E-03 2.76761E-03 8.93677E-04 3.71790E-03 2.51885E-06-1.89600E-05
 -1      1602 2.76158E-03 2.71620E-03 1.07236E-04 2.63629E-03-1.12125E-04-1.33798E-04
 -1      1603 2.64441E-03 2.52551E-03 2.34583E-05 2.52963E-03-1.43641E-04-1.30460E-04
 -1      1604 6.11706E-03 2.64070E-03 8.47050E-04 3.62010E-03-9.64787E-05-1.18302E-04
 -1      1605 2.81708E-03 2.54075E-03-3.84148E-05 2.52155E-03-1.84078E-04-1.17509E-04
 -1      1606 2.87233E-03 2.44432E-03 4.76743E-05 2.66127E-03-3.28430E-04-1.84530E-04
 -1      1607 6.11222E-03 2.69852E-03 7.98891E-04 3.67366E-03-8.75919E-05-1.14601E-04
 -1      1608 2.22487E-03 2.29235E-03-1.54810E-04 2.71153E-03-3.86131E-04-2.94528E-04
 -1      1609 2.12541E-03 2.17786E-03-1.67608E-04 2.65690E-03-3.51254E-04-3.67031E-04
 -1      1610 6.06429E-03 2.54922E-03 6.92799E-04 3.79748E-03-1.40683E-04-2.83811E-04
 -1      1611 2.73027E-03 2.51798E-03-1.17527E-04 2.51528E-03-3.49334E-04-2.67260E-04
 -1      1612-5.27362E-05 3.65873E-04-4.56680E-04 1.40648E-04 3.07437E-05 2.99188E-05
 -1      1613-5.05488E-05 3.68482E-04-5.03292E-04 1.61476E-04 7.59468E-05 3.53447E-05
 -1      1614 1.77886E-05 5.57582E-04-6.36911E-04 2.05222E-04 1.00184E-04 6.07624E-05
 -1      1615 5.96407E-03 2.45843E-03 3.97720E-04 3.72474E-03-2.86870E-04-2.95164E-04
 -1      1616 9.36743E-03 1.72493E-03 1.32870E-03 3.23810E-03 2.69910E-05 6.70214E-05
 -1      1617 9.36717E-03 1.77988E-03 1.33892E-03 3.23321E-03 7.82472E-05 1.19731E-04
 -1      1618 9.46270E-03 1.49845E-03 1.32429E-03 3.07764E-03-6.36348E-06-3.42052E-06
 -1      1619 9.43679E-03 1.80062E-03 1.42241E-03 3.03367E-03 3.60074E-06 6.44945E-05
 -1      1620 9.45138E-03 1.76592E-03 1.39889E-03 3.06736E-03-2.45576E-05-4.56611E-05
 -1      1621 9.51561E-03 1.46353E-03 1.36850E-03 3.08720E-03-1.63404E-05-1.81141E-06
 -1      1622 9.46809E-03 1.70761E-03 1.34784E-03 3.20173E-03-6.35286E-05-8.96122E-05
 -1      1623 9.44356E-03 1.68520E-03 1.34841E-03 3.21699E-03-4.14763E-05-6.31082E-05
 -1      1624 9.24519E-03 1.73575E-03 1.19385E-03 3.03194E-03-1.12721E-05-5.00955E-05
 -1      1625 9.39836E-03 1.65107E-03 1.27290E-03 2.94107E-03-8.90109E-05-1.38316E-04
 -1      1626 9.14047E-03 1.92927E-03 9.77960E-04 3.25795E-03-1.01942E-04-1.88683E-04
 -1      1627 9.20483E-03 1.93237E-03 1.13427E-03 3.28033E-03-1.03316E-04-1.41997E-04
 -1      1628-4.59651E-06 4.30671E-04-5.39046E-04 1.38186E-04-1.77641E-05-5.76359E-06
 -1      1629 9.51529E-03 1.66520E-03 1.21262E-03 3.05954E-03 1.29677E-05 1.45970E-04
 -1      1630 6.62684E-03 2.52728E-03 8.19738E-04 3.69603E-03 2.70788E-04 2.78037E-04
 -1      1631 2.62172E-03 2.31262E-03 9.55842E-06 2.77136E-03 2.22258E-04 1.82394E-04
 -1      1632 9.48175E-03 1.93227E-03 1.38245E-03 3.03985E-03 3.77261E-05 9.86093E-05
 -1      1633 2.84172E-03 2.85541E-03 1.03733E-04 2.63417E-03 2.14527E-04 8.01887E-05
 -1      1634 6.04861E-03 2.74886E-03 8.17121E-04 3.69541E-03 6.88700E-05 1.05606E-04
 -1      1635 8.77150E-03 1.45292E-03 5.73105E-04 2.70112E-03-5.66137E-05-1.56718E-04
 -1      1636 2.90836E-03 2.81563E-03 9.71679E-05-2.61961E-03-4.50724E-04 2.62095E-04
 -1      1637 8.98937E-03 1.21572E-03 5.37899E-04-2.71688E-03 7.03190E-07 1.01123E-04
 -1      1638 5.77164E-03 2.24172E-03 3.26913E-04-3.05539E-03-2.29177E-04 2.49277E-04
 -1      1639 9.43326E-03 1.56528E-03 9.12373E-04-2.73446E-03-5.74624E-05 6.94044E-05
 -1      1640 9.46630E-03 1.29398E-03 9.69236E-04-2.72317E-03-9.87927E-05 1.13043E-04
 -1      1641 3.11003E-03 2.67574E-03 1.08666E-04-2.56986E-03-2.62993E-04 3.47300E-04
 -1      1642 3.14684E-03 2.65103E-03 1.46173E-04-2.61453E-03-3.51848E-04 2.96074E-04
 -1      1643 3.29107E-03 2.98100E-03 2.93160E-04-2.67096E-03-1.14088E-04 9.24686E-05
 -1      1644 3.35504E-03 2.85031E-03 2.90334E-04-2.66640E-03-2.25118E-04 1.95183E-04
 -1      1645 2.90121E-03 2.74499E-03 1.54836E-04-2.44215E-03 1.86333E-04-1.97173E-04
 -1      1646 2.88884E-03 2.70831E-03 1.26473E-04-2.47677E-03-1.01636E-05 4.99690E-05
 -1      1647 2.53165E-03 3.23101E-03 1.49711E-04-2.58813E-03 3.56491E-04-2.57358E-04
 -1      1648 2.98942E-03 2.71868E-03 1.35127E-04-2.51151E-03 1.79950E-04-7.02878E-05
 -1      1649 2.52970E-03 2.80254E-03-1.70622E-05-2.52377E-03 4.71725E-04-2.59513E-04
 -1      1650 9.62334E-03 1.52950E-03 1.32641E-03-2.61336E-03-6.37086E-06 1.03346E-04
 -1      1651 9.33987E-03 1.91591E-03 1.40397E-03-2.75124E-03-3.33510E-05 9.48446E-05
 -1      1652 9.34808E-03 1.98285E-03 1.43958E-03-2.83911E-03 7.29383E-05-2.17466E-05
 -1      1653 9.76498E-03 1.63522E-03 1.45440E-03-2.69301E-03-3.60465E-05-3.32757E-05
 -1      1654 9.24800E-03 1.55712E-03 1.22085E-03-2.63345E-03 6.44652E-05-9.74987E-05
 -1      1655 9.40662E-03 1.32342E-03 1.12071E-03-2.59433E-03 5.62963E-05-1.63779E-04
 -1      1656 8.91189E-03 1.21764E-03 4.97720E-04-2.78922E-03 5.97459E-05-9.60620E-05
 -1      1657 5.83313E-03 2.34396E-03 2.73402E-04-3.27685E-03 2.25475E-04-3.86386E-04
 -1      1658 2.60404E-03 2.85711E-03 6.98759E-05-2.57589E-03 4.37490E-04-3.17064E-04
 -1      1659 2.52469E-03 3.20405E-03 8.57068E-05-2.59022E-03 3.64599E-04-2.13243E-04
 -1      1660 9.19430E-03 1.52176E-03 8.28135E-04-2.66251E-03 1.16070E-04-1.03948E-04
 -1      1661 9.31227E-03 2.00215E-03 1.43435E-03-3.13440E-03 2.10322E-05 3.57009E-05
 -1      1662 6.14542E-03 2.47361E-03 8.18302E-04-3.36840E-03 6.43121E-05 4.52984E-05
 -1      1663 6.48323E-03 2.48533E-03 9.71043E-04-3.40961E-03-1.23017E-04 2.24812E-04
 -1      1664 3.07322E-03 2.85720E-03 2.34871E-04-2.60041E-03-2.19571E-04 1.17984E-04
 -1      1665 3.36004E-03 2.71889E-03 2.70763E-04-2.64103E-03-2.92694E-04 1.94145E-04
 -1      1666 9.78500E-03 1.56887E-03 1.34034E-03-2.62057E-03-7.61708E-05 1.41673E-04
 -1      1667 5.70029E-03 2.43178E-03 6.32098E-04-3.04479E-03 2.35138E-04-2.85477E-04
 -1      1668 3.19214E-03 2.97375E-03 3.07629E-04-2.65497E-03-9.15290E-05 4.44699E-05
 -1      1669 6.28456E-03 2.52342E-03 7.65654E-04-3.40760E-03-8.38803E-05-4.67009E-07
 -1      1670 3.16615E-03 2.74867E-03 2.63987E-04-2.68059E-03-8.29797E-05 4.73812E-05
 -1      1671 6.41845E-03 2.51897E-03 8.08295E-04-3.41075E-03 1.23948E-04-2.82005E-06
 -1      1672 3.05347E-03 2.57782E-03 2.24619E-04-2.58348E-03 1.40766E-04-8.32165E-05
 -1      1673 3.01856E-03 2.63042E-03 1.85564E-04-2.62653E-03 1.19470E-04-1.29056E-04
 -1      1674 9.44809E-03 1.61206E-03 1.31526E-03-2.97609E-03 4.45357E-05-6.62085E-05
 -1      1675 9.50334E-03 1.55042E-03 1.20618E-03-2.71541E-03-1.16406E-04 1.64012E-04
 -1      1676 9.36016E-03 1.97656E-03 1.40833E-03-3.12860E-03-8.53421E-05-5.12989E-06
 -1      1677 6.73979E-03 2.36660E-03 7.08430E-04-3.33826E-03-1.84077E-04 3.28796E-04
 -1      1678 6.40299E-03 2.47942E-03 9.09285E-04-3.41964E-03 1.05218E-06-1.77083E-04
 -1      1679 9.85958E-03 1.80062E-03 1.43495E-03-2.78041E-03 2.15669E-05-1.47531E-04
 -1      1680 9.46916E-03 1.29659E-03 1.00387E-03-2.60717E-03 1.00921E-04-1.42241E-04
 -1      1681 1.27467E-03 1.53106E-03 7.84156E-06-1.46828E-03-8.70484E-08-5.66516E-05
 -1      1682 7.27077E-04 1.10575E-03 5.92390E-05-9.36535E-04 4.70712E-06-2.12438E-05
 -1      1683 7.09509E-04 1.03379E-03 7.91933E-05-8.32410E-04-6.27381E-07 1.07123E-06
 -1      1684 5.58726E-04 8.80992E-04 1.84668E-05-7.35866E-04-4.99068E-07-4.55017E-05
 -1      1685 1.19836E-03 9.13873E-04-1.26591E-05-1.30423E-03-3.58301E-05-3.25600E-05
 -1      1686 2.07242E-04 3.15718E-05 7.23315E-06-6.57934E-05 6.74571E-06 2.04880E-06
 -1      1687 1.50343E-04-1.69244E-05 9.35666E-06-1.66237E-05 9.15993E-06 5.34804E-06
 -1      1688 1.00147E-04-2.36543E-05 4.42658E-06 1.99049E-06 4.50281E-06 3.19408E-06
 -1      1689 6.04352E-05-9.13250E-07 2.59199E-06 3.74039E-06 1.83371E-06 1.15235E-06
 -1      1690 3.57029E-05-2.17532E-06 2.25254E-06 1.33196E-05 1.91349E-06 8.73112E-07
 -1      1691 2.21414E-05 2.28894E-06 1.00379E-06 6.36758E-06 8.69253E-07 3.69378E-07
 -1      1692 1.13856E-05 2.20024E-06 9.13253E-07 7.92096E-06 8.44224E-07 1.89541E-07
 -1      1693 7.82200E-06 2.37735E-06 3.60712E-07 4.04050E-06 3.16143E-07 9.37211E-08
 -1      1694 3.22935E-06 2.36303E-06 3.16744E-07 3.56496E-06 4.05330E-07-6.64856E-08
 -1      1695 1.08102E-06 1.98328E-06 4.58854E-08 2.59786E-06 2.04532E-07 5.53642E-08
 -1      1696 7.18414E-07 1.43148E-06 9.38041E-08 1.26513E-06 1.03342E-07-1.17538E-07
 -1      1697 1.33943E-07 1.23634E-06 8.69701E-08 8.70424E-07 6.33782E-08-4.15435E-08
 -1      1698 2.20024E-07 7.89000E-07 4.65048E-08 4.13155E-07 2.59084E-08-1.62012E-08
 -1      1699-5.75947E-08 6.34612E-07 3.79132E-08 1.83052E-07 2.90053E-08-1.97361E-08
 -1      1700 4.21708E-08 3.79715E-07 1.41954E-08 1.05160E-07 1.08646E-08-7.17303E-09
 -1      1701-3.20505E-08 2.61525E-07 1.36897E-08 1.03676E-08 1.00323E-08-1.18211E-08
 -1      1702-4.01022E-08 1.80900E-07 9.13689E-09-1.29295E-08 7.48143E-09-8.75845E-09
 -1      1703 2.17279E-09 1.13103E-07 5.33707E-09-6.77170E-09 3.04077E-09-5.04088E-09
 -1      1704 1.51615E-09 7.80688E-08 5.00698E-09-2.01274E-08 2.00023E-09-3.94180E-09
 -1      1705 9.56363E-09 5.92278E-08 3.37580E-09 2.23093E-09 9.98021E-10-3.18998E-09
 -1      1706 9.11788E-09 5.68393E-08 3.37338E-09-2.43786E-09 2.45224E-10-2.39566E-09
 -1      1707-1.89575E-09 7.95687E-08 6.31181E-09 1.91503E-08-1.04823E-09-5.41650E-09
 -1      1708-4.18860E-09 1.08653E-07 8.84054E-09 1.69978E-08-3.95321E-09-6.20559E-09
 -1      1709 1.26845E-08 1.74209E-07 8.85473E-09-1.46197E-08-4.63201E-09-4.42233E-09
 -1      1710-4.04895E-08 2.89248E-07 1.68152E-08-1.10767E-08-1.11549E-08-1.16158E-08
 -1      1711 3.77986E-08 4.04316E-07 1.91568E-08-1.08282E-07-1.39112E-08-8.78370E-09
 -1      1712-6.43189E-08 6.66933E-07 3.93408E-08-1.96415E-07-2.96236E-08-2.17632E-08
 -1      1713 1.87562E-07 8.23013E-07 3.75662E-08-4.31424E-07-3.55507E-08-1.41138E-08
 -1      1714 9.96182E-08 1.19707E-06 7.97399E-08-9.05738E-07-9.56267E-08-3.22652E-08
 -1      1715 6.24449E-07 1.54304E-06 1.11119E-07-1.35153E-06-1.31240E-07-3.48299E-08
 -1      1716 2.34866E-06 1.76637E-06 1.46955E-07-1.90370E-06-1.28342E-07 6.06611E-09
 -1      1717 3.01314E-06 2.42533E-06 3.56654E-07-3.67629E-06-3.53336E-07 3.07235E-09
 -1      1718 7.68410E-06 2.51676E-06 4.43478E-07-4.03954E-06-3.53913E-07 7.73770E-08
 -1      1719 1.16624E-05 2.22232E-06 9.60239E-07-8.22535E-06-8.38021E-07 1.73708E-07
 -1      1720 2.17543E-05 1.67347E-06 1.00699E-06-6.84866E-06-7.59344E-07 3.34933E-07
 -1      1721 3.68858E-05-6.61393E-06 1.90229E-06-1.23550E-05-2.08191E-06 1.15203E-06
 -1      1722 5.64534E-05-6.40253E-06 2.65045E-06-1.02802E-05-2.74701E-06 1.57130E-06
 -1      1723 9.17162E-05 3.63422E-06 3.49756E-06 7.71114E-06-2.12985E-06 2.49217E-06
 -1      1724 1.47032E-04-2.33690E-05 7.60687E-06 9.12746E-06-5.32571E-06 6.20139E-06
 -1      1725 2.11339E-04 2.99426E-05 1.36426E-05 6.69609E-05-6.35989E-06 6.42349E-06
 -1      1726 3.68122E-04 4.08143E-04 2.15622E-05 4.51066E-04-4.39996E-06 9.81939E-06
 -1      1727 3.63597E-04 6.00903E-04 2.99297E-05 4.97863E-04 1.18197E-06 1.35831E-05
 -1      1728 8.56034E-04 1.15305E-03 7.02174E-05 1.01086E-03-8.86519E-06 7.52945E-06
 -1      1729 1.39258E-03 1.63932E-03 6.33368E-06 1.53382E-03-2.39967E-07-7.34587E-05
 -1      1730 4.29314E-03 1.11580E-03-8.95031E-05-2.00480E-03-1.53984E-04 7.53683E-05
 -1      1731 2.34863E-03 9.93430E-04-4.66838E-05-1.47723E-03-1.54307E-05 5.39219E-05
 -1      1732 6.59248E-03 8.10314E-04-6.28333E-05-9.16559E-04 9.59318E-05 4.73413E-05
 -1      1733 5.75101E-03 1.35976E-03-9.34832E-05-1.62046E-03 1.37655E-05 1.25966E-04
 -1      1734 2.06847E-03 1.19923E-03-4.45180E-05 1.55944E-03 7.49101E-05 7.09723E-05
 -1      1735 4.27152E-03 1.47134E-03 1.67702E-06 2.22747E-03 1.36531E-04 1.33384E-04
 -1      1736 5.78120E-03 1.35917E-03-7.43910E-05 1.64764E-03-2.57140E-05 1.28857E-04
 -1      1737 6.62441E-03 8.14780E-04-3.96576E-05 8.97601E-04-8.41274E-05 9.11156E-05
 -1      1738 6.47002E-03 2.49298E-04-4.94752E-05-6.00697E-04-9.25449E-07-4.28926E-05
 -1      1739 6.97998E-03 5.79699E-04-6.59470E-06-9.78583E-04-8.10991E-06-4.94782E-05
 -1      1740 6.77427E-03 3.34564E-05 1.15127E-05-2.18598E-04 2.28302E-06-1.36160E-05
 -1      1741 6.73033E-03 4.96961E-05 2.09684E-05-2.49994E-04-4.86212E-06-2.19103E-06
 -1      1742 7.07972E-03-2.96550E-06 4.36793E-07-1.47574E-04 1.39990E-07-2.07654E-07
 -1      1743 6.97845E-03-2.31420E-06-2.95711E-08-1.39635E-04 2.55218E-07 2.15386E-06
 -1      1744 7.59320E-03 3.45308E-05 1.86225E-05-1.26662E-04-1.59296E-05-4.80736E-05
 -1      1745 7.43191E-03-1.18484E-05 1.90831E-06-1.20636E-04 3.21926E-06-3.82644E-06
 -1      1746 7.09672E-03 4.75230E-04-3.87387E-05 9.67664E-04-1.74066E-05-7.91226E-05
 -1      1747 6.44015E-03 1.22932E-04-1.05111E-04 5.27518E-04-1.62354E-05-4.82575E-05
 -1      1748 6.80644E-03 1.07487E-04 5.57075E-05 4.20966E-04 2.72383E-05-1.16006E-05
 -1      1749 6.72934E-03 7.41608E-05 2.48913E-05 3.61077E-04 9.17476E-06-5.62922E-06
 -1      1750 6.59038E-03 3.41288E-04-1.52977E-06 7.09204E-04-2.42454E-05-3.32056E-05
 -1      1751 6.82268E-03 9.04006E-06 1.00487E-05 1.68019E-04 5.38788E-06 4.05278E-06
 -1      1752 6.88559E-03 9.71228E-06 6.04808E-06 1.57544E-04-9.12221E-07 1.33584E-06
 -1      1753 6.95329E-03-9.89374E-07-1.01256E-06 1.21023E-04-1.56360E-07 1.19670E-06
 -1      1754 7.03045E-03-2.89102E-06 4.66073E-07 1.26286E-04 4.39411E-08 2.24100E-06
 -1      1755 6.98001E-03-2.04182E-06 4.76611E-06 7.87869E-05 8.42516E-07-3.73069E-07
 -1      1756 7.11768E-03-4.56963E-06-5.69917E-07 1.06565E-04-1.06396E-06 2.19273E-06
 -1      1757 7.21060E-03-7.20901E-06-3.07580E-06 1.14263E-04-3.49571E-06 2.42021E-06
 -1      1758 7.11793E-03-1.43533E-05 1.91851E-07 2.60412E-05-8.40733E-07 1.07779E-06
 -1      1759 7.36180E-03-7.25695E-06-2.99335E-06 1.20490E-04-6.35014E-06-2.21447E-06
 -1      1760 7.53617E-03-8.09621E-06 1.21958E-05 1.49712E-04-1.40213E-05-1.15435E-05
 -1      1761 7.57719E-03-5.78598E-05-1.21138E-05 1.38813E-04-1.37981E-05-5.37918E-05
 -1      1762 7.89988E-03 9.31756E-05 3.94229E-05 2.96960E-04 3.00987E-05 5.20148E-06
 -1      1763 8.71438E-03 4.52381E-04-2.97826E-04-6.62081E-04-6.07135E-06 1.37832E-04
 -1      1764 2.88746E-03 1.71144E-03-1.48566E-03-1.30827E-03-1.51434E-04 7.06555E-04
 -1      1765 5.51339E-03 8.74628E-03-1.43014E-04-4.42376E-03-2.92410E-04 5.31473E-04
 -1      1766 6.99082E-03 4.14071E-03 7.23986E-04 2.21946E-04-1.55590E-04-4.47864E-05
 -1      1767 1.05494E-02 4.29616E-04 5.13309E-04-3.98182E-03-3.13570E-04-7.24582E-04
 -1      1768 4.40370E-03-7.64720E-03-1.78810E-03-7.07250E-04-3.49555E-04 2.56126E-05
 -1      1769 1.19882E-02-1.60268E-03 1.70926E-05-2.63862E-03-5.81369E-05 4.31339E-04
 -1      1770 6.48752E-03-1.44073E-03 1.69128E-04 1.22442E-03 2.61361E-04 4.64397E-04
 -1      1771 3.58706E-03 1.16490E-03-1.59558E-04-4.99115E-04 1.86599E-04 3.71816E-04
 -1      1772 2.36344E-03 9.65590E-04-5.61636E-04 1.20084E-03 2.76562E-04-1.78200E-04
 -1      1773 4.37732E-03 3.44250E-04-3.36292E-04-1.98525E-03 3.00559E-04-5.22040E-05
 -1      1774 1.28813E-03-4.29455E-04-2.33636E-04-8.94013E-04-4.96535E-05-2.85771E-04
 -1      1775 4.26898E-03-2.26552E-03-7.12805E-05-6.62328E-04 4.27061E-05-3.31336E-04
 -1      1776 5.08364E-03-1.34725E-03-2.93530E-05 1.92952E-03-1.64421E-04-2.92123E-04
 -1      1777 1.51587E-03-3.19318E-03-6.48072E-05 1.52322E-03-3.15690E-04 6.51374E-05
 -1      1778 5.66427E-05 8.89527E-04 2.54113E-04 2.42341E-03-6.24953E-04 1.77246E-05
 -1      1779-1.10769E-03-3.34759E-04-4.14181E-04 2.26417E-03 1.91898E-04 2.39512E-04
 -1      1780-1.72876E-03 2.34654E-03 1.54824E-04 3.63293E-05 3.17496E-05 4.80627E-04
 -1      1781-1.18623E-03-2.71137E-04-3.79802E-04-2.22619E-03-1.51626E-04 2.41484E-04
 -1      1782 1.03099E-04 7.94952E-04 2.78763E-04-2.34335E-03 5.28279E-04 1.87179E-04
 -1      1783 1.72989E-03-3.22082E-03 1.39569E-04-1.48818E-03 3.22607E-04 1.09666E-04
 -1      1784 5.08195E-03-1.36924E-03-1.12921E-04-1.90425E-03 1.09901E-04-3.22130E-04
 -1      1785 4.29832E-03-2.30591E-03-9.82763E-05 6.09598E-04-4.59504E-05-3.37809E-04
 -1      1786 1.14882E-03-4.13135E-04-2.61648E-04 8.99898E-04 4.44404E-05-2.77898E-04
 -1      1787 4.33384E-03 3.65017E-04-3.31392E-04 2.04258E-03-3.10412E-04-3.77921E-05
 -1      1788 2.29299E-03 1.07454E-03-5.24326E-04-1.20597E-03-3.62263E-04-1.97037E-04
 -1      1789 3.12025E-03 1.51450E-03-7.11378E-05 6.15239E-04-2.74394E-06 2.10221E-04
 -1      1790 7.22564E-03-1.05429E-03-1.69292E-04-1.21089E-03-5.32530E-04 1.41765E-04
 -1      1791 1.21949E-02-1.96454E-03-3.66914E-05 2.73401E-03-2.63256E-04 6.82142E-04
 -1      1792 6.76253E-03-7.67986E-03-1.21729E-03 1.75578E-03 4.66523E-04-5.56661E-04
 -1      1793 9.92244E-03-1.04706E-03 1.74881E-03 4.33317E-03 1.46237E-04-4.70366E-04
 -1      1794 6.70275E-03 1.34463E-03 2.92845E-04-4.86649E-05 6.91927E-05 5.57617E-04
 -1      1795 6.35410E-03 8.04195E-04 1.41323E-04-3.66037E-04 8.66170E-05 4.72883E-04
 -1      1796 4.68245E-03 2.31101E-04 3.85567E-04-9.12226E-04 7.02156E-05 5.46895E-04
 -1      1797 6.27414E-03 9.83129E-04 8.32324E-04-6.27495E-04 1.54821E-04 8.39302E-04
 -1      1798 1.42723E-03 1.70794E-04 1.76990E-05-8.17703E-04-1.16514E-05 7.81293E-05
 -1      1799 2.63538E-03 4.29234E-04 4.32137E-04-1.04718E-03 7.86337E-05 3.18373E-04
 -1      1800 3.12748E-04-1.67103E-05 7.84509E-06-1.21796E-04 1.50666E-05 1.02735E-05
 -1      1801 3.26358E-04-1.93357E-05 2.30527E-05 1.25055E-04-1.27576E-05 1.23767E-05
 -1      1802 2.83782E-03 3.86670E-04 2.60786E-04 1.07722E-03-8.81467E-05 2.42362E-04
 -1      1803 1.63127E-03 1.28903E-04-2.53170E-05 9.08880E-04 5.68613E-06 9.81477E-05
 -1      1804 6.85393E-03 1.30582E-03 3.94149E-04-6.16481E-06-6.34186E-05 6.00447E-04
 -1      1805 6.60007E-03 9.70463E-04 8.68008E-05 1.56420E-04-8.34853E-05 4.04015E-04
 -1      1806 4.02146E-03-7.87948E-04 1.32231E-03 2.62574E-03 4.12766E-04-2.43100E-04
 -1      1807 3.84646E-03-8.24279E-04 1.26932E-03-2.53315E-03-1.61488E-04-1.38653E-04
 -1      1808-8.65718E-04-1.80675E-03 7.36209E-04 9.32435E-05 5.51791E-05 2.53842E-05
 -1      1809 6.13062E-03 8.66336E-03 2.52387E-04 3.94547E-03 9.34356E-04 4.35281E-04
 -1      1810 3.41799E-04 5.71975E-04 2.71437E-05-5.04452E-04 3.15389E-05-2.11530E-05
 -1      1811 3.83566E-04 4.50215E-04 2.75117E-06-4.81352E-04-6.06286E-06-9.38186E-06
 -1      1812 7.46902E-04 5.27565E-04-8.93757E-05-8.05773E-04-1.42560E-05-4.42913E-06
 -1      1813 7.97950E-04 5.78376E-04-5.09905E-05 8.37174E-04 4.72059E-05 1.40002E-05
 -1      1814 1.12506E-03-9.48629E-06 1.49934E-04 5.84856E-04-6.75139E-05 1.20835E-04
 -1      1815 3.77461E-04 6.94231E-05 3.02603E-06 2.30545E-04-2.19190E-05 1.36218E-05
 -1      1816 6.63018E-03 1.13140E-03 2.39883E-04 1.62066E-05 5.69273E-05 4.05215E-04
 -1      1817 6.00884E-03 4.51610E-04-1.18207E-04 5.06151E-06 3.30314E-05-1.94728E-04
 -1      1818 6.00132E-04 9.20827E-04 5.55952E-05 7.66350E-04 4.40916E-06 4.93962E-06
 -1      1819 2.73180E-03 8.74497E-04-3.54723E-05 1.63998E-03 2.90055E-05-1.02185E-05
 -1      1820 2.81751E-03 9.18716E-04 9.12689E-05-1.56462E-03-1.64267E-05 4.90048E-06
 -1      1821 6.13818E-03 1.17884E-03 1.10212E-04 8.59804E-04-6.36553E-05 3.87799E-06
 -1      1822 5.86383E-03 1.26323E-03 3.24168E-05-7.84469E-04 4.78804E-05-1.46367E-05
 -1      1823 6.69121E-03 9.22612E-05 1.16050E-05-3.49017E-04 3.74460E-06-1.45157E-05
 -1      1824 6.80886E-03 1.61102E-04 1.23662E-05-4.56945E-04-1.00420E-05-2.99914E-05
 -1      1825 6.92625E-03 6.57414E-06 6.27182E-06-1.40557E-04 2.03432E-06-1.47413E-06
 -1      1826 6.84847E-03 2.05670E-05 6.14656E-06-1.49139E-04-2.95983E-06-3.27633E-06
 -1      1827 7.35004E-03-1.00859E-05 3.32478E-07 7.89365E-06-1.45101E-06-2.15001E-06
 -1      1828 8.78686E-03 3.96189E-04-3.46015E-04 3.01272E-04-9.13902E-05 1.27978E-04
 -1      1829 7.78699E-03-1.23228E-04 4.62288E-05-3.29456E-04-9.30111E-06-2.45713E-05
 -1      1830 2.98482E-03 1.21768E-03-1.51796E-03 5.11924E-04-1.66285E-04 5.22280E-04
 -1      1831 6.77470E-03 5.11256E-05 8.75930E-07 1.92486E-04 3.40346E-06 1.48985E-06
 -1      1832 6.85338E-03 8.41166E-05 4.45536E-06 1.43129E-04-2.98496E-07-8.94994E-06
 -1      1833 6.74306E-03 5.52310E-05 8.25778E-06 2.59528E-04 1.52228E-06-6.15201E-06
 -1      1834 6.67620E-03 6.51881E-05 1.24285E-05 2.98014E-04-4.66816E-06-1.13957E-05
 -1      1835 7.90761E-03-5.52275E-06 2.24566E-05-6.24803E-06-1.37917E-05-1.22062E-05
 -1      1836 5.29718E-04-3.12454E-06 1.05900E-05-2.94368E-04 3.43090E-05 2.32312E-05
 -1      1837 9.98121E-04-4.74355E-05 1.11719E-04-5.08576E-04 6.78062E-05 9.85357E-05
 -1      1838 5.59616E-04 1.47374E-05 2.89651E-05 3.24103E-04-3.02373E-05 2.84640E-05
 -1      1839 5.28052E-03 3.37877E-04-1.18034E-04 1.50364E-04 6.32614E-05-2.68870E-04
 -1      1840 6.35979E-03 8.64368E-04 9.60061E-05 4.85382E-04-4.68446E-05 4.02589E-04
 -1      1841 5.09129E-03 2.13572E-04 8.97769E-05 7.81473E-04-1.77783E-05 2.02282E-04
 -1      1842 5.38276E-03 9.16452E-04 4.05213E-05-1.18797E-03-4.27242E-05 1.43232E-04
 -1      1843 4.73428E-03 4.07043E-04 3.61728E-05-8.03317E-04-6.85460E-05-7.90706E-05
 -1      1844 5.31949E-03 6.86369E-04-9.10807E-05-2.73338E-04 1.00169E-04-5.62293E-05
 -1      1845 6.42274E-03 4.60426E-04-2.48867E-06-6.64286E-04 9.98724E-06-2.03039E-05
 -1      1846 5.31650E-03 9.26548E-04 9.30792E-06 1.37248E-03 6.91647E-05 1.19286E-04
 -1      1847 5.39937E-03 7.12159E-04-3.33432E-06 3.51578E-04-7.14220E-05-1.48891E-05
 -1      1848 4.53201E-03 4.66590E-04-5.78559E-06 1.05722E-03 5.29919E-05 1.81541E-05
 -1      1849 6.86432E-03 3.99008E-05-1.40697E-06-1.43043E-04-6.40874E-06-1.19807E-05
 -1      1850 7.00492E-03-1.76024E-06 2.04702E-06-7.67742E-05-1.29234E-06-1.78843E-06
 -1      1851 6.69636E-03 1.44555E-04 2.11861E-06-3.54687E-04 6.11479E-06 6.18344E-07
 -1      1852 2.71075E-03 6.40435E-04 8.29667E-06 1.40829E-03 3.96634E-05-2.85939E-05
 -1      1853 3.62708E-03 4.56175E-04-3.74671E-05 1.50407E-03 8.90240E-05-2.35694E-05
 -1      1854 3.80240E-04 1.03683E-04 2.26451E-05-2.31786E-04-1.54978E-05 1.24680E-05
 -1      1855 6.32452E-03 4.00615E-04-9.37579E-06 1.38110E-05-1.01323E-05-5.12510E-05
 -1      1856 6.21022E-03 4.48602E-04 1.62891E-05-1.16313E-05 1.13568E-05-2.86396E-05
 -1      1857 8.21295E-04 1.09751E-03 1.12634E-04 8.83918E-04 5.37278E-07 2.88729E-05
 -1      1858 6.32077E-03 4.29750E-04-1.75991E-05-3.89909E-04 7.46453E-06-4.78911E-06
 -1      1859 6.11522E-03 6.85543E-04-6.90224E-06-5.02570E-04 1.33040E-05-2.58217E-05
 -1      1860 6.88889E-03 7.87515E-05 8.86276E-06-8.82478E-05-9.23138E-07-8.29330E-06
 -1      1861 6.79021E-03 1.41925E-04 1.21124E-05-1.61565E-04-3.92601E-06-2.65330E-05
 -1      1862 7.27031E-03-3.37093E-06-1.36886E-06-1.09964E-04-6.94772E-07-1.84893E-07
 -1      1863 7.15687E-03-6.73113E-06-2.20847E-06-1.03701E-04 5.33974E-07 1.45861E-06
 -1      1864 6.83223E-03 1.05018E-04 3.13981E-06 1.01700E-04 3.41568E-06-1.28085E-05
 -1      1865 6.91323E-03 4.67743E-05 2.12196E-06 7.27139E-05-1.96758E-07-3.68654E-06
 -1      1866 7.05287E-03-1.25238E-05 4.07749E-08-9.28407E-06-1.29715E-06 3.24884E-06
 -1      1867 7.00734E-03 1.20004E-06 5.18665E-06-1.81231E-05-2.83062E-07-4.02992E-07
 -1      1868 1.97190E-03 6.15258E-04-1.08414E-04-1.16615E-03-1.28384E-05 1.84009E-05
 -1      1869 3.70538E-03 4.05770E-04 5.75172E-04-1.08491E-03 9.11064E-05 5.08595E-04
 -1      1870 4.04026E-03 1.22369E-04 2.42717E-06 1.18968E-03-2.41335E-05 1.24581E-04
 -1      1871 2.33613E-03 6.09116E-04 1.86260E-05 1.27708E-03-7.08920E-06-6.34569E-05
 -1      1872 5.64745E-03 9.59061E-04-2.67416E-05 4.48771E-04-5.55423E-05 2.11488E-05
 -1      1873 6.05216E-03 8.25621E-04 8.33579E-06 6.57293E-04-3.86107E-05-8.04982E-05
 -1      1874 5.70267E-03 8.07166E-04-5.74602E-05-4.07517E-04 2.35822E-05-3.48151E-05
 -1      1875 5.63783E-03 8.45717E-04-9.85427E-05-3.07207E-04 4.19766E-05-3.45735E-05
 -1      1876 5.84929E-03 7.33219E-04 7.47771E-06-1.91275E-04-2.77740E-06-1.90700E-05
 -1      1877 6.37389E-03 5.31614E-04-3.72868E-05 6.75732E-04-2.01217E-05-5.27734E-05
 -1      1878 6.46344E-03 3.29575E-04-6.99425E-06 5.23877E-04-6.37883E-06-2.94063E-05
 -1      1879 4.42488E-03 2.38895E-04 1.62100E-05 9.14621E-04-7.33393E-06-1.64886E-05
 -1      1880 5.43322E-03 6.63363E-04 9.77651E-07-2.28627E-04-9.09462E-06-4.07655E-05
 -1      1881 1.42026E-03 9.62237E-04 2.37602E-06 1.35829E-03 1.45531E-05 1.49102E-05
 -1      1882 7.13440E-03-1.17238E-05 2.91659E-07-3.49925E-05-1.58927E-06 2.04708E-07
 -1      1883 5.56292E-03 7.68785E-04-8.29491E-05 2.80489E-04-4.11918E-06-1.01183E-05
 -1      1884 5.62800E-03 7.96883E-04-5.63793E-06 1.80779E-04 7.08521E-06-7.14878E-06
 -1      1885 5.26606E-03 5.30601E-04-4.88832E-06 1.89789E-04-1.28250E-05-4.04403E-05
 -1      1886 6.62817E-03 1.94368E-04-7.04155E-06-2.08175E-04-8.01380E-06-2.13614E-05
 -1      1887 6.55864E-03 3.46292E-04-7.95777E-07-3.35717E-04-1.29247E-05-3.53621E-06
 -1      1888 6.93304E-03 4.26227E-05 6.11656E-06-2.84955E-05-2.99742E-07-7.67969E-06
 -1      1889 6.84938E-03 1.11736E-04 6.53477E-06-2.78843E-05-1.40834E-06-1.24332E-05
 -1      1890 6.97890E-03 2.81630E-05-1.69318E-07 4.20203E-05-4.90732E-07-1.17216E-06
 -1      1891 4.02725E-03 3.43158E-04-1.15742E-04-9.95185E-04-5.97004E-05 1.25023E-04
 -1      1892 4.88321E-03 1.85797E-04 8.32388E-06-4.45543E-04 6.92039E-06 6.41380E-05
 -1      1893 4.40592E-03 3.47205E-04 6.54266E-05-1.03743E-03-3.20902E-05 2.79221E-05
 -1      1894 6.09434E-03 6.91933E-04-7.32539E-06 4.77848E-04 1.15686E-05-2.24444E-05
 -1      1895 5.78558E-03 5.29950E-04-1.24046E-04-6.61142E-06-4.61357E-06-1.00063E-04
 -1      1896 5.99900E-03 5.42945E-04 2.84771E-05 3.63467E-05 1.33125E-06-3.83403E-05
 -1      1897 5.85148E-03 6.00233E-04-1.43656E-05 1.27867E-04 8.87051E-06-3.68787E-05
 -1      1898 4.31571E-03 1.71203E-04-3.47456E-05 7.68604E-04-8.17463E-06-2.36957E-05
 -1      1899 5.10094E-03 2.33291E-04-1.84539E-05 4.12854E-04 1.14427E-05-9.10394E-06
 -1      1900 3.26210E-03 4.17582E-04 5.82701E-06-1.43575E-03-3.58085E-05 4.11039E-05
 -1      1901 6.67143E-03 2.60187E-04 5.81073E-06-1.25025E-04-4.10762E-07-2.21306E-05
 -1      1902 6.35903E-03 3.96929E-04-2.71976E-05 8.92363E-05-1.53107E-06-4.35425E-05
 -1      1903 2.28380E-03 7.08698E-04 1.24082E-06-1.32959E-03-2.27669E-05-6.34882E-06
 -1      1904 6.33860E-03 4.98266E-04 1.27190E-05-2.25695E-04 5.38142E-06-1.23697E-05
 -1      1905 5.88457E-03 4.20502E-04-1.05917E-04 6.62693E-06-5.29459E-05-1.75034E-04
 -1      1906 5.35566E-03 3.61028E-04 3.47672E-06-3.40647E-04-7.88287E-05-3.25410E-05
 -1      1907 5.53911E-03 5.47310E-04-4.01616E-05-1.57919E-05-7.64086E-06 2.72990E-06
 -1      1908 5.78992E-03 5.48050E-04-7.98950E-06-9.91300E-07-3.65555E-06-4.29974E-05
 -1      1909 5.38162E-03 4.17524E-04-9.79525E-06-1.31497E-04-8.10150E-07-1.50353E-05
 -1      1910 6.21694E-03 3.95559E-04-3.93512E-05-6.69258E-05-3.82712E-06-8.12921E-05
 -1      1911 6.48426E-03 3.28874E-04-3.18262E-06-5.94442E-05 3.20385E-06-4.33400E-05
 -1      1912 6.64861E-03 2.58227E-04 5.41956E-06 9.82731E-05-2.54625E-06-2.00243E-05
 -1      1913 6.75026E-03 2.12560E-04 1.83226E-05 3.07374E-05 9.89122E-07-1.65206E-05
 -1      1914 6.54002E-03 3.50474E-04 6.92377E-06 2.08809E-04 5.57634E-07-1.16140E-05
 -1      1915 6.73431E-03 1.54184E-04 1.80743E-06 2.62365E-04 6.72684E-06-8.74063E-06
 -1      1916 6.07480E-03 5.36009E-04-9.62670E-06-1.11696E-04-5.05289E-06-6.35468E-05
 -1      1917 5.40354E-03 3.92193E-04-3.93323E-05 7.09010E-05-3.99689E-06-3.94553E-05
 -1      1918 5.95530E-03 6.73078E-04 6.47973E-07 2.64809E-04 1.70040E-06-1.78370E-05
 -1      1919 6.55423E-03 3.33555E-04 2.52391E-05 4.40203E-04 1.72651E-06-2.18658E-05
 -1      1920 6.68990E-03 1.30652E-04 4.12553E-06 4.27991E-04 1.42916E-05-1.01625E-05
 -1      1921 6.26145E-03 5.34444E-04 1.81507E-06 3.57078E-04 1.05805E-06-2.41337E-05
 -1      1922 6.67972E-03 2.48294E-04 1.82833E-05-3.40008E-05 1.56757E-06-2.50037E-05
 -1      1923 6.44143E-03 3.62603E-04 1.64582E-06 3.07645E-04-5.65851E-06-1.92232E-05
 -1      1924 1.71361E-04 8.92229E-04-2.08226E-04-4.71992E-04-2.77418E-04 9.67734E-05
 -1      1925 2.86546E-06 5.63306E-04-1.02749E-04-2.32912E-04-2.31073E-05-9.55674E-07
 -1      1926 4.90589E-05 6.24554E-04-1.10456E-04-2.45033E-04-6.55358E-05-1.97105E-05
 -1      1927 1.21071E-04 2.40478E-04 8.02745E-06-1.87199E-04 5.39340E-06-7.26769E-06
 -1      1928 1.08823E-04 3.26329E-04 4.69111E-06-2.47781E-04 1.46238E-05-2.41430E-05
 -1      1929 6.71104E-05 1.64097E-05-8.96869E-08-3.61996E-05-3.68356E-07-1.58976E-06
 -1      1930 8.64922E-05 3.40349E-05 1.85037E-06-5.40954E-05-1.17943E-06-8.92689E-07
 -1      1931 1.61996E-05-2.13890E-06-3.87568E-07 1.81820E-07-3.90420E-07-7.83657E-08
 -1      1932 2.43968E-05-2.11757E-06-2.05601E-07-2.92078E-06 4.72110E-08 2.86147E-07
 -1      1933 2.99948E-06 2.00283E-07-2.15146E-08 1.28554E-06-1.45989E-07-2.10080E-08
 -1      1934 4.30540E-06 1.63589E-07-7.04927E-08 1.13603E-06-1.07040E-07 8.66897E-08
 -1      1935 2.67590E-07 3.12355E-07-1.62201E-08 3.84976E-07-1.34088E-08 8.95003E-09
 -1      1936 5.67346E-07 3.17716E-07-1.06372E-08 5.64730E-07-4.56377E-10 7.59867E-09
 -1      1937 2.35056E-08 1.26748E-07-2.28897E-09 6.09682E-08-2.80022E-09 3.34053E-10
 -1      1938 4.60453E-08 1.50604E-07-3.03051E-09 8.82165E-08-7.73730E-10 4.09103E-09
 -1      1939-6.31408E-09 6.86828E-08 9.90869E-10-7.91871E-09-1.12884E-09 9.37486E-10
 -1      1940-8.19878E-09 6.95731E-08-1.31827E-09 3.28038E-09-4.28244E-10-2.74477E-10
 -1      1941 1.71350E-08 1.69832E-07-6.69675E-10-8.27906E-08-3.78657E-09-3.31352E-10
 -1      1942 3.98463E-09 1.25544E-07-1.51285E-09-4.24403E-08 2.98635E-09 1.43175E-09
 -1      1943 5.72684E-07 2.95871E-07-7.85664E-09-5.33501E-07 2.47411E-09 1.02932E-08
 -1      1944 2.85105E-07 2.98158E-07-7.08326E-09-3.57572E-07 3.25953E-09 7.62650E-09
 -1      1945 4.14000E-06 2.83483E-07-4.40493E-09-1.70767E-06-8.29326E-08 7.73160E-08
 -1      1946 2.41638E-06 4.37562E-07-4.48953E-09-1.19143E-06 4.63973E-08 3.77992E-08
 -1      1947 2.28401E-05-2.60651E-06-3.39989E-07 3.44698E-06 2.57794E-07 1.86354E-07
 -1      1948 1.54468E-05-2.14063E-06-4.05126E-07-5.68841E-08 3.41805E-07-8.40145E-08
 -1      1949 8.97119E-05 1.24604E-05-2.02268E-07 4.56790E-05-1.06464E-07 2.72595E-06
 -1      1950 5.98536E-05 5.85785E-06 8.97651E-09 2.34156E-05 1.36724E-06-1.56606E-08
 -1      1951 1.54204E-04 2.97496E-04-4.83729E-06 2.45947E-04-1.13716E-05-3.10829E-05
 -1      1952 1.41110E-04 1.62047E-04 3.10258E-07 2.07127E-04-2.26245E-06-1.63790E-05
 -1      1953-1.74870E-05 6.07603E-04-1.39515E-04 2.34892E-04 5.14526E-05-5.50832E-05
 -1      1954 3.77591E-05 5.99007E-04-6.93979E-05 2.88070E-04-1.80831E-07-4.68809E-05
 -1      1955 1.54977E-04 9.69934E-04-2.09011E-04 4.81793E-04 2.77267E-04 1.46514E-04
 -1      1956 3.11170E-04 9.24484E-04-6.45696E-04-5.09819E-04-2.90357E-04 1.04000E-04
 -1      1957 2.33479E-04 8.94265E-04-6.70632E-04-5.13036E-04-2.23926E-04 9.14539E-05
 -1      1958 3.56474E-04 1.00849E-03-6.84324E-04-5.73027E-04-1.79593E-04 5.68449E-05
 -1      1959 2.80263E-04 9.59680E-04-7.13308E-04-5.25154E-04-1.28445E-04 5.60465E-05
 -1      1960-1.17676E-04 5.73218E-04-7.23599E-04-1.50661E-04-1.70993E-04 6.70317E-05
 -1      1961 1.72617E-04 8.30310E-04-7.27952E-04-4.52434E-04-1.24146E-04 7.66979E-05
 -1      1962 2.67772E-04 9.26010E-04-7.00727E-04-4.80295E-04-1.07832E-04 7.97097E-05
 -1      1963-1.13595E-04 5.27924E-04-7.66385E-04-1.23989E-04-1.07634E-04 5.11742E-05
 -1      1964 1.75152E-04 9.45524E-04-7.31172E-04-5.36902E-04-5.83258E-06 2.87777E-05
 -1      1965 4.35905E-05 9.26428E-04-7.42066E-04-4.73252E-04 1.39110E-04-5.10784E-05
 -1      1966-9.93209E-05 5.83107E-04-6.78622E-04-1.26766E-04 4.33864E-06 1.23687E-05
 -1      1967 1.45732E-04 1.06674E-03-6.89811E-04-5.66338E-04 1.48642E-04-6.67649E-05
 -1      1968 2.26705E-04 1.13521E-03-6.71983E-04-6.15769E-04 1.60089E-04-2.53787E-05
 -1      1969-2.03352E-04 7.18034E-04-6.91931E-04-1.48432E-04 1.34493E-04-5.00065E-05
 -1      1970 1.25749E-04 1.00221E-03-6.60189E-04-5.42213E-04 2.28795E-04-1.05305E-04
 -1      1971-7.96225E-05 9.90184E-04-6.79687E-04-4.96914E-04 3.14851E-04-1.32178E-04
 -1      1972-1.98523E-04 7.45967E-04-7.11602E-04-2.00836E-04 1.44816E-04-7.37880E-05
 -1      1973-1.27187E-05 1.02407E-03-5.61299E-04-5.71807E-04 2.98022E-04-1.41390E-04
 -1      1974 1.56075E-04 9.47688E-04-4.88562E-04-6.07935E-04 3.47127E-04-1.55864E-04
 -1      1975-2.07559E-04 6.22688E-04-5.12234E-04-1.62732E-04 2.06085E-04-9.36571E-05
 -1      1976 1.00806E-04 9.21936E-04-2.37437E-04-4.40529E-04 2.83927E-04-1.01009E-04
 -1      1977-3.94720E-05 5.06163E-04-4.79881E-04-1.14496E-04-1.22755E-04 3.31947E-05
 -1      1978-1.32805E-04 5.08863E-04-6.02388E-04-1.32501E-04-1.10887E-04 4.98761E-05
 -1      1979 9.48259E-05 8.16288E-04-2.01832E-04-3.61778E-04 1.06676E-04 7.41230E-06
 -1      1980-2.35597E-05 1.04037E-03-5.22669E-04 7.47318E-04 3.00498E-04 2.82164E-05
 -1      1981-1.16662E-06 1.01340E-03-3.83679E-04 6.96229E-04 3.56816E-04 1.64546E-04
 -1      1982 9.90939E-05 9.92493E-04-7.46648E-04 4.22552E-04 1.05393E-04 4.75751E-05
 -1      1983 1.10998E-04 9.50306E-04-7.24767E-04 5.30251E-04 1.50151E-04 4.74197E-05
 -1      1984-5.87836E-05 9.09288E-04-8.32194E-04 4.70300E-04-1.08842E-04-3.70905E-05
 -1      1985 9.63982E-05 9.65782E-04-7.86559E-04 5.56765E-04-5.17166E-06 1.38168E-06
 -1      1986-5.13752E-04 8.93826E-04-6.80931E-04 5.69008E-04-2.81308E-04-6.25386E-05
 -1      1987 1.07428E-04 1.06012E-03-5.77470E-04 6.81439E-04-2.26350E-04-3.02423E-05
 -1      1988 1.97619E-04 1.02250E-03-2.26479E-04 5.11173E-04-2.56127E-04-1.44572E-04
 -1      1989 8.86892E-05 5.18909E-04-7.97289E-05-2.25391E-04-1.19512E-05 1.40223E-05
 -1      1990 9.30977E-05 4.57260E-04-3.78729E-05-2.29897E-04-1.88750E-05 9.58808E-06
 -1      1991 8.29535E-05 3.60547E-04-4.35323E-06-2.92376E-04 3.10118E-06 2.02513E-05
 -1      1992 1.39186E-04 1.95460E-04-3.92757E-06-2.35241E-04-3.06010E-06 1.44910E-05
 -1      1993 9.59256E-05 2.66055E-05 2.26873E-06-5.14260E-05-3.15210E-06-2.57677E-07
 -1      1994 6.22915E-05 1.52697E-05 6.03861E-08-3.12707E-05-7.34229E-07-4.85010E-07
 -1      1995 2.32290E-05-2.43128E-06-6.83443E-07-3.54678E-06 2.98809E-07 2.24759E-07
 -1      1996 1.62743E-05-1.92727E-06-2.29132E-07-2.31092E-07 4.09327E-07 2.00739E-07
 -1      1997 4.22787E-06 2.35749E-08-1.07307E-07 1.65600E-06-4.95590E-08 2.74913E-08
 -1      1998 2.46867E-06 3.94243E-07 1.86640E-08 1.39507E-06 8.16134E-08 2.02386E-08
 -1      1999 5.82858E-07 2.95344E-07-3.18123E-08 4.71453E-07 5.21965E-09-1.62282E-08
 -1      2000 3.03357E-07 2.88099E-07-1.39328E-08 3.85678E-07 1.62428E-08-4.54296E-09
 -1      2001 2.31388E-08 1.52124E-07-4.04810E-09 8.43738E-08-2.10523E-09 1.34199E-09
 -1      2002 5.58360E-09 1.10737E-07-1.30539E-09 4.74470E-08 1.93800E-09 9.94134E-10
 -1      2003-2.73740E-09 6.60885E-08-6.14945E-10 2.61169E-09 4.15910E-10-1.84936E-10
 -1      2004-2.62690E-09 7.60043E-08 1.80697E-09-3.09569E-09 2.49489E-09 3.25718E-10
 -1      2005 7.66472E-10 1.24303E-07-1.14484E-09-4.63120E-08-4.01151E-09-2.00115E-09
 -1      2006 1.48575E-08 1.57641E-07-7.24014E-09-8.96759E-08-2.35433E-09-1.09754E-10
 -1      2007 2.78357E-07 2.84838E-07-1.15359E-08-3.16878E-07-2.45789E-09-9.37870E-09
 -1      2008 5.84415E-07 4.25315E-07 9.42606E-09-5.44016E-07 2.49251E-08-2.11050E-08
 -1      2009 2.50974E-06 3.76457E-07-1.63184E-08-1.41797E-06-8.15299E-08 2.12982E-08
 -1      2010 4.10426E-06 1.91170E-08-1.29511E-07-1.67080E-06 2.09123E-08-5.33707E-09
 -1      2011 1.56312E-05-2.19373E-06-3.22493E-07 4.27109E-07-3.01996E-07 1.75347E-07
 -1      2012 2.14146E-05-7.98314E-07-8.40729E-07 3.68331E-06-3.28284E-07-2.81932E-07
 -1      2013 6.55661E-05 1.07256E-06-2.90787E-07 2.47058E-05-1.05767E-06 1.44491E-06
 -1      2014 8.70610E-05 1.06852E-05-1.99829E-06 4.74522E-05 2.07676E-07-1.13467E-06
 -1      2015 1.40430E-04 1.71489E-04 3.38938E-06 2.07935E-04 3.35084E-06 1.54908E-05
 -1      2016 1.45042E-04 2.83765E-04 5.78527E-06 2.47308E-04 2.72141E-06 2.57602E-05
 -1      2017-3.37836E-05 3.77456E-04-4.10745E-04 1.60724E-04 8.27707E-05 3.69770E-05
 -1      2018-1.22175E-04 5.96139E-04-6.07037E-04 2.43179E-04 1.30038E-04 3.22948E-05
 -1      2019 9.82567E-05 7.92267E-04-1.96946E-04 3.72749E-04 9.33009E-05-3.54189E-05
 -1      2020-2.29919E-05 3.14554E-04-5.52281E-05-2.37805E-04 2.04545E-06 9.25254E-06
 -1      2021 6.31664E-05 4.09637E-04-8.43301E-05-2.81568E-04 7.83990E-06-3.15343E-05
 -1      2022 8.61511E-05 5.32648E-04-8.33395E-05-2.85012E-04-2.53218E-06-3.18364E-05
 -1      2023 1.01253E-04 3.14188E-05-1.46579E-06-7.38501E-05-6.53073E-07-6.98494E-06
 -1      2024 1.16896E-04 5.01136E-05-4.58441E-06-8.95359E-05-2.07485E-06-2.42179E-06
 -1      2025 1.50640E-04 1.57868E-04 2.01715E-06-1.67607E-04-9.39941E-06 5.20192E-06
 -1      2026 1.29206E-04 4.12182E-05 3.90014E-06-9.37911E-05 1.43755E-06 5.20034E-06
 -1      2027 2.61323E-05-3.53115E-06-5.57350E-07-6.15144E-06 3.22163E-08-6.63314E-09
 -1      2028 3.47678E-05-2.39912E-06-9.01766E-07-9.09342E-06-6.76824E-07-3.56254E-07
 -1      2029 5.04186E-05 1.19463E-06-6.86647E-07-2.19973E-05-6.74603E-07 2.63361E-07
 -1      2030 3.42025E-05-1.92969E-06-6.95783E-07-1.02605E-05 5.68715E-07 5.03420E-07
 -1      2031 4.97229E-06-5.44755E-07-2.98388E-07 1.57744E-06-1.54638E-07-1.29440E-07
 -1      2032 6.46447E-06-3.40007E-08-4.31286E-08 1.43021E-06-1.36022E-07 7.31168E-08
 -1      2033 1.08348E-05-7.62785E-07-4.15596E-08 1.53564E-06 1.20433E-07 2.07124E-07
 -1      2034 6.89689E-06-4.51386E-07-8.44489E-08 1.82533E-06 1.89564E-07 4.45080E-08
 -1      2035 7.37134E-07 2.99676E-07 2.06517E-08 5.24461E-07 1.87687E-09-1.20095E-08
 -1      2036 1.00437E-06 3.76248E-07-1.14992E-09 6.64606E-07-2.22865E-08-4.45116E-09
 -1      2037 1.57725E-06 2.37744E-07-1.26119E-08 8.33979E-07-4.17365E-08 1.34003E-09
 -1      2038 9.04685E-07 3.79573E-07-6.81446E-09 6.07564E-07-7.11776E-09 6.35935E-09
 -1      2039 3.69159E-08 1.88923E-07-8.72092E-10 1.17214E-07-6.21521E-09 2.46839E-09
 -1      2040 6.69728E-08 2.08896E-07-9.93466E-10 1.34316E-07-9.54501E-10 7.63266E-09
 -1      2041 1.33352E-07 2.93590E-07-1.29337E-09 2.42127E-07 1.01979E-08 1.58656E-09
 -1      2042 6.86851E-08 2.36110E-07 1.01347E-09 1.58387E-07 6.66662E-09-1.00541E-08
 -1      2043-1.05892E-08 6.52364E-08-1.63809E-09 7.61603E-09 6.09556E-10-1.71414E-09
 -1      2044-8.50120E-09 7.91782E-08-1.13561E-09 1.60908E-08-1.34217E-09 1.33055E-09
 -1      2045-2.17601E-09 9.87107E-08-1.96496E-09 3.77050E-08-9.94759E-10 1.15268E-09
 -1      2046-6.75099E-09 7.65551E-08-3.24669E-09 1.31830E-08 2.17889E-09-1.94114E-09
 -1      2047-1.25548E-09 1.03153E-07-2.77764E-10-2.99879E-08 2.23358E-10 1.67939E-10
 -1      2048 4.58797E-09 9.15834E-08-1.16410E-09-2.01889E-08-5.20355E-10-1.32040E-09
 -1      2049 3.23559E-09 7.24216E-08 1.79119E-09-1.35436E-08-1.29222E-09-7.40262E-10
 -1      2050 4.62112E-09 9.30242E-08 8.39642E-10-2.09077E-08-6.52472E-10 1.95814E-09
 -1      2051 1.98012E-07 2.27132E-07-6.88415E-09-2.80379E-07-6.63868E-09-1.03575E-08
 -1      2052 1.37520E-07 2.55170E-07-8.15427E-09-2.41629E-07-4.47627E-09 2.75645E-09
 -1      2053 4.82721E-08 2.04528E-07-8.51733E-09-1.48826E-07 4.57179E-09 4.69018E-09
 -1      2054 1.54805E-07 2.32968E-07-1.01082E-08-2.11301E-07-7.16772E-10-3.46738E-09
 -1      2055 1.91206E-06 3.22824E-07-4.98490E-08-1.10869E-06 6.62583E-08-5.21750E-08
 -1      2056 1.54879E-06 3.63639E-07-3.24231E-08-8.20224E-07 3.20549E-08 2.19498E-08
 -1      2057 1.05323E-06 3.62622E-07-1.75832E-08-6.47424E-07 2.39028E-08-5.92006E-09
 -1      2058 1.56852E-06 5.52564E-07 3.92855E-08-9.29797E-07 2.84130E-08 4.57742E-08
 -1      2059 1.13479E-05-2.01474E-06-2.84188E-07-5.25299E-07-7.48525E-09 3.21920E-08
 -1      2060 1.04007E-05-8.89858E-07-8.65155E-08-1.47137E-06-6.78265E-08 1.14999E-07
 -1      2061 6.51721E-06-4.24960E-07-1.45008E-07-1.81294E-06 1.73462E-07-7.61332E-09
 -1      2062 1.02393E-05-1.25250E-06-2.74835E-07-1.19933E-06-7.06505E-08 5.12872E-08
 -1      2063 5.25763E-05 1.17025E-06-8.16946E-07 1.91693E-05 2.67615E-07-2.00060E-06
 -1      2064 4.03231E-05 3.91399E-06-7.47496E-07 1.42055E-05 9.44712E-07-1.26765E-07
 -1      2065 3.15769E-05 1.23412E-06-4.87392E-07 8.39698E-06 2.84783E-07-5.27886E-07
 -1      2066 4.53392E-05 2.95272E-06 9.73399E-07 1.18586E-05 1.18690E-06 5.36496E-08
 -1      2067 1.16664E-04 1.03415E-04 6.75442E-06 1.58747E-04 1.09504E-06-7.07425E-07
 -1      2068 1.48266E-04 8.48850E-05 3.21325E-06 1.38483E-04-7.70236E-07-6.53292E-09
 -1      2069 1.15584E-04 3.24129E-05-1.12747E-06 8.35184E-05 2.56182E-06-3.12810E-06
 -1      2070 1.41932E-04 8.63429E-05 1.14991E-06 1.40380E-04 8.96598E-07 2.59566E-06
 -1      2071 6.83010E-05 4.77636E-04-5.46918E-05 2.19595E-04-1.34186E-05-3.01696E-05
 -1      2072 1.16961E-04 3.72917E-04-3.35205E-05 2.47596E-04-2.42571E-05-2.82580E-05
 -1      2073 3.33818E-04 9.77371E-04-4.74327E-04-5.93862E-04-3.02579E-04 1.23449E-04
 -1      2074-1.27379E-04 5.55720E-04-5.05751E-04-1.58163E-04-2.20906E-04 7.27215E-05
 -1      2075 3.21684E-04 9.36550E-04-4.00309E-04-5.92924E-04-3.19351E-04 9.17177E-05
 -1      2076 2.25218E-04 1.10116E-03-7.60432E-04 4.93329E-04 1.01069E-04 3.22894E-05
 -1      2077-5.16350E-05 6.30308E-04-7.72014E-04 1.85360E-04 8.85433E-05 6.76531E-05
 -1      2078 2.91055E-04 1.17422E-03-7.08810E-04 5.60153E-04 5.15442E-05 2.86337E-05
 -1      2079 1.14926E-04 1.59494E-04 1.00375E-05-1.82773E-04 4.80579E-05-2.26016E-05
 -1      2080 7.79968E-05 8.27925E-04-6.72917E-04 4.96187E-04 2.12605E-04 5.23861E-05
 -1      2081 1.56590E-04 8.96207E-04-6.49408E-04 5.25916E-04 2.52993E-04 7.67178E-05
 -1      2082-3.73150E-05 6.62480E-04-7.93852E-04 2.05627E-04 2.73604E-05-2.25054E-05
 -1      2083 3.48390E-04 1.07732E-03-6.33914E-04 6.26750E-04-1.97434E-04-9.79430E-05
 -1      2084-5.67760E-05 9.65000E-04-8.00024E-04 4.33855E-04-1.12204E-04-5.07791E-05
 -1      2085 1.33318E-05 7.80213E-04-2.18631E-04 2.85505E-04-1.18260E-04 1.86723E-05
 -1      2086 4.27038E-05 4.87840E-04-1.82256E-04 1.91457E-04-5.93485E-05-1.50273E-07
 -1      2087 4.09091E-05 6.75632E-04-5.88714E-05-3.07614E-04 2.81525E-05 4.62628E-05
 -1      2088 3.84014E-05 4.79054E-04-1.57249E-04-1.84966E-04 3.39827E-05 6.51465E-06
 -1      2089-2.19695E-05 6.22771E-04-1.30456E-04-2.49355E-04 5.29323E-05 7.06337E-05
 -1      2090-1.91621E-04 5.53087E-04-4.44619E-04 1.89873E-04 2.16703E-04 1.04866E-04
 -1      2091 1.53634E-04 1.06203E-04 6.20203E-06-1.61634E-04-6.69295E-06 7.11814E-07
 -1      2092 5.08809E-05 1.12701E-05 1.56865E-06-2.60535E-05 3.15846E-07-6.18710E-07
 -1      2093 4.60012E-05 5.83949E-06-1.83842E-06-2.03852E-05 9.60337E-07-8.98222E-07
 -1      2094 1.18478E-05-1.96813E-06-3.28381E-07 6.96596E-07 2.82925E-08 5.29841E-08
 -1      2095 1.03239E-05-1.28910E-06-3.95617E-07 1.25919E-06 5.69919E-08 1.76919E-08
 -1      2096 1.87829E-06 2.89705E-07-4.14151E-08 1.13918E-06-7.54993E-08-3.77966E-08
 -1      2097 1.50555E-06 5.43152E-07 1.09611E-08 9.30483E-07-2.49212E-08 4.41771E-08
 -1      2098 1.54173E-07 2.38347E-07-1.49913E-08 2.87023E-07 1.32556E-09 3.65675E-10
 -1      2099 1.24235E-07 2.46709E-07-2.35813E-08 2.47152E-07 7.13561E-09-4.02575E-09
 -1      2100 7.02004E-09 9.70030E-08-9.17020E-10 4.37976E-08-2.01175E-10-2.98646E-10
 -1      2101 4.53741E-10 1.08125E-07 1.43079E-09 3.59691E-08-1.32881E-09-4.44360E-09
 -1      2102 1.77338E-09 6.79488E-08 1.92633E-09-1.14703E-08 8.69101E-10-9.58764E-11
 -1      2103 1.31234E-09 7.18066E-08-4.11119E-10-1.23497E-08-1.48431E-10 8.79135E-10
 -1      2104 2.25771E-08 1.60420E-07-5.58681E-09-1.08984E-07-9.81406E-10 4.04176E-10
 -1      2105 6.00949E-08 1.99578E-07-6.44122E-09-1.56861E-07-6.64674E-09-3.80039E-09
 -1      2106 7.66470E-07 2.94435E-07 1.33993E-08-4.94710E-07 1.27108E-08-1.29971E-08
 -1      2107 8.99151E-07 3.67504E-07-7.46462E-09-6.02665E-07 9.25585E-09 2.19244E-08
 -1      2108 4.73821E-06-3.19138E-07-1.24366E-07-1.63299E-06-1.03363E-08 2.79421E-08
 -1      2109 6.70693E-06-4.65163E-07-8.93028E-08-1.74944E-06-1.90568E-07 4.85984E-08
 -1      2110 2.38083E-05 2.02773E-07 3.10160E-07 5.63107E-06-6.40325E-08-2.30497E-07
 -1      2111 2.91692E-05 1.20844E-06-5.44028E-08 6.76160E-06 3.27357E-07-1.29675E-07
 -1      2112 9.52668E-05 1.67818E-05-9.64693E-07 6.23457E-05 2.10794E-07 5.74965E-07
 -1      2113 1.16562E-04 3.48029E-05-1.41102E-07 8.54685E-05-2.20102E-06 3.85802E-06
 -1      2114 1.50486E-04 3.98624E-04-1.37151E-05 2.81402E-04 9.75406E-06 1.99392E-05
 -1      2115-2.24771E-04 5.22450E-04-3.48113E-04 1.73349E-04 1.62713E-04 3.08199E-05
 -1      2116 8.03717E-05 7.77895E-04-1.96335E-04-3.50748E-04-1.14010E-04 4.40930E-06
 -1      2117 8.51006E-05 3.57096E-04 3.34509E-06 2.00835E-04-1.88584E-05 3.86009E-06
 -1      2118-3.59950E-05 5.86874E-04-2.85218E-04-2.11615E-04-1.72433E-04 3.79183E-05
 -1      2119-6.68946E-06 7.09802E-04-6.84244E-04 3.07600E-04-1.05842E-04-3.31511E-05
 -1      2120 2.60573E-05 7.90277E-04-2.97937E-04-2.67293E-04 7.46486E-05 1.31891E-06
 -1      2121 6.07086E-06 4.66182E-04-1.53549E-04-1.89594E-04-4.25739E-05 3.19532E-05
 -1      2122 2.58769E-05 4.76764E-04-1.27721E-04 1.82160E-04 2.85522E-05-6.12367E-06
 -1      2123-4.43031E-05 5.34912E-04-5.48463E-04 1.85341E-04-1.98893E-04-1.09609E-04
 -1      2124 5.99623E-05 3.38212E-04 2.48106E-06 2.45918E-04-6.19902E-06 1.27565E-05
 -1      2125-5.06894E-05 5.03126E-04-3.26112E-04-1.53769E-04-8.35674E-05 4.74343E-05
 -1      2126-4.35549E-05 5.28533E-04-4.06517E-04-1.25698E-04-1.74551E-04 7.09036E-05
 -1      2127-3.23584E-05 5.10311E-04-5.76913E-04 1.41794E-04-9.75973E-05-2.91270E-05
 -1      2128 1.23618E-05 5.48330E-04-6.02145E-04 2.44922E-04-4.00729E-05-3.93767E-06
 -1      2129-6.20117E-05 4.98300E-04-5.26156E-04-1.33193E-04-5.91377E-05 6.59038E-05
 -1      2130 5.10854E-05 6.02006E-04-4.67420E-04-1.59987E-04 1.16499E-05 5.82546E-06
 -1      2131-1.40585E-04 6.29035E-04-5.02193E-04-1.21023E-04 1.47738E-05 2.17274E-05
 -1      2132-1.96856E-04 6.33368E-04-5.15448E-04-1.25983E-04 8.98191E-05-1.18874E-04
 -1      2133-2.31431E-04 6.76476E-04-6.30997E-04-1.71976E-04 9.98236E-05-7.60095E-05
 -1      2134 6.44452E-05 6.10010E-04-6.38673E-04 2.60275E-04-7.61035E-06-9.33224E-06
 -1      2135 3.13575E-05 6.09702E-04-6.82686E-04 1.75133E-04 3.92269E-05 1.93226E-05
 -1      2136 2.48086E-05 4.37750E-04-5.34281E-05 2.09499E-04 9.50030E-06 1.72564E-06
 -1      2137-1.56129E-04 9.61213E-04-5.15791E-04 5.81068E-04-2.84827E-04-1.18101E-04
 -1      2138-2.91070E-05 5.65914E-04-3.42599E-04 1.62966E-04 1.14710E-04 5.01157E-05
 -1      2139-3.55458E-05 3.96963E-04-2.86961E-04 1.51431E-04 5.50744E-05 2.28573E-05
 -1      2140 1.11056E-04 4.46957E-04-1.13950E-04 1.86898E-04 1.85247E-05 2.12580E-05
 -1      2141-1.22636E-04 4.46442E-04-4.67541E-04 1.27777E-04-1.22151E-04-4.41838E-05
 -1      2142-1.55409E-04 4.06042E-04-3.45954E-04 1.15310E-04-1.02951E-04-7.42893E-05
 -1      2143 2.94012E-05 3.33497E-04-3.10629E-05-1.73237E-04-1.40235E-05 9.40550E-06
 -1      2144 1.13928E-05 4.17417E-04-9.50987E-05-1.86599E-04 2.17221E-05 1.61900E-05
 -1      2145-2.81900E-05 7.23693E-04-4.97691E-04-1.38695E-04 9.38415E-05-3.24776E-05
 -1      2146-7.53800E-05 6.54783E-04-3.69852E-04-1.37325E-04 1.27970E-04-5.46035E-05
 -1      2147-1.05452E-04 6.22511E-04-2.88410E-04-2.39574E-04 1.84532E-04-2.51762E-05
 -1      2148 8.32904E-05 3.92345E-04-1.25867E-04 1.76974E-04 1.18405E-05-1.63499E-05
 -1      2149 5.94116E-05-1.85665E-05 4.87267E-06 8.27505E-06-1.62849E-08 9.23626E-08
 -1      2150 7.71774E-05-1.95577E-05 2.62741E-06 1.10374E-06-2.16983E-07 6.88015E-07
 -1      2151 8.67665E-05-1.71042E-05 7.52302E-06-2.33224E-06-3.07233E-07-1.03656E-07
 -1      2152 6.89090E-03 6.26946E-05-7.14592E-05 2.61728E-04 4.27478E-06-5.64973E-05
 -1      2153 6.91543E-03 1.44924E-04-5.62345E-05 3.84865E-04-2.41825E-06-8.87676E-05
 -1      2154 6.83824E-03 4.60492E-05-5.99150E-05 2.45429E-04 5.63613E-06-7.86719E-05
 -1      2155 6.88313E-03 2.15978E-04-4.80681E-05 4.04179E-04 3.44876E-06-5.12826E-05
 -1      2156 6.85441E-03 9.13279E-05-5.24143E-05 2.63322E-04 3.91235E-06-4.67288E-05
 -1      2157 6.82904E-03 1.82039E-04-3.80490E-05 3.77575E-04 3.95264E-06-7.50363E-05
 -1      2158 4.48317E-03 1.93066E-03 6.11819E-05-2.56783E-04-8.88459E-05 5.14191E-05
 -1      2159 6.95211E-03 2.44908E-06-3.03411E-06-1.42762E-04-2.13726E-06 1.12332E-06
 -1      2160 6.97220E-03 1.50166E-05-4.03815E-06-5.12945E-05-2.72928E-06-4.17273E-06
 -1      2161 7.01692E-03-3.04136E-06-1.36324E-06-1.44221E-04-3.13543E-07 2.63829E-06
 -1      2162 6.99441E-03 4.38321E-06-1.25890E-06-1.05861E-04 4.08016E-08 8.71200E-07
 -1      2163 7.02225E-03-2.78616E-06-2.20085E-06-4.37622E-05-3.85501E-07-4.84562E-07
 -1      2164 5.94511E-03 1.25103E-03 9.35318E-05 6.14858E-04 2.96753E-05 6.69997E-05
 -1      2165 6.60510E-03 1.50185E-03 3.19812E-04 1.25818E-03 3.78406E-05-7.97217E-06
 -1      2166 6.13686E-03 1.48767E-03 2.92620E-04 9.99187E-04 9.26280E-05 6.38266E-05
 -1      2167 6.56668E-03 1.05333E-03 1.04725E-04 7.69851E-04-7.90601E-06-6.49390E-05
 -1      2168 6.21431E-03 1.26648E-03 1.66088E-04 5.95131E-04 1.68095E-05-6.71560E-06
 -1      2169 6.88658E-03 1.36297E-03 3.65593E-04 1.06934E-03 4.05754E-05-2.17407E-06
 -1      2170 6.83189E-03 1.58267E-05-3.26811E-05 1.63741E-04 1.06737E-06 1.59048E-06
 -1      2171 6.83135E-03 2.63866E-05-5.78716E-05 1.73594E-04 2.80316E-07-1.28857E-05
 -1      2172 6.82090E-03 1.66620E-05-2.68565E-05 1.61391E-04 1.68595E-06-1.38846E-05
 -1      2173 6.90659E-03 6.97539E-05-8.43778E-05 2.73523E-04-2.90960E-06 4.62419E-05
 -1      2174 6.91275E-03 6.08800E-05-7.09201E-05 2.99668E-04 1.83678E-06 7.70635E-05
 -1      2175 6.80004E-03 4.96708E-05-7.24127E-05 2.56442E-04-8.93380E-07 6.57357E-05
 -1      2176-1.39168E-03 7.04790E-04 4.39832E-04 7.06101E-04 1.18580E-04 4.87220E-05
 -1      2177-2.03811E-03 3.03254E-04 9.27691E-05 1.10951E-03-1.17782E-04-3.82643E-04
 -1      2178 6.03588E-03 1.18801E-03 8.90208E-04 2.22975E-04 5.64128E-05-2.79581E-04
 -1      2179 6.73974E-03 7.63831E-04 1.07359E-04-3.97378E-05-7.49082E-05-6.89369E-05
 -1      2180 6.43069E-03 1.23377E-03 1.17689E-03 1.87813E-04-4.55998E-07-2.03866E-04
 -1      2181 7.03313E-03 1.40842E-03 7.75750E-04-1.91681E-05 5.85570E-06-6.86481E-04
 -1      2182 6.89993E-03 2.08937E-05-7.91730E-06 1.17715E-04 5.67437E-06-7.91254E-06
 -1      2183 6.84875E-03 4.66183E-05-2.81989E-05 1.77622E-04 5.78213E-06-3.42492E-05
 -1      2184 6.83629E-03 4.31198E-05-1.42311E-05 1.70527E-04 5.64751E-06-2.41157E-05
 -1      2185 6.82005E-03 1.12329E-05-1.31890E-05 1.60440E-04 2.46247E-06-8.86759E-06
 -1      2186 6.77630E-03 3.10535E-05-3.00808E-05 2.11994E-04 6.41255E-06-3.55273E-05
 -1      2187 5.05982E-03 1.36019E-03-2.03030E-05 1.97413E-03 5.22272E-05 2.15225E-05
 -1      2188 4.10289E-03 1.53139E-03-6.12854E-05 2.22689E-04 1.23309E-04-6.89311E-05
 -1      2189 6.87285E-03 4.79519E-04-1.31961E-04-3.18923E-04-8.81387E-05 1.22533E-04
 -1      2190 6.72723E-03 7.76516E-05-1.46224E-05 3.13580E-04-1.59140E-06-6.80207E-05
 -1      2191 6.69575E-03 2.10791E-04-1.77136E-05 4.27537E-04 8.79975E-06-5.66957E-05
 -1      2192 6.76029E-03 1.05068E-04-9.32153E-06 2.95609E-04 6.75446E-06-4.69688E-05
 -1      2193 6.79430E-03 1.20153E-04-3.75270E-05 3.88097E-04-9.78402E-06-1.29062E-04
 -1      2194 6.80001E-03 5.73065E-05-2.72284E-05 2.66517E-04 5.86800E-06-9.42505E-05
 -1      2195 6.78418E-03 1.59957E-04-2.79456E-05 3.75104E-04 3.00614E-06-9.05823E-05
 -1      2196 7.46533E-03 1.10930E-03 2.67441E-04 1.60053E-03-1.11083E-05-8.05696E-05
 -1      2197 7.95254E-03 1.08310E-03 2.31188E-04 1.25908E-03 4.22099E-05 5.25155E-05
 -1      2198 5.76576E-03 1.72719E-03 1.73084E-04 2.17201E-03-1.13205E-04-1.81687E-04
 -1      2199 6.44927E-03 1.51048E-03 6.34692E-05 1.88091E-03 2.15928E-05-1.24341E-04
 -1      2200 6.06066E-03 1.45523E-03 8.38346E-05 1.03183E-03-1.42657E-05-7.93687E-05
 -1      2201 6.81105E-03 4.24167E-05-9.29465E-05-2.32141E-04-7.91473E-08-1.62532E-05
 -1      2202 6.92429E-03 4.86752E-05-8.53075E-05-2.65208E-04-4.78039E-07-3.18394E-05
 -1      2203 6.91216E-03 4.81882E-05-9.45649E-05-2.62938E-04 2.15012E-06-9.13963E-08
 -1      2204 9.00868E-06 1.06057E-06 5.16650E-07-5.88834E-06-1.48223E-07 5.40778E-08
 -1      2205 5.97287E-06 1.43516E-06 1.03842E-06-5.52492E-06-6.10891E-08-2.78000E-09
 -1      2206 4.70281E-06 2.04891E-06 6.40289E-07-3.71563E-06-2.65158E-07-9.76601E-08
 -1      2207 6.76264E-03 2.69097E-05-4.93224E-05 1.93247E-04-4.90807E-06 5.14741E-05
 -1      2208 6.79721E-03 2.16797E-05-7.39356E-05 1.95147E-04-1.48262E-06 1.16295E-05
 -1      2209 6.83366E-03 4.51879E-05-9.68735E-05 2.55674E-04-1.50837E-06 1.39528E-05
 -1      2210 6.83782E-03 6.68106E-05-5.91550E-05 2.37995E-04-4.07123E-06 3.90101E-05
 -1      2211 6.78504E-03 3.04889E-05-8.01120E-05 2.23714E-04 3.37966E-06-4.23519E-05
 -1      2212 6.83486E-04 9.27175E-04-2.24397E-04 7.24225E-04-4.73450E-05-4.70347E-05
 -1      2213 8.24070E-04 8.67767E-04 1.75450E-05 8.65884E-04-1.90328E-05-1.73121E-05
 -1      2214 5.68022E-04 7.71381E-04-1.59941E-04 5.46643E-04-4.50264E-05-2.02997E-05
 -1      2215 5.37914E-04 8.76066E-04-2.54566E-04 6.31992E-04 1.35256E-05 1.85731E-05
 -1      2216 4.18795E-04 7.11358E-04-2.04155E-04 4.62302E-04 6.40864E-06 6.27282E-06
 -1      2217 2.80177E-04 8.54273E-05 5.19157E-05-1.57068E-04 1.05423E-05 3.11767E-06
 -1      2218 3.70622E-04 4.17118E-05 5.74547E-05-2.54910E-04-2.90587E-06 5.68948E-06
 -1      2219 4.12921E-04 5.61853E-05 6.77019E-05-3.17035E-04-7.76202E-06-5.95103E-06
 -1      2220 2.88139E-04 6.24472E-04-1.73759E-04 4.27653E-04-1.12900E-05-1.66029E-06
 -1      2221 4.36347E-04 6.93338E-04-1.01313E-04 4.99446E-04-6.53439E-05-2.94829E-05
 -1      2222 1.15433E-03 9.85568E-04-1.75155E-04-9.07823E-04 2.28733E-04-9.51269E-05
 -1      2223 7.19930E-04 7.43044E-04-2.30196E-04-7.16157E-04 1.79519E-04-6.27701E-05
 -1      2224 1.01681E-03 9.16487E-04-2.71450E-04-8.08864E-04 2.38628E-04-1.03440E-04
 -1      2225-5.04806E-08 4.89879E-07 2.19916E-08-1.78121E-07-5.69795E-09-2.32508E-10
 -1      2226 7.49552E-03-2.75389E-05 1.02162E-05 1.39866E-04-2.52289E-06-7.44986E-07
 -1      2227 7.35527E-03-1.59469E-06 2.46915E-06 1.23120E-04-6.35949E-07-2.75439E-06
 -1      2228 6.38675E-03 1.12617E-03 1.37060E-04-5.01343E-04-2.82846E-06-3.13592E-05
 -1      2229 6.74489E-03 8.87555E-04 1.25092E-04-6.03856E-04 2.07610E-06-2.28045E-05
 -1      2230 6.22667E-03 1.15826E-03 2.03922E-04-3.93683E-04-1.30054E-05-1.26770E-05
 -1      2231 6.95752E-03 1.02551E-03 2.40774E-04-8.98681E-04-1.12464E-05-1.21751E-05
 -1      2232 6.25534E-03 1.32906E-03 2.81867E-04-5.90331E-04-1.86649E-05 6.27359E-06
 -1      2233 6.78344E-03 1.25098E-03 3.72339E-04-8.35513E-04-1.13296E-05 2.61889E-05
 -1      2234 6.99218E-03 1.41895E-03 8.32880E-04 8.06778E-06-3.69292E-05-7.51793E-04
 -1      2235 6.17132E-03 5.87760E-04 8.32856E-05 9.87783E-05-2.99853E-06 9.34565E-05
 -1      2236 6.72736E-03 1.05708E-03 5.41114E-04-1.68638E-04-7.84460E-05-6.18520E-04
 -1      2237 6.78918E-03 3.88704E-04-3.78750E-05-3.44085E-04-4.82096E-06 6.03778E-05
 -1      2238 6.69634E-03 5.72069E-04 1.30404E-05-5.89119E-04-3.00726E-06 8.90648E-05
 -1      2239 6.67533E-03 3.64809E-04-2.24255E-05-3.12576E-04-3.67643E-06 9.36496E-05
 -1      2240 6.56967E-03 8.67652E-04 4.72783E-05-4.96974E-04-1.44332E-06 6.10804E-05
 -1      2241 6.57248E-03 5.71412E-04-2.56482E-05-2.71622E-04-5.55457E-06 7.54092E-05
 -1      2242 6.43873E-03 7.91588E-04 1.67854E-05-4.39734E-04-1.01231E-05 8.64744E-05
 -1      2243 3.87560E-07 1.26545E-06 1.64884E-07-1.06749E-06-1.11047E-07-5.53222E-08
 -1      2244 2.87325E-03 7.01497E-04-8.06459E-05-1.36447E-03 1.31226E-04-6.97193E-05
 -1      2245 4.52235E-03 6.65985E-04 5.65568E-05-1.03282E-03 8.81835E-05-8.82724E-05
 -1      2246 4.30931E-03 1.53766E-03 9.32434E-05-2.15488E-03 2.34466E-04-2.08320E-04
 -1      2247 3.56695E-03 6.79575E-04-4.03592E-05-9.88551E-04 1.20395E-04-1.28158E-04
 -1      2248 3.22455E-03 1.49794E-03-3.49413E-05-2.06627E-03 2.88185E-04-2.20798E-04
 -1      2249 5.22288E-03 1.20791E-03 1.52616E-04-1.43781E-03 1.85224E-04-1.81226E-04
 -1      2250-1.87099E-03-2.23112E-03-2.54090E-04 1.11521E-03 6.24790E-06 1.76667E-05
 -1      2251-1.36291E-03 7.43716E-04 4.57245E-04 7.55844E-04-1.47899E-04-3.52436E-05
 -1      2252-1.99151E-03 3.63079E-04 1.03169E-04 1.13387E-03 1.42673E-04 4.02385E-04
 -1      2253 6.50900E-03 2.06047E-03 7.34141E-04 2.31063E-03-2.66606E-05-6.93561E-06
 -1      2254 8.15210E-03 1.03877E-03 7.50351E-04 1.32849E-03-8.25626E-06-2.09571E-06
 -1      2255 6.43214E-03 1.98079E-03 7.03233E-04 2.28762E-03-8.10295E-06-6.53884E-06
 -1      2256 6.12946E-03 1.06969E-03 8.85931E-04-1.45309E-04-6.10800E-05-2.00155E-04
 -1      2257 5.73310E-03 1.15683E-03 1.21628E-03-3.68543E-04-3.27945E-05-2.59747E-04
 -1      2258 6.28317E-03 9.66896E-04 2.74013E-04 3.06614E-07-6.70237E-06-1.21932E-04
 -1      2259 6.18375E-03 1.06291E-03 1.00817E-03-3.77655E-04-1.45853E-04-7.53082E-04
 -1      2260 9.98499E-04 1.13025E-03-1.21403E-04-1.05043E-03 1.43682E-04-1.33015E-05
 -1      2261 9.00832E-04 1.01265E-03-3.02593E-05-8.77864E-04 9.75497E-05-3.49660E-05
 -1      2262 2.07332E-03 1.05171E-03-5.10941E-06-1.38843E-03 1.35171E-04 1.03768E-05
 -1      2263 1.73713E-03 8.93981E-04-3.56088E-05-1.16354E-03 1.39455E-04-1.57316E-05
 -1      2264 1.91295E-03-1.18735E-03 8.95714E-05 1.14938E-03 5.53044E-08-1.06280E-05
 -1      2265 5.24393E-03 4.75773E-04 4.72144E-04 6.45449E-04-8.58500E-05 6.10531E-04
 -1      2266 5.06760E-03 6.87210E-04 8.84345E-04 5.88073E-04-5.57393E-05 3.77065E-04
 -1      2267 4.72453E-03 5.50782E-04 4.66001E-05 5.60004E-04 8.14663E-05 2.22555E-04
 -1      2268 4.05254E-03 4.25287E-04 2.53144E-04 1.02331E-03 2.73552E-06 3.58359E-04
 -1      2269 4.10239E-03 6.23525E-04 6.30072E-04 8.83515E-04 3.46266E-06 2.67684E-04
 -1      2270 7.67591E-03 1.18507E-03 5.71773E-04 1.54741E-03 8.61592E-05 9.95861E-05
 -1      2271 7.74682E-03 9.26855E-04 4.19219E-04 1.51886E-03 3.07996E-05-9.28704E-06
 -1      2272 6.43239E-03 1.99547E-03 5.50853E-04 2.30871E-03 1.93519E-04 2.38811E-04
 -1      2273 6.42670E-04 8.41552E-04 2.86555E-05-7.16598E-04 6.69224E-05 1.21868E-05
 -1      2274 6.88609E-03 6.75846E-06-1.45183E-05 1.62819E-04 2.45068E-06-4.25357E-06
 -1      2275 6.57929E-03 1.84229E-03 5.47383E-04 2.24478E-03-7.73997E-05-1.67950E-04
 -1      2276 6.09536E-03 1.55256E-03 2.49303E-04 1.07175E-03-8.18956E-05-1.00935E-04
 -1      2277 7.99381E-03 1.11211E-03 5.38567E-04 1.31697E-03-3.24114E-05-4.63558E-05
 -1      2278 5.97578E-03 1.93044E-03 4.33558E-04 2.38367E-03-1.22472E-04-2.22390E-04
 -1      2279 7.56961E-03 1.07027E-03 4.18505E-04 1.60067E-03-6.73853E-05-8.71415E-05
 -1      2280 2.48030E-03 1.06330E-03 1.32411E-04-1.35774E-03 1.60463E-04-7.11726E-05
 -1      2281 1.19349E-03 1.05764E-03-2.33492E-04-8.42853E-04 9.74179E-05-1.05895E-05
 -1      2282 1.87195E-03 1.34345E-03-8.44312E-05-1.40926E-03 1.28631E-04-3.90944E-05
 -1      2283 9.58946E-04 9.44415E-04-3.74872E-04-8.30645E-04 2.00157E-04-7.89599E-05
 -1      2284 1.65069E-03 1.29630E-03-2.33190E-04-1.34711E-03 2.20135E-04-1.08311E-04
 -1      2285 8.16199E-03 5.86915E-04 4.76681E-04 1.09637E-03-1.21217E-05 2.96431E-05
 -1      2286 7.36557E-03 2.68099E-04 1.03289E-04 6.27849E-04 2.80171E-06 3.37530E-05
 -1      2287 7.41749E-03 2.72206E-04 1.37167E-04 6.61067E-04-3.26523E-06 2.07639E-05
 -1      2288 6.63162E-03 7.13764E-04 3.09050E-05 3.75586E-04 5.72123E-06-3.20815E-05
 -1      2289 6.66524E-03 6.38232E-04 1.69001E-05 1.86702E-04-3.29538E-06-2.54594E-05
 -1      2290 6.83190E-03 4.53400E-04-1.92443E-05 4.34294E-04 3.67766E-06-1.75143E-05
 -1      2291 6.47800E-03 9.17517E-04 9.88531E-05 2.20100E-04-2.86641E-06-4.15076E-05
 -1      2292 6.68819E-03 7.89674E-04 8.37580E-05 5.56945E-04 1.90671E-05-1.11198E-05
 -1      2293 6.67618E-03 7.26942E-04 5.38452E-05 3.42988E-04 6.40733E-06-8.12931E-06
 -1      2294 8.10854E-03 5.55540E-05 4.44182E-05 2.08884E-04-2.76945E-06-2.11084E-05
 -1      2295 5.61021E-03 7.23326E-04 1.22481E-04-8.25363E-05 4.57750E-05-4.90165E-05
 -1      2296 6.02867E-03 7.08849E-04 5.87605E-05 5.82413E-05 6.49102E-05 7.36813E-06
 -1      2297 6.72049E-03 2.61973E-05-1.22753E-05 2.30900E-04-4.39642E-06 3.65903E-05
 -1      2298 6.78206E-03 8.97125E-05-1.02652E-05 2.60319E-04-3.66460E-06 3.75736E-05
 -1      2299 6.81399E-03 6.27126E-05-2.93927E-05 2.28112E-04-9.75815E-06 5.04579E-05
 -1      2300 6.75581E-03 1.28872E-05-1.86654E-05 1.88861E-04-3.64174E-06 2.12907E-05
 -1      2301 6.79554E-03 4.51098E-05-2.28483E-05 1.95595E-04-5.80684E-06 2.55241E-05
 -1      2302 6.72573E-03 3.39840E-05-5.23278E-05 2.36403E-04-7.97821E-06 7.30257E-05
 -1      2303 9.41004E-03 5.67350E-03 8.83722E-04-4.89765E-03 1.97872E-04 1.23411E-04
 -1      2304 6.84583E-03 1.13544E-04-4.34821E-05 3.10084E-04-4.84549E-06 6.02506E-05
 -1      2305 6.79513E-03 1.20976E-05-3.67147E-05 1.89877E-04-3.77143E-06 2.26058E-05
 -1      2306-2.43352E-08 1.04315E-07 6.19614E-09-1.82948E-08-1.24895E-09 6.32639E-09
 -1      2307-2.27776E-08 1.02494E-07 9.00191E-09-1.76680E-08 8.82982E-10-8.02892E-10
 -1      2308-1.36244E-08 1.61408E-07 1.87329E-08-4.56387E-09-2.86637E-09 8.22377E-09
 -1      2309-2.51565E-08 1.39692E-07 8.75889E-09-4.27099E-09-4.29415E-10-1.07201E-09
 -1      2310 2.73915E-09 7.12979E-08 7.37499E-09-3.87815E-09 4.60681E-10 3.11714E-09
 -1      2311 6.56682E-03 7.41392E-04 4.14773E-05-7.42971E-05-1.17244E-05-5.27912E-05
 -1      2312 6.70483E-03 5.09242E-04-2.20158E-05-8.46575E-05-3.91853E-06-5.71594E-05
 -1      2313 6.59373E-03 7.84106E-04 5.30221E-05-9.79792E-05 2.64036E-06-3.45569E-05
 -1      2314 6.57307E-03 6.35345E-04-3.50256E-06-1.97337E-04 2.05388E-06-7.18729E-05
 -1      2315 6.34411E-03 9.01396E-04 6.27127E-05-2.03913E-04 1.41140E-06-3.85062E-05
 -1      2316 6.62531E-03 6.75238E-04 1.84065E-05-2.28417E-04-4.21759E-07-4.46430E-05
 -1      2317 5.74669E-04 9.11787E-04-4.12055E-04 7.17865E-04 2.69695E-05 2.65293E-05
 -1      2318 6.69714E-04 1.10092E-03-4.54014E-04 8.34915E-04 4.25779E-05 3.03487E-05
 -1      2319 6.05680E-04 1.02486E-03-4.31840E-04 7.93685E-04 7.14594E-05 4.87925E-05
 -1      2320 6.78047E-03 3.91913E-04-1.79817E-05 5.45372E-04 2.56376E-06 8.93960E-05
 -1      2321 6.86576E-03 2.09951E-04-3.00015E-05 4.14943E-04-7.43105E-06 7.35798E-05
 -1      2322 7.00795E-03 1.30833E-04-5.03173E-05 4.12777E-04-8.85705E-06 8.26539E-05
 -1      2323 6.75325E-03 2.87801E-04-4.42208E-06 4.13194E-04-2.69789E-06 9.32534E-05
 -1      2324 6.80423E-03 1.62531E-04-6.77502E-05 4.07432E-04-2.14082E-06 1.12280E-04
 -1      2325 6.85604E-03 3.14536E-05-6.10471E-05 2.85381E-04-9.01768E-06 9.27385E-05
 -1      2326 7.02815E-03 7.40550E-05-3.64514E-05-3.80703E-04 1.23943E-06 1.18985E-04
 -1      2327 6.70142E-03 1.78587E-04-1.87292E-05-3.71982E-04 7.16628E-07 6.91093E-05
 -1      2328 6.91847E-03 1.63567E-04-6.27151E-06-4.68038E-04-1.12926E-05 1.03283E-04
 -1      2329 6.89446E-03 7.26900E-04 8.65614E-05-7.53652E-04-1.93289E-05 8.45653E-05
 -1      2330 6.45117E-03 6.42449E-04 6.59498E-06-6.20090E-04-1.55001E-05 5.85962E-05
 -1      2331 6.88578E-03 6.05978E-06-3.32753E-06 1.56865E-04-1.24885E-06 3.09992E-07
 -1      2332 6.84409E-03 9.42203E-06-1.89884E-05 1.58150E-04-2.31023E-06 7.77424E-06
 -1      2333 6.92315E-03 5.96277E-06-5.40952E-06 1.59587E-04-2.10198E-06 1.36246E-07
 -1      2334 2.87829E-03 1.39559E-03-1.25482E-04-1.58652E-03-2.17967E-04 1.15056E-04
 -1      2335 2.57392E-03 1.26140E-03-2.45068E-04-1.45375E-03-1.71252E-04 1.10532E-04
 -1      2336 3.29902E-03 8.73479E-04 1.02294E-04-1.32827E-03-1.27589E-04 6.96789E-05
 -1      2337 1.37691E-03 1.45620E-03-2.17702E-04-1.36623E-03-2.75525E-04 8.98976E-05
 -1      2338 1.36189E-03 1.45261E-03-2.06171E-04-1.27863E-03-2.23908E-04 1.18484E-04
 -1      2339 6.72332E-03 3.58504E-05-1.27218E-05-2.09857E-04-7.60106E-06-4.61254E-05
 -1      2340 4.09332E-03 4.15032E-04 8.88729E-04-7.47237E-04-1.88796E-05-1.39534E-04
 -1      2341 3.76912E-03 5.56957E-04 5.34149E-04-9.61805E-04-1.26404E-05-1.77484E-04
 -1      2342 2.63262E-03 5.95723E-04 4.73186E-04-1.02110E-03-4.61738E-06-1.80646E-04
 -1      2343 4.97261E-03 7.01851E-04 4.33122E-04-6.74286E-04 4.73232E-05-3.75687E-05
 -1      2344 3.70465E-03 6.30358E-04 3.49144E-04-8.88811E-04 3.53357E-05-1.96917E-05
 -1      2345 3.61164E-03 7.05163E-04 1.32658E-04-1.24995E-03 3.69062E-05-2.30584E-05
 -1      2346-7.01152E-10 5.28666E-08 2.91021E-09-5.73468E-09-7.51221E-12-1.53592E-10
 -1      2347 6.57237E-03 8.49358E-04 3.94887E-05-2.96254E-04-1.37964E-06 1.20087E-05
 -1      2348 6.61194E-03 7.05122E-04 2.84854E-05-4.74250E-04 8.37008E-06-4.77512E-05
 -1      2349 6.74586E-03 5.08053E-04-2.78236E-05-2.35206E-04-3.59421E-06-2.77850E-05
 -1      2350 6.79830E-03 4.01262E-04-2.89897E-05-3.58133E-04-5.74967E-06-7.79597E-05
 -1      2351 6.79463E-03 5.15353E-04-3.37832E-06-4.59109E-04-3.64852E-06-2.45656E-05
 -1      2352 1.19092E-06 1.44461E-06 2.48058E-07-1.56823E-06-1.00208E-07-4.82959E-08
 -1      2353 1.33482E-06 1.59130E-06 4.10563E-07-2.35128E-06-3.41875E-08 4.59827E-10
 -1      2354 1.21944E-06 1.17468E-06 2.42808E-07-1.25691E-06-5.92383E-09-1.53782E-08
 -1      2355 6.89905E-03 1.92320E-04-5.40194E-05 4.30074E-04-1.19402E-06 5.55945E-05
 -1      2356 3.65911E-03 1.31512E-03-7.64672E-05-1.43636E-03-2.59809E-04 1.78401E-04
 -1      2357 3.87354E-03 7.96751E-04 1.04488E-05-1.18540E-03-1.93047E-04 1.29390E-04
 -1      2358 4.75003E-03 5.75862E-04 5.84464E-05-1.04243E-03-1.45976E-04 2.82628E-05
 -1      2359 1.37074E-03 1.36998E-03-1.46873E-04-1.37031E-03-2.99635E-04 9.67682E-05
 -1      2360 2.19908E-03 1.12995E-03-1.85264E-04-1.45889E-03-2.33897E-04 1.54639E-04
 -1      2361 2.80201E-03 7.73968E-04 3.09520E-05-1.38736E-03-1.52919E-04 7.55369E-05
 -1      2362 3.50770E-03 1.29538E-03-1.09063E-04-1.40040E-03-2.49035E-04 1.64667E-04
 -1      2363 5.78686E-03 1.51923E-03 2.82814E-04-1.81735E-03-1.90743E-04 2.03530E-04
 -1      2364 5.73184E-03 1.41239E-03 2.94358E-04-1.76086E-03-1.19377E-04 1.66293E-04
 -1      2365 6.43990E-03 1.58228E-03 4.69557E-04-1.89269E-03-8.41682E-05 1.10211E-04
 -1      2366 5.12821E-03 1.50762E-03 3.53954E-04-2.15197E-03-8.60114E-05 7.94587E-05
 -1      2367 6.51941E-03 1.64262E-03 4.07790E-04-1.85745E-03-8.13021E-05 6.22828E-05
 -1      2368 6.05363E-03 1.26873E-03 3.75745E-04-7.98150E-04-7.46254E-05 4.69141E-05
 -1      2369 5.09472E-03 1.61877E-03 3.98486E-04-2.11551E-03-9.06793E-05 1.08129E-04
 -1      2370 4.31775E-03 3.16918E-04 5.41724E-04-7.65823E-04 4.44878E-05 2.81092E-04
 -1      2371 5.71426E-03 8.92373E-04-1.25902E-05 5.67327E-04 6.73046E-05-1.92725E-05
 -1      2372 5.87397E-03 1.01877E-03-2.06106E-06 5.23381E-04 4.13536E-05-1.74465E-06
 -1      2373 5.58672E-03 9.00680E-04 7.36103E-05 7.60317E-04-7.17183E-05-1.21021E-04
 -1      2374 5.67120E-03 1.01465E-03 2.13458E-05 5.26889E-04-3.47575E-05-5.76499E-05
 -1      2375 8.39970E-04 2.53413E-04 1.31180E-04 6.68445E-04-6.35845E-06-1.61814E-06
 -1      2376 6.36696E-04-1.91873E-05 5.85745E-05 4.97598E-04-2.11158E-06-3.46015E-06
 -1      2377 4.49569E-04 1.72719E-04 5.43530E-05 3.71161E-04-1.32672E-05 5.68972E-07
 -1      2378 5.83071E-04 5.89525E-04 4.88292E-05 6.68914E-04-6.43553E-06 1.00006E-05
 -1      2379 2.77448E-04 5.41240E-04-5.29114E-05 4.13359E-04-4.65963E-07 1.37298E-05
 -1      2380 2.77514E-04 4.11736E-04-1.10564E-05 3.85434E-04-1.91104E-05 2.23517E-06
 -1      2381 3.78806E-04 5.74493E-04-1.22222E-04-5.34254E-04-2.97038E-06 1.91560E-05
 -1      2382 3.79890E-04 4.41277E-04-1.62090E-05-4.33255E-04-2.34100E-05 1.94669E-05
 -1      2383 7.14456E-04 3.77045E-05 5.07080E-05-5.45850E-04-3.81212E-06 1.04979E-05
 -1      2384 5.60091E-04 3.46737E-04 6.55877E-05-5.57365E-04 9.98042E-06 7.30417E-06
 -1      2385 5.58030E-04 2.95978E-04 1.27554E-04-4.00210E-04-1.63538E-05-2.32328E-05
 -1      2386 8.10480E-04 1.28198E-03-4.11786E-05-2.20212E-03 1.85816E-05-1.19345E-05
 -1      2387 4.03656E-04-5.90384E-04 2.48852E-04-2.04684E-03 7.61887E-05 1.76735E-04
 -1      2388 1.77215E-03-1.13386E-03-8.79203E-05-1.27604E-03-7.66076E-06 2.56703E-05
 -1      2389 6.98071E-03 1.61648E-04-4.92669E-05 3.87681E-04-2.40850E-06 5.81254E-05
 -1      2390 3.33524E-04 4.83070E-04-8.03652E-06 4.43926E-04-6.01776E-06 3.74691E-06
 -1      2391 3.81423E-04 1.07035E-04 3.28329E-05 2.65848E-04 1.79847E-05-1.96705E-05
 -1      2392-6.93390E-09 6.36048E-08 2.47761E-09 9.32820E-09 6.38534E-10 2.61369E-10
 -1      2393 4.28158E-03 1.33906E-03 1.31629E-05-1.93461E-03-2.00697E-04 1.48118E-04
 -1      2394 6.61276E-03 3.71262E-04-1.96161E-05-1.58267E-04-2.35869E-06-5.96842E-05
 -1      2395 6.71768E-03 2.08643E-04-3.13928E-05-1.99741E-04-5.74220E-07-5.22489E-05
 -1      2396 6.66780E-03 4.16851E-04-1.65076E-05-3.25852E-04 1.84083E-06-8.72871E-05
 -1      2397 6.53876E-03 4.04811E-04-7.74846E-06-3.30989E-04-2.68401E-06-6.30239E-05
 -1      2398 6.67195E-03 2.18429E-04-7.46377E-06-3.70437E-04 3.48262E-06-6.05911E-05
 -1      2399 1.10718E-04-1.45955E-05 4.51331E-06-1.54258E-05-1.54964E-07-1.03838E-06
 -1      2400 7.56021E-05-1.59738E-05 4.92315E-06 2.73297E-06-6.45393E-07-1.80245E-07
 -1      2401 7.00645E-03 4.28664E-04 3.35575E-05 7.56550E-04-9.22333E-07 6.86488E-05
 -1      2402 7.25592E-03 2.15913E-04 3.36706E-05 4.95873E-04-8.51347E-06 5.36110E-05
 -1      2403 7.17674E-03 2.08766E-04 2.06037E-05 5.31455E-04 1.29530E-06 8.66967E-05
 -1      2404 7.33174E-03 2.31081E-04 6.92835E-05 6.01812E-04-2.14143E-06 5.02185E-05
 -1      2405 1.90494E-03-1.17307E-03 9.74448E-05 1.15021E-03-2.46375E-05 5.99383E-07
 -1      2406 7.19376E-03 1.02008E-04 6.91992E-06-4.88121E-04 2.08880E-05 7.78594E-05
 -1      2407 6.93663E-03 1.62027E-04-5.06620E-05-4.27364E-04 1.72744E-05 5.65774E-05
 -1      2408 6.83328E-03 7.53787E-04 8.52889E-05-7.71409E-04-8.84109E-06 5.89140E-05
 -1      2409 1.64452E-04 5.05223E-06 1.87996E-05-4.27995E-05 4.75631E-06 1.86605E-06
 -1      2410 1.32271E-04 7.15707E-06 1.49418E-05-3.87476E-05-2.20128E-06-8.22848E-07
 -1      2411 1.15856E-04-1.96959E-05 1.12593E-05-6.23941E-06 6.18971E-06 3.95741E-06
 -1      2412 2.05028E-05-4.11219E-06 1.88215E-06-9.62803E-06-8.56530E-08 1.02427E-07
 -1      2413 1.51872E-05 1.02468E-06 1.49702E-06-7.22946E-06-7.38664E-07-4.52136E-08
 -1      2414 2.73443E-05-5.23919E-06 8.55707E-07-8.91911E-06-1.43017E-08 3.82732E-07
 -1      2415 4.48305E-04 2.47574E-04 7.41142E-05-3.77204E-04-5.83826E-06 1.39863E-05
 -1      2416 4.77869E-04 2.65357E-04 6.57269E-05-4.32656E-04-2.11670E-05-2.27624E-05
 -1      2417 7.78108E-04 3.07514E-04 1.46725E-04-5.81126E-04 1.94473E-05 2.35530E-05
 -1      2418 5.37064E-04 3.23836E-04 1.49313E-05-4.69310E-04-2.13430E-05-3.26145E-05
 -1      2419 6.80676E-03 5.00736E-04 1.78889E-05 7.02001E-04 3.67114E-06 8.36562E-05
 -1      2420 2.32093E-03 1.45592E-03-7.40086E-05 1.64607E-03-2.91738E-04-1.08906E-04
 -1      2421 6.08783E-03 9.07812E-04 4.01184E-04 9.03992E-05 3.06421E-06-1.35529E-04
 -1      2422 6.09565E-03 9.62120E-04 7.31701E-04 1.04077E-04-3.59659E-06-1.48708E-04
 -1      2423 5.70895E-03 8.31705E-04 4.49422E-04 2.42526E-04-1.03226E-05-1.34132E-04
 -1      2424 6.41760E-03 9.77710E-04 4.23951E-04-3.03270E-05 1.69425E-05-5.51094E-05
 -1      2425 6.17796E-03 1.02904E-03 2.76539E-04 1.00190E-04 5.03486E-06-5.38865E-05
 -1      2426 6.12165E-03 9.78373E-04 4.98813E-04 7.48108E-05-3.58488E-06-5.27358E-05
 -1      2427 6.10091E-04-7.83169E-04 3.50309E-04 2.15549E-03 2.74697E-04-7.67420E-05
 -1      2428 3.51002E-03 1.03798E-03 1.26532E-04 3.14800E-04-1.06430E-04-2.79418E-06
 -1      2429 6.75006E-03 2.56778E-04-2.35280E-05-1.17172E-04-4.83658E-07-4.67220E-05
 -1      2430 6.84848E-03 1.42793E-04-2.23542E-05-9.62338E-05-1.59338E-06-2.28859E-05
 -1      2431 6.77514E-03 2.66702E-04-2.69919E-05-1.93436E-05-1.89593E-06-4.74188E-05
 -1      2432 6.85700E-03 2.55532E-04-3.71840E-05-1.27999E-04-3.99173E-06-3.70073E-05
 -1      2433 6.79707E-03 3.93967E-04-4.74154E-05-5.23002E-05-1.55577E-06-7.17086E-05
 -1      2434 6.87173E-03 2.66992E-04-4.30892E-05-3.19193E-05-1.76618E-06-2.90700E-05
 -1      2435 3.37806E-03-8.09540E-04 5.52356E-05-2.94283E-04-2.20925E-04-1.53144E-04
 -1      2436 3.66599E-03-1.39920E-03-6.55906E-05 5.29711E-04 1.71506E-04-2.79144E-04
 -1      2437 4.76853E-03-1.58538E-04-3.92337E-04-4.38605E-04 6.22673E-06-5.50646E-06
 -1      2438 6.17585E-03-4.82560E-04 1.08319E-04 1.46995E-03 9.35315E-06-1.22854E-05
 -1      2439 6.64319E-04-7.57855E-04 3.70951E-04 2.19358E-03-2.73095E-04 1.13363E-04
 -1      2440-1.78211E-03 2.98979E-04 1.44158E-04-1.07951E-03-1.12205E-04 2.44883E-04
 -1      2441 5.19860E-06 2.02718E-06 6.83518E-07-4.42201E-06 3.28719E-07 4.31666E-08
 -1      2442 4.24338E-06 1.57623E-06 6.27717E-07-2.78098E-06-1.00260E-08-6.57528E-09
 -1      2443 6.82437E-03 2.17878E-04-2.96065E-05 4.30767E-05 1.53958E-06-3.96703E-05
 -1      2444 6.82067E-03 2.63675E-04-5.00793E-05 8.67302E-05 1.48756E-06-4.46679E-05
 -1      2445 6.89292E-03 1.06710E-04-1.99710E-05-3.36199E-05-2.03642E-07-1.68069E-05
 -1      2446 6.89419E-03 1.66392E-04-3.43671E-05 5.55881E-06-7.17568E-07-1.60844E-05
 -1      2447 6.87021E-03 1.15865E-04-1.74329E-05 7.41553E-05 1.11496E-06-2.29023E-05
 -1      2448 3.14828E-03 6.28772E-04 6.08465E-04-1.01274E-03 4.02533E-06 8.02313E-05
 -1      2449 1.83888E-03 4.09232E-04 2.80623E-04-9.47955E-04 1.16110E-05 6.09118E-05
 -1      2450 1.35020E-06 1.65014E-06 2.79065E-07-1.88746E-06 1.30304E-07 4.83560E-08
 -1      2451 6.07641E-07 1.11089E-06 8.46021E-08-1.09901E-06 1.13766E-08-1.71016E-08
 -1      2452 7.08879E-03 1.79195E-04-7.34758E-06 5.05980E-04 6.03111E-06-1.30672E-04
 -1      2453 7.26958E-03 2.81649E-04 1.96482E-05 6.71657E-04 9.31874E-06-9.86830E-05
 -1      2454 6.94403E-03 2.24461E-04-7.23336E-05 6.39970E-04-2.07553E-05-1.07436E-04
 -1      2455 6.85633E-03 4.17238E-04 8.60060E-06 7.46025E-04-5.27564E-06-1.09864E-04
 -1      2456 6.65841E-03 4.35260E-04-1.63285E-05 6.84476E-04-2.10831E-05-8.01522E-05
 -1      2457 6.67733E-03 6.62632E-04-1.37714E-06 8.90084E-04-3.16037E-05-9.64967E-05
 -1      2458 6.72829E-03 9.70830E-04 4.65841E-04-2.51310E-06 8.54224E-07 1.87344E-04
 -1      2459 6.47862E-03 1.51606E-03 1.31485E-03 1.41283E-06-5.79204E-06 1.65610E-04
 -1      2460 6.73618E-03 1.01187E-03 6.47178E-04 1.65671E-05-2.02429E-06 7.24827E-05
 -1      2461 6.36888E-03 1.53626E-03 1.36759E-03 4.64067E-05-2.00421E-06 2.08032E-04
 -1      2462 6.48403E-03 9.25927E-04 6.22505E-04-3.21983E-05-4.25939E-06 1.23759E-04
 -1      2463 6.34311E-03 1.57306E-03 1.49502E-03 6.49427E-05-8.12742E-06 5.17801E-05
 -1      2464 6.79777E-03 9.68770E-04 5.09333E-04 1.17781E-06 1.48325E-05 5.91074E-05
 -1      2465 6.67941E-03 9.58820E-04 4.10642E-04-1.52047E-05-2.61618E-06 1.88365E-04
 -1      2466 6.78919E-03 7.96990E-04 2.45445E-04-1.36114E-05 6.93187E-06 1.41711E-06
 -1      2467 6.44011E-03 8.98687E-04 4.89002E-04 5.69444E-05-1.42741E-05 1.03990E-04
 -1      2468 6.66993E-03 7.95818E-04 1.96594E-04 2.47359E-05-6.37623E-07-4.49147E-05
 -1      2469 6.49291E-03 8.32880E-04 2.45613E-04 2.09281E-05-1.77153E-05 5.10086E-05
 -1      2470 6.47174E-03 1.35013E-03 1.10594E-03-3.68517E-05 3.62949E-05-1.17299E-04
 -1      2471 6.80291E-03 8.08096E-04 1.30806E-04 1.97575E-05 1.20307E-05-4.27087E-05
 -1      2472 6.66514E-03 8.49943E-04 3.18686E-04 8.69467E-05-1.29767E-05-3.58855E-05
 -1      2473 6.54360E-03 1.37526E-03 1.15822E-03-2.08470E-06 1.19102E-05-5.72394E-05
 -1      2474 6.43754E-03 1.47116E-03 1.32083E-03-3.94395E-05 5.21805E-06 1.30281E-05
 -1      2475 6.87681E-03 9.26535E-04 4.04659E-04 4.93596E-06-9.05990E-06-3.54024E-05
 -1      2476 9.58134E-04 2.63226E-04 1.38354E-04 6.97592E-04-1.29198E-06-2.21341E-05
 -1      2477 1.61669E-03 3.85936E-04 3.47737E-04 8.66915E-04-2.43829E-06 3.08374E-05
 -1      2478 1.79958E-03 3.65177E-04 3.22843E-04 8.86131E-04 2.31470E-06-4.88331E-05
 -1      2479 2.05120E-03 1.36407E-03-1.39825E-04 1.47923E-03 3.07984E-04 1.16708E-04
 -1      2480 2.49768E-03 1.15948E-03-8.39366E-05 1.35658E-03 2.73164E-04 1.58444E-04
 -1      2481 1.31351E-03 1.46331E-03-1.13876E-04 1.38139E-03 2.38461E-04 1.02769E-04
 -1      2482 3.59968E-03 5.96132E-04 2.93861E-06 1.38677E-03 1.13382E-04 7.90148E-05
 -1      2483 2.82267E-03 9.41442E-04 5.10294E-05 1.41076E-03 1.09631E-04 2.12629E-05
 -1      2484 6.39996E-03 5.82260E-04-6.04589E-06-1.85871E-04 4.72741E-06-5.50413E-05
 -1      2485 6.31094E-03 5.01953E-04-2.78200E-05-3.75360E-04 1.43586E-05-6.48681E-05
 -1      2486 6.19632E-03 7.16819E-04-1.98303E-05-2.13838E-04 1.32857E-05-5.86900E-05
 -1      2487 6.37052E-03 6.33861E-04-3.19538E-05-3.63403E-04 1.76137E-05-8.81662E-05
 -1      2488 6.64158E-03 2.75383E-04-1.72890E-05 3.04521E-04 3.92310E-06-4.91889E-05
 -1      2489 6.68841E-03 2.78933E-04-1.13932E-05 2.13001E-04 3.91672E-06-4.47531E-05
 -1      2490 6.42069E-03 4.68997E-04-1.00738E-05 2.21957E-04 4.91964E-08-5.93960E-05
 -1      2491 1.11131E-04-1.33776E-05 5.54124E-06 1.39159E-05 1.38332E-07-1.33902E-06
 -1      2492 6.62570E-03 3.52041E-04-1.55368E-05-5.41207E-05 1.77259E-06-6.25796E-05
 -1      2493 6.65136E-03 3.68363E-04-2.00962E-05 3.12763E-05 2.64787E-07-6.86767E-05
 -1      2494 3.16666E-05-4.77952E-06 2.52590E-06-8.29075E-06-4.25858E-09-8.83680E-08
 -1      2495 4.47062E-05-5.93550E-06 3.80016E-06-9.48762E-06-2.74269E-06 1.02462E-06
 -1      2496 3.37273E-03 1.04837E-03-5.82336E-04-3.08797E-04-1.81045E-04 1.05581E-04
 -1      2497 2.71060E-03 6.40112E-04 4.44423E-04-9.80290E-04-1.54611E-05 1.20333E-04
 -1      2498 3.03135E-03 6.26522E-04 5.22461E-04-9.91568E-04 9.33560E-07 2.14881E-04
 -1      2499 1.63576E-03 4.54608E-04 2.20469E-04-9.96468E-04 1.29264E-05 8.27309E-05
 -1      2500 1.54828E-03 1.13992E-03-3.65773E-05-1.20235E-03-1.17416E-04 6.95565E-05
 -1      2501 1.84683E-03 3.83149E-04 2.75956E-04-9.91180E-04-1.22825E-06 1.26306E-04
 -1      2502 5.06213E-03 1.60313E-03 3.07996E-05-1.88951E-03 1.13750E-05 1.29004E-05
 -1      2503 3.34633E-03 1.03588E-03-5.80671E-04-3.19028E-04 2.02168E-04-9.57563E-05
 -1      2504 4.46009E-03 1.96050E-03 3.02205E-05-2.44675E-04 8.45397E-05-3.71029E-05
 -1      2505 5.49340E-03 1.16053E-03 1.47156E-03-5.15702E-04 1.07053E-05-9.71359E-05
 -1      2506 5.94912E-03 1.22362E-03 1.26449E-03-2.60764E-04 5.19502E-06 6.57445E-05
 -1      2507 4.58011E-03 5.83999E-04 1.04366E-03-6.95646E-04 1.68148E-05 1.25374E-04
 -1      2508 5.76330E-03 8.34680E-04 6.80662E-04-1.69467E-04 3.13027E-05 9.75466E-05
 -1      2509 5.31185E-03 7.87902E-04 9.55272E-04-5.07860E-04 2.28336E-05 3.32926E-04
 -1      2510 7.09034E-03 1.58165E-03 1.06681E-03-1.99481E-05-2.35209E-05 8.24054E-04
 -1      2511 6.29486E-03 1.55860E-03 1.38976E-03-8.07368E-05 4.10897E-06 2.10161E-04
 -1      2512 6.94861E-03 1.62964E-03 1.06925E-03-2.35779E-05 9.30137E-05 8.78820E-04
 -1      2513 5.47030E-03 2.40783E-04-1.16435E-04 2.69649E-04 6.42216E-05-2.76682E-04
 -1      2514 5.90693E-03 7.53002E-04-2.31700E-04 7.18034E-04-6.24332E-07 1.33849E-05
 -1      2515 8.05372E-03-8.83935E-04-1.36460E-04-6.54978E-04-2.56898E-04-3.72016E-04
 -1      2516 1.07451E-02-2.92086E-04 6.49245E-04-1.21429E-03-3.24301E-06 1.47908E-05
 -1      2517 5.49289E-03 2.11183E-04-1.13291E-04 3.07939E-04-7.62537E-05 2.75634E-04
 -1      2518 8.04974E-04 9.75962E-04-1.94488E-04-7.95040E-04-2.16197E-04 3.85081E-05
 -1      2519 1.51219E-05 1.32470E-06 1.54986E-06 6.94061E-06 7.09635E-07-8.12117E-08
 -1      2520 8.08130E-03-1.01204E-03-1.73005E-04-6.36440E-04 2.84206E-04 3.69431E-04
 -1      2521 7.50374E-03 2.14541E-04 1.16055E-04-7.74637E-04-6.20070E-05-4.38815E-05
 -1      2522 7.49178E-03 3.21351E-04 1.72264E-04-8.36629E-04 4.94938E-06-3.07909E-05
 -1      2523 6.84631E-03 9.83876E-04 1.95387E-04-7.98950E-04 7.29444E-06-2.51601E-05
 -1      2524 7.70496E-03 9.63274E-04 4.13647E-04-1.07379E-03-2.07633E-05-2.27649E-05
 -1      2525 7.48008E-03 1.06717E-03 4.61145E-04-1.14790E-03-2.37743E-05 5.26771E-05
 -1      2526 2.94569E-03 8.62492E-04 5.17596E-05 1.27276E-03-1.25255E-04-8.51002E-05
 -1      2527 3.53112E-03 7.34362E-04 2.43610E-04 1.02976E-03-1.07752E-04-1.46356E-04
 -1      2528 2.19291E-03 7.80686E-04 3.50842E-05 1.11833E-03-1.11937E-04-1.13146E-04
 -1      2529 2.95353E-03 8.64475E-04 2.30535E-04 1.14995E-03-5.98053E-05-9.89952E-05
 -1      2530 1.41730E-03 9.23062E-04-3.58776E-05 1.13499E-03-4.54791E-05-5.17246E-05
 -1      2531 2.19293E-03 7.46946E-04 2.16089E-04 1.01001E-03-6.03506E-05-1.21798E-04
 -1      2532 2.18472E-08 9.02692E-07 6.34467E-08-6.72055E-07-4.23085E-09 1.52430E-08
 -1      2533 2.22526E-07 9.86517E-07 1.20708E-07-8.07391E-07-1.27965E-09-1.01019E-08
 -1      2534 6.82102E-03 3.29463E-04-3.47977E-05-1.97571E-04-3.56321E-07 1.89225E-05
 -1      2535 6.91829E-03 1.18400E-04-5.03722E-05-1.81909E-04-4.98949E-06-1.01248E-05
 -1      2536 6.87134E-03 1.40282E-04-3.87810E-05-2.01102E-04 2.01368E-06 4.26707E-05
 -1      2537 6.80408E-03 3.10160E-04-5.27649E-05-3.15039E-04 8.54728E-06 5.84930E-06
 -1      2538 6.87393E-03 9.13327E-05-6.53440E-05-2.95606E-04 2.16428E-06 3.45085E-05
 -1      2539 6.29089E-03 6.75964E-04 1.27120E-04-1.52783E-05-5.86959E-05 8.90608E-06
 -1      2540 6.52476E-03 6.84700E-04 7.63364E-05 1.15646E-05-4.56985E-07-7.44358E-05
 -1      2541-2.22032E-08 4.54214E-07 2.51475E-08 1.66972E-07-3.18343E-09-1.54567E-09
 -1      2542 7.01923E-08 4.98805E-07 6.03394E-08 2.40837E-07-2.98554E-09 1.03220E-09
 -1      2543-2.00502E-08 7.58777E-07 7.38375E-08 4.07727E-07-3.36416E-08 3.34387E-08
 -1      2544 4.34043E-05-3.79899E-06 3.63421E-06 8.54408E-06 1.81121E-06 2.81945E-07
 -1      2545 2.67772E-06 1.58453E-06 2.06517E-07 2.65822E-06-3.00457E-08-5.82085E-08
 -1      2546 1.23041E-06 1.48572E-06 2.77283E-07 2.28205E-06 8.40475E-10 2.97221E-08
 -1      2547 1.37070E-06 1.68202E-06 2.87017E-07 1.94055E-06-1.51127E-07 6.04782E-08
 -1      2548 7.07801E-03 1.87966E-04 3.83594E-06 4.61202E-04-4.33925E-06-1.28796E-04
 -1      2549 7.20954E-03 2.62337E-04 3.54637E-05 6.18702E-04 4.54822E-06-7.71434E-05
 -1      2550 7.56093E-04 7.97870E-04-3.06227E-04-7.50601E-04 1.47894E-04-5.72385E-05
 -1      2551 1.93648E-06 1.88587E-06 3.17951E-07 2.93083E-06 3.11149E-07-3.37562E-08
 -1      2552 4.68971E-06 1.92519E-06 6.43537E-07 3.66900E-06 2.81077E-07-4.28645E-08
 -1      2553 4.32181E-06 1.65044E-06 6.81219E-07 2.74360E-06 2.31620E-08-2.06588E-08
 -1      2554 1.07122E-02-4.04628E-04 2.42085E-04 6.16558E-03 2.94437E-04-5.21881E-04
 -1      2555 1.10983E-02-5.15137E-04 5.73252E-04 6.36301E-03-2.11543E-04 2.52854E-04
 -1      2556 7.74110E-03-3.17762E-03-6.04253E-04 1.41153E-03 6.59064E-06-4.99695E-05
 -1      2557 6.95013E-03 3.34944E-05-7.86433E-06 1.15721E-05-2.56767E-06 7.39750E-06
 -1      2558 7.00508E-03 1.54957E-06-3.93644E-06 3.18275E-05-9.18446E-07 8.45975E-07
 -1      2559 6.99827E-03 2.36427E-06-2.83508E-06-3.57959E-05 2.86958E-06 7.75225E-07
 -1      2560 6.18831E-09 5.03477E-08 5.14005E-09 2.09681E-10 2.52068E-10-2.91279E-09
 -1      2561-4.28720E-09 5.49434E-08 5.20701E-09 1.21456E-08 2.31330E-10-1.30056E-10
 -1      2562 4.24486E-04 1.21767E-04 7.58810E-05 3.57991E-04 9.13508E-06-5.49990E-06
 -1      2563 2.65546E-04 5.05223E-04-5.73839E-05 4.15189E-04 1.41180E-05-3.25748E-06
 -1      2564 3.41977E-04 5.30147E-04-6.41103E-05 4.85254E-04-1.52918E-05-1.27208E-05
 -1      2565 1.00781E-03 1.11022E-03-3.07589E-04 8.90241E-04-1.13580E-04-4.93516E-05
 -1      2566 1.57786E-03 1.54923E-03-2.02932E-04 1.39822E-03-1.64593E-04-5.79113E-05
 -1      2567 1.50049E-03 1.65997E-03-2.32197E-04 1.45030E-03-1.09769E-04-6.50913E-05
 -1      2568 2.12908E-04-4.09859E-05 1.89453E-05-7.03606E-05 1.71822E-06 1.73074E-06
 -1      2569 2.94144E-03 1.27599E-03-1.44705E-04-1.50978E-03 1.42876E-04-8.24829E-05
 -1      2570 2.99601E-03 1.23805E-03-9.66933E-05-1.48029E-03 1.62018E-04-1.37417E-04
 -1      2571 1.70710E-03 1.28937E-03-1.73276E-04-1.31577E-03 6.48828E-05 3.12501E-05
 -1      2572 5.91490E-03 1.27704E-03 2.15932E-07 7.74774E-04 8.67440E-05-4.72251E-05
 -1      2573 6.58697E-03 5.09934E-04-1.27938E-06-8.43622E-05-2.92731E-06-5.52237E-05
 -1      2574 6.55897E-03 4.45641E-04-1.71540E-05-5.95144E-05-3.56491E-06-6.46611E-05
 -1      2575 6.74170E-03 6.13839E-04 3.23135E-05-1.83412E-06-1.35283E-06-5.73941E-05
 -1      2576 6.56999E-03 6.21422E-04 5.79114E-05 2.96103E-06-8.56814E-06-6.53514E-05
 -1      2577 6.46693E-03 5.31392E-04-1.39886E-05 8.17150E-06-1.19399E-05-6.93090E-05
 -1      2578 1.20945E-02-7.81263E-04 1.60473E-03-4.71234E-03 6.47205E-04 3.68309E-04
 -1      2579 1.23086E-02 1.69688E-03 6.71407E-04-6.65994E-03-3.29757E-05-2.21393E-05
 -1      2580 6.35358E-03-4.23341E-03 4.06481E-05-1.41789E-03-7.83543E-05-1.35040E-05
 -1      2581 7.09552E-03-6.64260E-06 1.81872E-06-9.78487E-05-4.91901E-07-1.10289E-06
 -1      2582 7.11710E-03-1.16726E-05 1.79639E-06-3.38595E-05-5.63654E-07 5.56350E-07
 -1      2583 7.08283E-03-9.05149E-06-3.72076E-06 1.91653E-06 6.20883E-08 7.98433E-07
 -1      2584 9.02837E-10 6.34384E-08 6.15998E-09 1.04642E-09 8.34939E-10-7.40406E-10
 -1      2585-2.87025E-09 8.62922E-08 7.82064E-09-1.32834E-08 1.27717E-09-4.21796E-09
 -1      2586-8.52435E-08 3.86742E-07 4.12176E-08 8.30479E-08 2.68033E-09-3.63276E-09
 -1      2587 1.03947E-08 2.24132E-07 2.51754E-08 4.87541E-08 9.37952E-10-3.35767E-09
 -1      2588-6.14861E-08 3.62076E-07 2.58920E-08 5.89880E-08-1.43115E-08 8.99941E-09
 -1      2589 1.78348E-03-1.11781E-03-9.30438E-05-1.29011E-03 3.33450E-05-3.92641E-05
 -1      2590 3.47391E-04-5.81759E-04 2.39569E-04-2.02891E-03-7.01920E-05-1.67190E-04
 -1      2591 7.19933E-03 7.58856E-04 1.44079E-04 8.61559E-04 6.63892E-05 7.39712E-05
 -1      2592 7.26696E-03 2.68989E-04 3.23331E-05 6.87457E-04 1.47185E-05 1.44657E-04
 -1      2593 6.86578E-03 1.04176E-03 1.11423E-04 1.03382E-03 6.47437E-05 6.86674E-05
 -1      2594 7.89938E-03 3.59067E-04 1.26473E-04 9.99691E-04 3.61799E-07 1.39756E-04
 -1      2595 6.79917E-03 1.05772E-04-2.80996E-05-2.37928E-04 8.44258E-06 3.94913E-05
 -1      2596 6.86540E-03 9.70668E-05-2.10603E-05-1.24416E-04 6.02322E-06 2.31885E-05
 -1      2597 6.79128E-03 4.24755E-05-1.43268E-05-1.79369E-04 3.08274E-06 2.52849E-05
 -1      2598 6.78150E-03 6.14162E-05-4.42193E-05-2.45174E-04 8.31875E-06 5.69335E-05
 -1      2599 6.83877E-03 5.59816E-05-4.03942E-05-1.52997E-04 1.85888E-06 2.22130E-05
 -1      2600 9.74336E-04 7.73925E-04 2.11321E-05 8.34234E-04 4.70512E-05 2.63061E-05
 -1      2601 5.72297E-04 8.05525E-04-4.76800E-05 6.78335E-04 6.55985E-05-1.52442E-05
 -1      2602 3.56698E-04 7.05603E-04-1.08491E-04 4.64852E-04 4.13774E-05 2.14639E-05
 -1      2603 3.60269E-04 5.75493E-04-1.08999E-05 4.86468E-04 1.35282E-05-7.99406E-06
 -1      2604 8.92719E-03-3.54087E-03-4.91265E-04 2.07198E-03 2.20045E-04 8.52011E-05
 -1      2605 5.86518E-03 8.53543E-04 9.75656E-05 1.79582E-04 8.65662E-06 8.41952E-05
 -1      2606 5.61838E-03 7.16055E-04 2.62006E-04 2.15903E-04 4.80961E-05 2.31181E-04
 -1      2607 6.17473E-03 9.04591E-04 3.66723E-04 2.95203E-05 4.02414E-05 2.78118E-04
 -1      2608 5.91458E-03 9.71331E-04 1.12824E-04 2.95201E-04 1.76083E-05 4.35334E-05
 -1      2609 6.18961E-03 9.12110E-04 1.50379E-04 1.23723E-04-9.17166E-06 6.41565E-05
 -1      2610 5.99691E-03 8.67041E-04 3.47121E-04 5.83141E-05 2.24461E-05 1.83910E-04
 -1      2611 4.98612E-05-8.82148E-06 4.01111E-06 8.81090E-06-2.65767E-06-4.80457E-07
 -1      2612 2.98252E-04-2.11818E-03-1.20179E-04 2.22803E-04 1.34531E-05-3.33659E-06
 -1      2613 3.65237E-03-1.39267E-03-5.25023E-05-5.20796E-04-1.62331E-04-2.99863E-04
 -1      2614-7.62995E-09 8.85268E-08 4.03391E-09 5.01392E-09 5.97026E-10-5.03436E-10
 -1      2615-6.64886E-09 6.15664E-08 3.91488E-09 1.19646E-08-6.81436E-10 5.02571E-10
 -1      2616-5.17774E-09 6.87631E-08 7.88985E-09 1.05631E-08 1.13440E-10-1.06126E-09
 -1      2617 9.26129E-06 1.03947E-06 6.16376E-07 5.61861E-06-4.69022E-08-1.04025E-07
 -1      2618 5.90100E-06 1.43776E-06 1.05013E-06 5.46357E-06 9.89322E-08 1.69731E-08
 -1      2619 1.29161E-05 9.94692E-07 1.47638E-06 4.95288E-06 4.03818E-09-7.64134E-09
 -1      2620 5.57760E-03 1.29245E-03 1.37482E-04-1.49320E-03 1.08650E-04-1.24107E-04
 -1      2621 5.12187E-03 4.58251E-04 2.91942E-05-4.34674E-04 2.00957E-05-1.50048E-04
 -1      2622 5.69879E-03-2.59970E-03-3.16767E-04 1.49385E-03-6.46146E-04 6.32559E-04
 -1      2623 5.77463E-03-3.20516E-03-7.79019E-04 1.91912E-03 6.33971E-04-5.30680E-04
 -1      2624 6.83140E-03 4.04485E-05-9.64528E-05-2.43583E-04 2.24116E-06 2.20929E-05
 -1      2625 6.83843E-03 2.58015E-04 3.45617E-05-5.02082E-04 2.12776E-08-8.97255E-05
 -1      2626 6.44444E-03 5.75353E-04 1.38312E-07-6.88122E-04 3.24452E-05-7.51381E-05
 -1      2627 6.61910E-03 3.40501E-04-4.97331E-06-5.18782E-04 2.98376E-06-5.21890E-05
 -1      2628 6.03815E-03 1.61901E-03 4.89087E-04-1.62687E-03-7.29798E-06 9.48469E-05
 -1      2629 7.25351E-03 9.86703E-04 5.14906E-04-1.02808E-03 2.50561E-06 6.24578E-05
 -1      2630 2.91822E-04-7.52291E-05 2.36380E-05-1.50512E-04-3.71514E-06 4.19985E-06
 -1      2631 6.57881E-03 4.29417E-04-2.17590E-05 1.00356E-05-1.96043E-06-6.15589E-05
 -1      2632 2.74649E-05-2.92473E-06 1.25319E-06 9.16252E-06 3.59594E-07 1.53174E-07
 -1      2633 3.54438E-05-2.85948E-06 3.37790E-06 5.26010E-06-8.91601E-08-1.06111E-07
 -1      2634 6.91205E-03 8.39073E-05-7.77366E-05-3.28371E-04-2.87292E-06 5.89932E-05
 -1      2635 6.98789E-03 8.74609E-05-7.90855E-05-3.54986E-04-5.92526E-06 3.67895E-05
 -1      2636 6.95459E-03 1.36075E-04-6.35505E-05-3.95814E-04-2.49866E-06 2.36377E-05
 -1      2637 6.02367E-03 1.03485E-03 5.79266E-04-5.04575E-04-9.12312E-05-5.99955E-04
 -1      2638 5.27318E-03 5.10466E-04 2.08844E-05-2.51415E-04 7.61906E-05-6.71838E-06
 -1      2639 5.35691E-03 7.00616E-04 1.93449E-04-2.78023E-04 8.44816E-05-2.13268E-04
 -1      2640 6.22936E-03 6.16373E-04-1.51858E-05-1.85596E-04-9.39888E-06 4.38417E-05
 -1      2641 6.47762E-03 4.78619E-04-1.79700E-05-1.69693E-04 5.67963E-06 6.20875E-05
 -1      2642 6.34541E-03 6.52439E-04-2.94006E-06-8.47922E-05-1.22794E-05 4.09551E-05
 -1      2643 6.22866E-03 7.34909E-04 4.86324E-05-1.50787E-05-1.59085E-05-1.41956E-05
 -1      2644 6.42757E-03 5.96842E-04 1.96815E-05-7.79622E-07 3.19278E-06 6.53010E-06
 -1      2645 7.01546E-03-7.48755E-07-3.01305E-06 1.95968E-05 9.47150E-07-1.36523E-06
 -1      2646 7.77149E-04 9.47697E-04-2.73583E-04-7.25080E-04-2.08227E-04 6.22952E-05
 -1      2647 6.75198E-03 6.21867E-05-1.85829E-05-2.72727E-04 7.89134E-06 5.58484E-05
 -1      2648 1.04819E-03 9.68607E-04-2.23928E-04-7.40864E-04 1.96031E-05 1.15434E-05
 -1      2649 7.66867E-04 8.94528E-04-1.63431E-04-7.63126E-04 3.00587E-05 2.38230E-05
 -1      2650 1.80336E-03 1.12729E-03 3.17136E-05-1.19938E-03-3.49691E-05-3.44925E-05
 -1      2651 4.58568E-04 8.47549E-04-4.16252E-04-5.84963E-04-2.84719E-05 4.16029E-05
 -1      2652 4.46050E-04 7.80688E-04-2.47160E-04-5.85864E-04-3.59018E-05 4.93259E-05
 -1      2653 8.78836E-04 4.27985E-04 9.95591E-05-6.32043E-04 1.82588E-05 4.36465E-05
 -1      2654 4.84083E-03-1.97247E-04-3.69612E-04 4.81849E-04 8.33882E-06-1.52584E-05
 -1      2655 3.32007E-03-8.35008E-04 2.89625E-05 2.97877E-04 2.10568E-04-1.57442E-04
 -1      2656 6.24162E-03-5.31566E-04 1.38893E-04-1.45035E-03 3.27987E-06-2.12057E-05
 -1      2657 7.21596E-03 8.58343E-04 3.00852E-04-8.17424E-04-1.63698E-05 3.13249E-05
 -1      2658 7.53630E-03 9.94292E-04 4.90761E-04-1.00612E-03-1.23240E-05 4.69594E-05
 -1      2659 7.55564E-03 9.52137E-04 4.88073E-04-1.09861E-03 1.77870E-05-2.82274E-06
 -1      2660 7.22358E-03 9.55565E-04 4.83130E-04-1.06873E-03 1.46644E-05-3.97807E-05
 -1      2661 7.80787E-03 4.17574E-04 2.99872E-04-1.05093E-03-6.91533E-06-1.10946E-05
 -1      2662 7.73210E-03 4.30141E-04 2.98100E-04-9.89452E-04-1.22455E-05 3.34103E-05
 -1      2663 3.26677E-03 1.06438E-03-5.87021E-04 3.76127E-04-2.39658E-04-7.35813E-05
 -1      2664 2.19425E-03 1.40126E-03-6.52925E-05-1.18843E-03 3.57775E-06-2.26628E-05
 -1      2665 8.09013E-03 5.87386E-04 3.46360E-04 9.90409E-04 1.17930E-06-3.92444E-05
 -1      2666 7.72042E-03 7.21367E-04 2.40997E-04 1.14036E-03-3.40323E-05-7.38045E-05
 -1      2667 1.74130E-03 3.38047E-04 3.43344E-04 8.61171E-04 3.12516E-05-1.66290E-04
 -1      2668 5.31824E-03-5.90676E-04 2.61417E-05-2.01720E-03 6.20714E-04 4.89156E-04
 -1      2669 8.04902E-04-2.68991E-04 9.70825E-05 1.98140E-04 3.36310E-04 3.20698E-04
 -1      2670 6.85282E-03 1.63093E-05-1.54918E-05 1.53206E-04-2.34483E-06 1.60291E-05
 -1      2671 1.07227E-09 4.88078E-08 6.36645E-09-6.30803E-09 2.38963E-10-1.95308E-10
 -1      2672 6.82101E-03 8.84363E-06-1.27120E-05 1.70917E-04-1.91409E-06 7.72921E-06
 -1      2673 1.71116E-03 1.24326E-03-1.76768E-04-1.29570E-03-1.03821E-05-7.39798E-05
 -1      2674 1.25587E-05 7.23809E-07 1.38136E-06-5.05610E-06 2.48757E-08-7.48293E-09
 -1      2675 4.75357E-03 6.81528E-04 3.83429E-05 8.33479E-04 1.22414E-04 9.45632E-05
 -1      2676 5.29351E-03 4.72982E-04-8.87325E-06 3.97033E-04 5.56696E-05 3.27123E-05
 -1      2677 5.55099E-03 6.63906E-04 1.33562E-04 3.61036E-04 5.08483E-05 1.86669E-04
 -1      2678 4.54486E-03 3.86929E-04 3.55660E-05 6.42929E-04 6.15164E-05 5.62974E-05
 -1      2679 5.39178E-03 4.49109E-04 9.95308E-05 2.55056E-04 1.03714E-04 1.11727E-04
 -1      2680 5.99634E-03 9.61349E-04 1.44600E-05-4.41939E-04 1.86511E-05-4.52800E-05
 -1      2681 6.24565E-03 8.21491E-04 4.38167E-06-5.05967E-04 1.51351E-05-5.05718E-05
 -1      2682 6.37937E-03 1.03748E-03 5.23018E-05-8.23396E-04 1.02541E-05-6.52366E-05
 -1      2683 6.68602E-03 4.61919E-04-2.08307E-05 3.42998E-05-3.48510E-07 8.09473E-05
 -1      2684 6.74833E-03 4.78585E-04-2.22829E-05 6.92887E-05-4.36674E-06 6.14947E-05
 -1      2685 6.79926E-03 5.98725E-04 3.80237E-05-3.23867E-05-6.43567E-07 4.71348E-05
 -1      2686 6.64162E-03 5.74140E-04-9.65107E-06 1.73661E-04-1.19955E-06 7.64401E-05
 -1      2687 6.69214E-03 6.33189E-04 3.16215E-05 5.53624E-05 2.64381E-06 4.55565E-05
 -1      2688 6.75143E-03 6.75068E-04 6.74866E-05 8.27143E-05-2.57376E-06 2.70738E-05
 -1      2689 6.42464E-03 1.01272E-03 1.56761E-04 2.58271E-04 3.63034E-06-1.41194E-06
 -1      2690 6.34479E-03 9.60702E-04 8.46497E-05 2.21446E-04-7.28667E-06 1.64469E-05
 -1      2691 6.15538E-03 1.09921E-03 2.42091E-04 3.28659E-04-1.23223E-05-2.57371E-05
 -1      2692 6.37217E-03 1.08969E-03 1.17104E-04 4.34410E-04-4.56307E-06 2.46254E-05
 -1      2693 6.09036E-03 1.04861E-03 1.69096E-04 2.82133E-04-9.27905E-06-2.08251E-05
 -1      2694 1.12878E-03 1.56938E-03-2.89956E-04 1.28630E-03 1.67102E-04 9.26443E-05
 -1      2695 2.94594E-03 1.12939E-03-2.45973E-05 1.50890E-03 9.18937E-05 4.99584E-05
 -1      2696 1.82689E-03 1.08963E-03-6.70569E-05 1.29929E-03 7.88718E-05 1.03985E-04
 -1      2697 2.41462E-03 1.56793E-03-2.14675E-04 1.60329E-03 1.99100E-04 1.07327E-04
 -1      2698 1.69704E-03 1.49147E-03-1.17876E-04 1.33620E-03 2.26583E-04 1.34336E-04
 -1      2699 3.14378E-03 7.81822E-04-1.95182E-05 1.40234E-03 1.45908E-04 6.51113E-05
 -1      2700-5.67049E-09 8.61859E-08 3.14026E-09 7.15147E-09-2.31313E-10-1.51717E-09
 -1      2701-1.37563E-09 1.07518E-07 1.01900E-08-5.55521E-09 4.03649E-10-2.32781E-10
 -1      2702 4.91945E-03 6.59269E-04 8.24546E-04 5.93647E-04-2.77622E-05 2.88366E-04
 -1      2703 5.58048E-03 8.92371E-04 1.04338E-03 4.62069E-04-3.67365E-05 3.41485E-04
 -1      2704 3.73295E-04 8.64917E-04-1.56546E-04 6.10580E-04-1.03847E-04 1.53236E-05
 -1      2705 7.77027E-04 1.02417E-03-1.17907E-04 8.97076E-04-1.55535E-04-2.15418E-05
 -1      2706 6.88858E-03 1.72582E-04-3.53634E-05 1.50561E-05-5.97956E-07 2.59823E-05
 -1      2707 6.84524E-03 2.86262E-04-5.32087E-05 9.44134E-05-1.59626E-07 1.64285E-06
 -1      2708 6.87684E-03 1.74123E-04-3.74179E-05 1.22981E-04 1.01520E-07 2.52729E-06
 -1      2709 6.83022E-03 3.53644E-04-2.73906E-05 4.12895E-04-2.23812E-06 6.76380E-05
 -1      2710 6.76106E-03 2.13034E-04-3.66473E-05 3.02135E-04-2.24309E-06 7.53805E-05
 -1      2711 6.80390E-03 2.16339E-04-5.33173E-05 3.06503E-04 3.86710E-06 6.03127E-05
 -1      2712 6.86695E-03 1.25402E-05-1.04376E-05-1.43431E-04-7.85173E-07-5.41085E-06
 -1      2713 6.91333E-03 1.60312E-05-1.46625E-05-1.09087E-04-3.53744E-07-5.75018E-06
 -1      2714 5.75505E-03 8.10703E-04 2.12288E-04-1.93778E-04-3.88405E-05 2.07512E-04
 -1      2715 5.67990E-03 6.65503E-04 2.22965E-04-2.57177E-04-9.75704E-05 2.13019E-04
 -1      2716 4.65540E-03 6.26662E-04 6.27965E-04-7.51138E-04-9.21500E-06 3.14723E-04
 -1      2717 4.97598E-03 4.35307E-04-7.65042E-05-6.17234E-04-6.30059E-05 1.47522E-04
 -1      2718 6.10070E-03 8.93127E-04 1.27778E-05-3.48861E-04-1.98083E-05 5.58330E-05
 -1      2719 6.29033E-03 9.17298E-04 4.99907E-05-2.18492E-04 1.02313E-05 2.99327E-06
 -1      2720 5.87157E-03 8.39425E-04-1.07619E-05-2.50125E-04 2.09172E-05 3.14185E-05
 -1      2721 1.19355E-03-5.17860E-04-3.20416E-04 1.99613E-03-1.73017E-05 1.08678E-06
 -1      2722 4.42146E-04-1.89540E-03-5.81044E-05-3.86569E-04-1.30994E-05-4.29138E-06
 -1      2723 1.81352E-03 2.59998E-04 1.46562E-04 9.65443E-04 3.51352E-06 8.56127E-05
 -1      2724 1.25854E-03 1.27748E-05 2.06955E-04 7.13779E-04-4.73430E-05 1.09065E-04
 -1      2725 4.13603E-03 5.58429E-04 5.85224E-04-9.50399E-04-7.15707E-06 1.93207E-04
 -1      2726 3.08538E-03 9.65620E-04 7.45877E-05-1.35437E-03-6.29198E-05 6.28608E-05
 -1      2727 1.79453E-04-1.43511E-05 1.64759E-05 4.01984E-05 5.83688E-06-3.47473E-06
 -1      2728 6.25022E-03 6.12261E-04-3.78166E-05-3.76313E-05 7.15387E-06-8.17523E-05
 -1      2729 6.04176E-03 1.20018E-03 3.13241E-04 6.01280E-04-3.66813E-05-6.46481E-05
 -1      2730 6.38035E-03 1.29086E-03 2.43482E-04 6.62628E-04-1.69320E-05-1.62966E-05
 -1      2731 6.28284E-03 1.22307E-03 1.58282E-04 5.87786E-04-1.11605E-05 9.82147E-06
 -1      2732 6.14505E-03 9.67935E-04 3.82190E-04 7.27573E-05 3.15106E-05 9.22914E-05
 -1      2733 6.10811E-03 9.56780E-04 7.67939E-04 9.75414E-05-3.85790E-05 1.58921E-04
 -1      2734 6.17630E-03 9.94126E-04 4.70604E-04 8.01424E-05 6.40331E-06 9.17925E-06
 -1      2735 6.08469E-03 9.78417E-04 8.52853E-04 1.39056E-04-1.70890E-05 2.45477E-05
 -1      2736 5.73536E-03 9.00468E-04 5.80499E-04 2.20422E-04-8.55169E-07 3.79610E-05
 -1      2737 3.40613E-03 7.82466E-04 1.30962E-04-1.25194E-03-5.72741E-06-1.53162E-05
 -1      2738 6.46638E-03 8.66379E-04 2.60629E-04-1.75359E-05 7.83002E-06 4.74529E-05
 -1      2739 6.52483E-03 8.99434E-04 3.71722E-04-2.22396E-05 1.02736E-05-1.62955E-05
 -1      2740 6.32727E-03 1.00075E-03 2.16197E-04 1.37256E-04 8.30445E-06-6.16862E-06
 -1      2741 1.68013E-03 1.46488E-03-1.77995E-04 1.48460E-03 2.60131E-04 1.09314E-04
 -1      2742 4.05507E-03 9.20830E-04 6.99941E-05 1.31749E-03 1.39149E-04 1.22146E-04
 -1      2743 2.95519E-03 7.68781E-04 3.27787E-05 1.21247E-03 1.54042E-04 1.31496E-04
 -1      2744 3.90398E-03 2.02879E-03 1.85067E-04 1.75326E-03 2.06242E-04 2.26342E-04
 -1      2745 2.60767E-03 1.26061E-03-5.22206E-05 1.50168E-03 3.04225E-04 2.18265E-04
 -1      2746 4.88469E-03 8.38126E-04 7.93855E-05 1.13165E-03 1.66549E-04 2.06998E-05
 -1      2747 3.51814E-03 5.86156E-04-8.95435E-06-9.85529E-04-9.85577E-05 1.47527E-04
 -1      2748 3.59400E-03-1.30673E-03-4.57875E-05 5.36222E-04-1.54605E-04 2.80588E-04
 -1      2749 6.84928E-03 3.13740E-04-1.95730E-05 5.56917E-04-2.65667E-06-1.08898E-04
 -1      2750 6.85196E-03 1.04980E-04-6.16269E-05 3.63593E-04-2.10086E-06-1.13436E-04
 -1      2751 7.16755E-03 2.36860E-04 2.71035E-05 4.92735E-04 4.01038E-06-9.16518E-05
 -1      2752 2.62112E-03 1.25880E-03-1.74499E-04-1.47594E-03-7.51268E-05 2.92743E-05
 -1      2753 1.06810E-03 1.34941E-03-3.08521E-04-1.18782E-03-5.77008E-05 2.62581E-05
 -1      2754 6.97907E-03 1.24573E-03 2.57884E-04 1.11262E-03-2.16751E-05 2.66118E-05
 -1      2755 7.14654E-03 6.08630E-04 1.08785E-04 9.40292E-04 1.16045E-05 8.66294E-05
 -1      2756 6.55505E-03 9.47578E-04 5.69897E-05 7.23980E-04 2.65389E-05 9.36054E-05
 -1      2757 6.96499E-03 1.30398E-03 3.11950E-04 1.12097E-03-2.86341E-05 2.35889E-05
 -1      2758 6.26667E-03 1.18405E-03 8.73144E-05 6.34127E-04-2.69054E-05-3.38981E-06
 -1      2759 6.60166E-03 9.62991E-04 9.09891E-05 7.03343E-04 2.21350E-06 6.43579E-05
 -1      2760 6.81487E-05-6.06524E-06 5.90912E-06-2.11395E-06-2.32870E-06 1.07275E-06
 -1      2761 6.08020E-03 1.27979E-03 1.36633E-03 2.29999E-04-6.62739E-06-8.41157E-05
 -1      2762 6.12964E-03 1.30885E-03 1.30222E-03 2.10872E-04-1.94631E-05 9.46042E-05
 -1      2763 6.89204E-03 5.31157E-06-1.65266E-06 1.60059E-04 2.17143E-06 3.17874E-07
 -1      2764 6.96469E-03-8.47555E-07-1.74605E-06 1.26593E-04 1.48412E-06 1.76898E-06
 -1      2765 6.96181E-03 7.05108E-06-6.79827E-06 8.37462E-05 2.45486E-06-5.02563E-06
 -1      2766 7.02956E-03 1.39307E-04-5.02533E-05 4.06687E-04 9.90304E-07 3.41184E-05
 -1      2767 7.26204E-03 1.98586E-04 4.44965E-05 5.01454E-04 4.09463E-07 3.67593E-05
 -1      2768 6.38640E-03 1.60110E-03 4.16760E-04-1.89771E-03 1.44895E-05-4.87447E-05
 -1      2769 6.60885E-03 1.71168E-03 4.90761E-04-1.62477E-03 8.96699E-05-1.28355E-04
 -1      2770 1.67286E-03 1.12972E-03-8.93580E-06-1.29343E-03-1.59847E-04-1.56810E-05
 -1      2771 2.42796E-03 7.15691E-04-2.14419E-05-1.18369E-03-8.59259E-05 8.91020E-05
 -1      2772 1.39637E-03 8.91850E-04-9.71792E-06-1.13537E-03-1.05103E-04 7.24268E-06
 -1      2773 5.18018E-03 7.08085E-04 1.66203E-04-8.86545E-04-8.90982E-05 1.34228E-04
 -1      2774 5.44943E-03 7.90316E-04 3.39114E-04-3.49881E-04-4.78551E-05 1.67435E-04
 -1      2775 6.84865E-03 2.41308E-05-4.69478E-06-1.64568E-04 3.00351E-06 5.42395E-06
 -1      2776 6.88370E-03 3.71218E-05-2.29257E-05-1.44299E-04 2.08469E-07 8.22295E-06
 -1      2777 6.92986E-03-1.01538E-06-3.91906E-06-1.30769E-04 1.21575E-06 5.80966E-07
 -1      2778 6.93990E-03 3.52836E-05-1.79368E-05-7.10130E-05 1.09877E-06 1.03551E-05
 -1      2779 6.60809E-03 3.69089E-04-1.49743E-05 5.44340E-05-2.35440E-06 5.73082E-05
 -1      2780 6.73013E-03 3.56412E-04-2.48369E-05 1.45087E-04-1.65103E-06 7.38679E-05
 -1      2781 6.73879E-03 3.29910E-04-1.73655E-05-3.14035E-05-1.17769E-06 4.83926E-05
 -1      2782 6.77339E-03 2.22949E-04-1.47744E-05 6.68769E-05 3.10607E-07 4.16596E-05
 -1      2783 6.82191E-03 2.99655E-04-4.04205E-05 4.65990E-05 7.37900E-07 5.70591E-05
 -1      2784 7.24409E-03 2.28992E-04 4.31260E-05 5.96592E-04 9.70393E-06 7.21905E-05
 -1      2785 6.80667E-03 5.31627E-04-1.23196E-05 1.50614E-07-3.90167E-06-5.44149E-05
 -1      2786 6.79315E-03 6.26765E-04 1.28660E-04 1.37863E-05 4.66891E-06-2.36272E-05
 -1      2787 6.75540E-03 7.14765E-04 1.48952E-04 1.56132E-05 1.08733E-05 1.99174E-05
 -1      2788 6.77178E-03 4.86566E-04-2.41600E-05 2.62041E-05 3.46887E-06-7.53226E-05
 -1      2789 6.94249E-03 1.12832E-05-7.46804E-06-1.06795E-04-1.39406E-07 2.56679E-06
 -1      2790 6.95003E-03 5.38994E-05-2.37627E-05-4.83012E-05-3.32492E-07 9.18812E-07
 -1      2791 4.53305E-03 1.66884E-03-7.17475E-05 2.09789E-04-5.44919E-05-1.20126E-04
 -1      2792 6.33268E-03 6.77782E-04-5.20966E-05 2.40320E-04 8.33245E-05 1.43171E-04
 -1      2793 6.74832E-03 2.73170E-04-2.83347E-05 1.09390E-04 2.11761E-06-5.05899E-05
 -1      2794 6.81414E-03 1.61292E-04-1.67461E-05 1.44603E-04 5.68931E-06-3.22386E-05
 -1      2795 5.98114E-04-4.00708E-05 4.21185E-05-4.23756E-04 1.99649E-05 9.57228E-06
 -1      2796 3.24102E-03 1.46396E-03-1.18060E-05-2.03581E-03 2.28594E-04-1.62715E-04
 -1      2797 5.26779E-03 1.20683E-03 2.84822E-04-1.43197E-03 1.40761E-04-2.02737E-04
 -1      2798 4.15411E-03 1.26227E-03-2.27394E-05 1.92694E-03 1.94307E-04 2.28157E-04
 -1      2799 4.21018E-03 1.55640E-03 8.25196E-05 2.22755E-03 2.03056E-04 1.70865E-04
 -1      2800 4.74528E-03 7.95701E-04 6.84306E-05 1.04250E-03 7.72667E-05 5.46370E-05
 -1      2801 5.54020E-03 1.30718E-03 1.29556E-04 1.52140E-03 1.96292E-04 2.41740E-04
 -1      2802 5.58105E-03 1.32061E-03 3.26980E-04 1.31525E-03 1.05889E-04 1.81461E-04
 -1      2803 6.00924E-03 1.42950E-03 5.02369E-04 1.09090E-03 6.06407E-05 8.60412E-05
 -1      2804 5.23259E-03 8.74772E-04 2.73332E-04 8.37123E-04 9.19754E-05 1.73268E-04
 -1      2805 5.91676E-03 1.03380E-03 2.65343E-04 7.34576E-04 9.18449E-05 1.35892E-04
 -1      2806 5.87338E-03 1.13120E-03 2.76026E-04 6.28929E-04 5.74268E-05 7.23257E-05
 -1      2807 6.64125E-03 3.05825E-04-1.66002E-05 2.28790E-04-1.07983E-06 5.21543E-05
 -1      2808 6.80000E-03 2.45673E-04-3.77662E-05 2.08077E-04-3.96174E-06 6.60533E-05
 -1      2809 6.72972E-03 2.39573E-04-1.17931E-05 1.56834E-04-3.41498E-06 3.93914E-05
 -1      2810 6.67429E-03 2.13551E-04-7.96128E-06 2.48462E-04-1.84992E-06 4.55644E-05
 -1      2811 6.81957E-03 1.57157E-04-2.52154E-05 2.25432E-04-9.95615E-06 5.83306E-05
 -1      2812 5.99913E-03 1.33789E-03 3.61627E-04 1.02062E-03-9.67881E-05-1.11097E-04
 -1      2813 5.98157E-03 1.28963E-03 3.88210E-04 9.27263E-04-7.61664E-05-1.02363E-04
 -1      2814 5.34286E-03 1.81306E-03 3.90000E-04 2.32451E-03-1.66225E-04-1.49546E-04
 -1      2815 6.49118E-03 1.58438E-03 3.93455E-04 9.32150E-04-3.67295E-05-3.96806E-05
 -1      2816 6.34054E-03 1.81952E-03 5.15138E-04 2.06990E-03-6.64188E-05-1.30427E-04
 -1      2817-4.87560E-04-4.35812E-03-4.17475E-04-1.61881E-03 1.85699E-06-1.53022E-06
 -1      2818 6.35782E-03 5.39802E-04-7.03859E-06 3.71910E-04 3.03303E-06 6.30125E-05
 -1      2819 6.21128E-03 7.89924E-04 1.10889E-05 3.18762E-04 9.92821E-06 6.06639E-05
 -1      2820 6.49134E-03 5.77673E-04 3.07023E-07 6.48634E-04 1.88731E-05 7.75496E-05
 -1      2821 6.22298E-03 9.10717E-04 2.75841E-06 5.79479E-04 2.78856E-05 5.98435E-05
 -1      2822 6.50144E-03 7.81130E-04 3.83937E-05 4.82657E-04 1.35237E-05 8.87385E-05
 -1      2823 8.01281E-03 1.13904E-03 7.22597E-04 1.37822E-03-6.99350E-06 7.28797E-06
 -1      2824 7.88802E-03 1.00384E-03 6.51910E-04 1.25887E-03 2.32879E-06-1.35053E-05
 -1      2825 6.53713E-03 1.55288E-03 4.95776E-04 9.85862E-04 3.86181E-05 2.65443E-05
 -1      2826 6.41075E-03 1.87564E-03 6.27495E-04 2.04201E-03 4.45429E-05 2.19730E-05
 -1      2827 2.84043E-03 2.58416E-04 2.07977E-04 9.49510E-04-1.30638E-05 1.84050E-04
 -1      2828 7.82015E-04 1.02577E-03-4.64254E-05 9.00647E-04 1.20067E-04 1.57395E-05
 -1      2829 2.33109E-03 7.11309E-04-7.56259E-05 1.18818E-03 1.22747E-04 6.06546E-05
 -1      2830 7.76568E-04 1.09214E-03-1.15344E-04 1.02167E-03 1.64679E-04 4.55347E-05
 -1      2831 1.91864E-03 1.00818E-03-7.67734E-07 1.07303E-03 2.45614E-04 8.08203E-05
 -1      2832 6.23590E-03 2.00376E-03 4.16037E-04 2.18625E-03 1.66710E-04 1.27805E-04
 -1      2833 6.68962E-03 5.62750E-04-2.92068E-05 7.94668E-05-1.08419E-06-5.57499E-05
 -1      2834 6.75446E-03 6.02769E-04 8.48987E-06 5.23027E-05 1.15575E-06-3.60334E-05
 -1      2835 6.82884E-03 4.29660E-04-4.11018E-05 1.56282E-04 8.04241E-07-4.42746E-05
 -1      2836 6.55091E-03 7.71503E-04 7.51313E-05 7.59180E-05-1.09960E-06-4.66874E-05
 -1      2837 6.63282E-03 6.01903E-04-1.28174E-05 2.16493E-04 1.94603E-06-5.21949E-05
 -1      2838-1.63376E-03 1.29417E-03-5.79384E-05 6.11955E-04-1.12798E-05 3.56431E-06
 -1      2839 6.44747E-03 4.91211E-04-5.36860E-06 5.46140E-05 3.58200E-06 7.50448E-05
 -1      2840 6.64053E-03 6.07737E-04 4.48291E-05-1.62532E-05 7.37834E-06 3.21934E-05
 -1      2841 6.37502E-03 6.38910E-04 3.86725E-05-2.09591E-05-1.62509E-05 4.29016E-05
 -1      2842 6.47516E-03 6.79286E-04 2.76054E-05 2.64478E-05-9.05102E-06 5.43079E-05
 -1      2843 6.80654E-03 8.67861E-04 2.01617E-04-6.35811E-05-2.37004E-05-8.54261E-05
 -1      2844 2.84858E-03 2.91611E-04 2.98831E-04 9.83374E-04-7.38775E-06-1.94412E-04
 -1      2845 2.22578E-03 6.61696E-05 1.86151E-04 1.01335E-03-1.34099E-06-1.33563E-04
 -1      2846 2.71180E-03 6.54260E-04 1.21278E-05 1.11631E-03-1.11864E-04-9.86334E-05
 -1      2847 1.58593E-03 6.82681E-04 2.56003E-05 9.56634E-04-4.27191E-05-6.87882E-05
 -1      2848 6.19566E-03 1.80582E-03 2.33391E-04 1.79156E-03 7.10533E-05 1.45411E-04
 -1      2849 5.57034E-03 8.87047E-04-6.53010E-05 4.58052E-04 4.44056E-06 4.24503E-05
 -1      2850 5.79686E-03 1.03727E-03 1.67357E-04 7.48367E-04 8.82204E-05 1.22593E-04
 -1      2851 5.57539E-03 1.25924E-03-2.83997E-05 6.80738E-04-5.73212E-05 3.98183E-05
 -1      2852 6.04993E-03 1.00200E-03 2.09395E-04 3.20682E-04 3.14177E-05 4.35615E-05
 -1      2853 5.78651E-03 9.11754E-04 3.09063E-04 2.48395E-04 6.57010E-05 8.93546E-05
 -1      2854 6.36016E-03 1.25591E-03 2.17391E-04 6.24405E-04 1.68962E-05 1.30592E-05
 -1      2855 6.21922E-03 1.11689E-03 2.12551E-04 2.97715E-04 3.93625E-06-2.02957E-05
 -1      2856 6.11159E-03 1.23066E-03 3.31689E-04 5.54659E-04 2.24456E-05 4.00816E-05
 -1      2857 2.85278E-03 1.80193E-04 5.44127E-04 9.42537E-04 2.18700E-05-1.85104E-04
 -1      2858 3.05824E-03 1.68734E-03-4.40233E-05 1.68539E-03-1.34527E-04-1.31690E-04
 -1      2859 3.08719E-03 1.56103E-03-2.70913E-05 1.60066E-03-7.11714E-05-5.86720E-05
 -1      2860 3.56710E-03 9.87567E-04 6.18091E-05 1.48401E-03-1.16864E-04-1.10686E-04
 -1      2861 5.13750E-03 9.07502E-04 2.57284E-04 1.21221E-03-8.30762E-05-7.29512E-05
 -1      2862 3.73212E-03 9.51906E-04 1.28187E-04 1.41867E-03-6.17764E-05-4.36075E-05
 -1      2863 6.71577E-03 3.89172E-04-6.30222E-06 4.08124E-04-2.16415E-06-1.00377E-04
 -1      2864 6.49937E-03 6.87020E-04 8.69043E-06 5.67162E-04-1.42226E-05-8.17883E-05
 -1      2865 6.72696E-03 4.08778E-04-2.45643E-05 4.11010E-04 8.93635E-06-7.80277E-05
 -1      2866 6.41256E-03 6.93073E-04-8.19803E-06 3.73424E-04-9.59450E-06-8.40382E-05
 -1      2867 6.58732E-03 7.67319E-04 2.99204E-05 5.68857E-04 1.15668E-07-6.35823E-05
 -1      2868 6.73871E-03 7.49875E-04 8.96766E-05 5.88308E-04-1.02012E-05 2.09350E-05
 -1      2869 6.82437E-03 5.37471E-04 2.60764E-06 4.37001E-04-5.54457E-06 4.93656E-05
 -1      2870 6.65840E-03 7.30556E-04 3.19464E-05 5.54200E-04 1.88199E-06 6.56054E-05
 -1      2871 6.54337E-03 8.04678E-04 3.53170E-05 3.56201E-04-5.74192E-06 2.79363E-05
 -1      2872 6.48736E-03 7.82419E-04 7.34311E-06 3.20556E-04-4.96712E-06 5.17939E-05
 -1      2873 4.85065E-03 7.15257E-04 4.36943E-04-6.96147E-04-2.80424E-05 4.56306E-05
 -1      2874 6.69314E-03 1.22306E-04 3.70706E-06-3.38848E-04 7.98025E-06 6.28362E-05
 -1      2875 6.53099E-03 4.34666E-04-8.80963E-07-3.41658E-04-8.68778E-06 5.45143E-05
 -1      2876 6.67578E-03 2.84324E-04 4.92856E-06-2.11236E-04-1.47259E-06 5.00320E-05
 -1      2877 5.74702E-03 8.09303E-04 3.68809E-04 1.95423E-04-2.14274E-05-2.06917E-04
 -1      2878 6.17343E-03 9.59660E-04 1.87834E-04 8.19412E-05-2.92949E-05-7.29996E-05
 -1      2879 5.82636E-03 9.88773E-04 2.69489E-04 2.14274E-04-3.66347E-05-1.04567E-04
 -1      2880 6.79463E-03 3.68375E-05-7.00228E-05-2.25496E-04-4.53986E-07 1.70934E-05
 -1      2881 9.96832E-04 5.51000E-06 1.40340E-04-6.32384E-04 5.80646E-05 4.91767E-05
 -1      2882 6.75985E-03 6.74117E-05-4.52825E-05-2.64501E-04 1.38976E-06 1.04319E-04
 -1      2883 6.62944E-03 4.16505E-04-1.88054E-05-6.22382E-05 5.34201E-07 7.16018E-05
 -1      2884 6.77789E-03 2.58135E-04-2.40323E-05-1.14891E-04-2.43990E-06 4.44223E-05
 -1      2885 3.49514E-04-2.36125E-05 1.79548E-05-2.03589E-04 1.12054E-05 1.03950E-05
 -1      2886 6.84219E-03 2.69681E-04-4.53912E-05-7.94391E-05 5.16044E-06 3.74745E-05
 -1      2887 6.81221E-03 2.03301E-04-1.95701E-05-5.42868E-05 2.09822E-06 2.89714E-05
 -1      2888 2.09596E-03 1.40341E-03-1.22304E-04-1.52935E-03 3.19907E-04-1.42525E-04
 -1      2889 1.58894E-03 1.28613E-03-1.58329E-04-1.27550E-03 3.26200E-04-1.35919E-04
 -1      2890 6.60415E-03 1.27258E-03 1.03686E-03 2.43259E-04-1.55113E-04 8.40991E-04
 -1      2891 6.90236E-03 1.07488E-04-1.60084E-05-2.60540E-05-1.25189E-06 1.89355E-05
 -1      2892 5.74989E-03 1.28667E-03 1.56854E-03 4.22655E-04-8.60281E-06-4.32295E-05
 -1      2893 6.77963E-03 1.19453E-04-1.11659E-05 2.10086E-04 1.64658E-06-3.87100E-05
 -1      2894 6.74335E-03 1.91795E-05-1.69280E-05 2.15507E-04 6.03813E-06-2.93596E-05
 -1      2895 5.48663E-03 1.13782E-03 7.46889E-06 1.43499E-03 1.12629E-04 1.57935E-04
 -1      2896 4.75458E-03 1.46412E-03 2.86773E-04-1.94688E-03-5.84372E-05 6.15776E-05
 -1      2897 3.20437E-03 1.45764E-03 1.18728E-04-1.90930E-03 3.24938E-05-2.99062E-05
 -1      2898 6.79733E-03 5.96862E-05-7.97918E-05-2.57490E-04 6.37116E-06 6.95452E-05
 -1      2899 1.40072E-03 2.07678E-04 9.48460E-05-8.88190E-04 7.44703E-06 1.12651E-05
 -1      2900 6.50420E-03 7.18785E-04 2.88158E-05 8.05428E-05 3.35377E-06 6.25458E-05
 -1      2901 6.45750E-03 8.80871E-04 1.70273E-04-3.28411E-05-1.60263E-05-5.47052E-05
 -1      2902 6.38593E-03 7.24371E-04-2.01139E-05 2.21043E-04 2.56820E-07 8.51808E-05
 -1      2903 6.30064E-03 8.97199E-04 8.17840E-05 1.25803E-04-1.02885E-05 1.24869E-05
 -1      2904 6.78097E-03 1.67794E-03 3.96914E-04-1.81012E-03-2.48510E-05 7.24917E-05
 -1      2905 6.39063E-03 1.28772E-03 1.52821E-04-7.53844E-04 1.99448E-05-2.55974E-05
 -1      2906 5.98538E-03 9.86024E-04 7.43912E-05-5.16116E-04-3.11506E-05 5.27447E-05
 -1      2907 6.04376E-03 1.13798E-03 1.82651E-04-5.67072E-04-7.48918E-05 5.32645E-05
 -1      2908 4.42768E-03 7.88823E-04 3.30140E-04 1.16189E-03 4.98690E-05 8.71587E-05
 -1      2909 3.25358E-03 7.86303E-04 2.26933E-04 1.08267E-03 5.81497E-05 8.48909E-05
 -1      2910 2.93295E-03 8.51742E-04 1.48389E-04 1.14927E-03 3.56105E-05 4.65140E-05
 -1      2911 7.87736E-03 1.02385E-03 6.27878E-04 1.26208E-03 3.95727E-05 7.18659E-05
 -1      2912 6.52032E-03 1.78158E-03 5.83654E-04 1.98970E-03 7.74820E-05 1.82610E-04
 -1      2913 7.32389E-03 5.67722E-04 7.05570E-05 1.03683E-03-1.87346E-05-1.20027E-04
 -1      2914 7.22879E-03 1.51197E-04 3.49326E-06-5.03794E-04-1.67495E-06-5.95002E-05
 -1      2915 7.01402E-03 1.54860E-04-5.05988E-05-4.64121E-04 7.38520E-06-8.48015E-05
 -1      2916 6.90022E-03 1.53588E-04-5.41783E-05-3.80459E-04-3.77143E-07-9.51121E-05
 -1      2917 6.87209E-03 6.47579E-05-7.64918E-05-2.56720E-04-5.09887E-06-4.85921E-05
 -1      2918 6.78667E-03 3.50481E-05-7.35738E-05-2.28436E-04 1.36324E-07-4.61191E-05
 -1      2919 2.02218E-05-2.06518E-06 2.48257E-06 1.00231E-05 1.32638E-07-1.10422E-08
 -1      2920 6.39965E-03 1.58221E-03 2.12937E-04-1.62077E-03 4.20274E-05-7.75059E-05
 -1      2921 7.35551E-03 9.75478E-04 2.22691E-04-1.08606E-03-3.32579E-05 5.70296E-05
 -1      2922 7.69660E-03 9.46675E-04 3.06800E-04-1.09848E-03-3.28461E-06 4.05517E-05
 -1      2923 2.75979E-06 1.57840E-06 2.62412E-07-2.76047E-06 2.95287E-08-4.81882E-08
 -1      2924 6.33139E-03 1.32640E-03 1.86632E-04-6.36001E-04 2.69578E-05 2.89707E-05
 -1      2925 6.89401E-03 5.20407E-04 9.71022E-06-4.97278E-04 4.85676E-06 3.38429E-05
 -1      2926 6.55177E-03 9.55948E-04 1.08733E-04-4.82455E-04-4.03003E-06 1.99386E-05
 -1      2927 6.94211E-03 9.32889E-04 2.24407E-04-7.80840E-04-3.23389E-05 3.27453E-06
 -1      2928 6.23637E-03 8.78663E-04 1.85870E-04-4.18892E-05-5.82982E-06 9.62023E-05
 -1      2929 6.62120E-03 6.34146E-04 2.51147E-05-5.40164E-06-6.84423E-06 5.32279E-05
 -1      2930 6.66846E-03 5.68846E-04 2.55889E-05-2.69945E-05 9.62663E-06 3.01309E-05
 -1      2931 7.02269E-03 1.47681E-03 4.77754E-04 1.12003E-03-2.09498E-05-1.73027E-05
 -1      2932 6.94154E-03 1.34657E-03 3.79514E-04 1.05933E-03-1.22525E-05 1.08650E-05
 -1      2933 7.19784E-03 7.16777E-04 2.12713E-04 1.00273E-03-1.33827E-05 3.20797E-05
 -1      2934 6.79074E-03 1.05516E-03 2.28190E-04 8.09963E-04-1.28333E-05-1.05169E-07
 -1      2935 6.74994E-03 1.01639E-03 1.82394E-04 7.74739E-04-4.36773E-06 3.77732E-05
 -1      2936 6.82968E-03 3.96135E-05-9.18405E-05 2.39402E-04 2.23913E-06-1.84413E-05
 -1      2937 7.11114E-03 8.10060E-04 2.26223E-04 9.82726E-04 1.12629E-05-3.12946E-05
 -1      2938 6.90775E-03 6.48874E-04 1.10134E-04 8.25121E-04 3.11754E-06-1.63579E-07
 -1      2939 6.62064E-03 1.10599E-03 2.13545E-04 7.05299E-04 2.11623E-05-6.92331E-06
 -1      2940 7.08107E-03 4.63739E-04 6.95098E-05 7.41749E-04 3.73700E-06-4.55344E-05
 -1      2941 6.74074E-03 9.17581E-04 1.50557E-04 7.14960E-04 1.61668E-05-2.56164E-05
 -1      2942 9.30624E-04 9.48685E-04-1.03894E-04 1.01182E-03 3.22515E-05 2.88978E-05
 -1      2943 1.16055E-03 8.87258E-04-8.97687E-05 1.07073E-03-1.57067E-05-1.78938E-05
 -1      2944 6.20628E-04 1.04683E-03-4.56292E-04 8.41974E-04 1.70567E-05 1.04994E-05
 -1      2945 1.72901E-03 1.20116E-03-9.07350E-05 1.35658E-03 3.47119E-07-2.53386E-05
 -1      2946 9.94787E-04 1.12603E-03-3.17284E-04 9.52462E-04-6.29255E-05-4.25196E-05
 -1      2947 6.87467E-03 3.57410E-04-2.48568E-05-6.61985E-04 2.10405E-05-9.93133E-05
 -1      2948 7.06146E-03 2.90969E-04 1.60721E-05-5.49700E-04 2.58522E-05-1.47351E-04
 -1      2949 6.98396E-03 6.49142E-04 6.81404E-05-7.38694E-04 3.29440E-05-8.00990E-05
 -1      2950 6.56730E-03 7.63113E-04 3.05372E-05-7.32871E-04 1.67485E-05-7.42434E-05
 -1      2951 5.94689E-03 1.05106E-03 4.93106E-05-4.21017E-04-7.32056E-06 2.06796E-05
 -1      2952 4.11282E-03 5.07923E-04 3.54569E-04 9.60118E-04 3.59580E-05-4.12054E-04
 -1      2953 5.16025E-03 4.94701E-04 5.49105E-04 4.94271E-04 7.28351E-05-3.29124E-04
 -1      2954 4.76748E-03 5.00724E-04-4.88561E-05 5.52683E-04-4.11714E-05-1.28595E-04
 -1      2955 4.11281E-03 6.88389E-04 6.83044E-04 8.84473E-04 3.09684E-05-2.72770E-04
 -1      2956 7.36807E-03 9.24651E-04 6.02868E-05 1.14392E-03 6.48035E-05 8.01808E-05
 -1      2957 3.82467E-10 5.79423E-08 3.13906E-09-3.71941E-09 3.29244E-10-3.07130E-10
 -1      2958 4.74504E-03 7.07122E-04 1.23929E-04 7.29858E-04 1.21862E-04 1.36510E-04
 -1      2959-4.90561E-08 4.86463E-07 4.93358E-08-1.54302E-07 4.04622E-09 1.31099E-08
 -1      2960 1.37434E-07 6.17177E-07 5.39712E-08-3.69585E-07-8.85062E-10 3.79048E-10
 -1      2961 2.66501E-08 5.21163E-07 6.47704E-08-2.47606E-07 5.23621E-09-6.90598E-09
 -1      2962 1.74917E-05 4.27883E-07 1.72952E-06 8.52032E-06-9.15071E-07-1.57812E-07
 -1      2963 6.82195E-03 5.63868E-04 6.72497E-06-3.21794E-05-2.68054E-06 1.80429E-05
 -1      2964 6.83262E-03 4.18699E-04-4.65242E-05-9.83480E-06 6.93841E-06 1.78857E-05
 -1      2965 6.79265E-03 4.08804E-04-4.69859E-05-9.83344E-05-5.79956E-06-1.37407E-05
 -1      2966 8.79051E-03-3.70967E-03-3.79675E-04 2.30126E-03-1.88461E-04-2.53176E-04
 -1      2967 5.69140E-03-1.13785E-03 6.51454E-04-5.42312E-05 4.04976E-04-4.02449E-04
 -1      2968 9.51993E-08 9.03651E-07 8.91732E-08 6.36554E-07-9.05642E-09 8.78402E-09
 -1      2969-7.58729E-08 7.74719E-07 8.18153E-08 5.09775E-07 1.43327E-09-8.57528E-10
 -1      2970 2.08249E-07 9.58536E-07 1.34400E-07 7.62154E-07-1.27432E-09 8.71423E-09
 -1      2971 6.41025E-03 1.19625E-03 9.85592E-04-2.88994E-04 1.73316E-04 8.23532E-04
 -1      2972 2.51354E-06 1.59365E-06 1.93384E-07-2.75230E-06-6.76449E-08 2.79316E-08
 -1      2973 9.10850E-06 1.08803E-06 5.12858E-07 5.76443E-06 1.39936E-07 8.76876E-08
 -1      2974 6.11142E-03 1.18416E-03 1.20582E-03-1.64025E-04-2.71267E-05-1.15997E-04
 -1      2975 6.60106E-03 1.21132E-03 7.39576E-04 3.77593E-04-1.30396E-04 8.31819E-04
 -1      2976-6.01307E-09 2.36275E-07 2.09214E-08 4.43317E-08-1.64677E-09 1.02388E-08
 -1      2977 6.73513E-03 4.18601E-04-2.36879E-05 1.41923E-04 1.34135E-06-8.21023E-05
 -1      2978 6.54335E-03 3.69646E-04-1.22026E-05 1.18438E-04-2.00773E-06-6.28082E-05
 -1      2979 2.25467E-04 5.06341E-04-8.35287E-05-4.00882E-04-4.14954E-05 1.73171E-05
 -1      2980 1.88525E-04 5.81667E-04-1.64441E-04-3.91939E-04-3.12131E-05 1.96107E-05
 -1      2981 1.25417E-03 3.93929E-04 2.57354E-04-7.40982E-04 2.62142E-05 5.85818E-05
 -1      2982 1.39093E-06 1.41081E-06 2.82336E-07 1.48540E-06 1.13848E-07-8.21791E-08
 -1      2983 5.55712E-03 6.32888E-04 3.98018E-06-2.03251E-04-2.15321E-05 3.97479E-05
 -1      2984 5.29634E-03 6.01800E-04 3.29319E-05-4.35920E-04-3.27159E-05 4.31731E-05
 -1      2985 6.39335E-03 8.19040E-04 1.95519E-04 5.42010E-06-5.02121E-06 7.71810E-05
 -1      2986 6.40162E-03 8.71871E-04 5.12416E-05 2.47020E-04 5.87730E-06-4.11521E-05
 -1      2987 6.29714E-03 9.62947E-04 2.23428E-04 1.40555E-04-1.87930E-06 4.23615E-05
 -1      2988 1.20533E-02-7.23010E-04 1.65287E-03-4.74200E-03-6.51743E-04-4.77202E-04
 -1      2989 1.20314E-03 1.97689E-04 8.82873E-05-7.61850E-04-2.78866E-05 3.22627E-06
 -1      2990 2.49880E-04-5.19262E-05 2.38155E-05-8.88491E-05 1.18263E-05 7.68929E-06
 -1      2991 8.25299E-03-2.52317E-04 4.90878E-04-6.09116E-04 1.98104E-04-7.04694E-05
 -1      2992 6.83159E-03 5.95414E-04 2.70077E-05 1.48265E-05-7.98545E-06-6.99310E-06
 -1      2993 6.96422E-03 9.41203E-04 4.82504E-04-2.93958E-06-2.86489E-06 2.39308E-05
 -1      2994 6.76689E-03 8.46719E-04 2.92077E-04 1.25494E-05 1.88109E-06 1.51553E-05
 -1      2995 6.76376E-03 7.68561E-04 1.82893E-04-8.53046E-08-7.19031E-06-1.91915E-05
 -1      2996 6.78343E-03 5.66758E-04 4.58173E-06 4.29344E-04 2.03393E-07 9.95240E-06
 -1      2997 6.70764E-03 8.03140E-04 9.02585E-05 5.83069E-04-1.36024E-05-3.60489E-06
 -1      2998 6.64673E-03 7.17979E-04 2.17147E-05 1.44256E-04 3.09055E-06 1.50240E-05
 -1      2999 6.48867E-03 9.32604E-04 1.17691E-04 2.48770E-04 5.80237E-06-3.26436E-06
 -1      3000 4.45755E-03 5.62921E-04 3.71261E-05 9.24004E-04-8.25082E-05-1.00055E-04
 -1      3001 3.67091E-03 4.60257E-04 7.99725E-05 1.09745E-03-1.19283E-04-6.21626E-05
 -1      3002 2.39410E-03 1.64505E-03-1.64339E-04 1.61232E-03-1.95345E-06 2.77554E-07
 -1      3003 5.00269E-03 2.01194E-03 5.13641E-04 2.54005E-03 3.15580E-06 4.92971E-06
 -1      3004 5.02347E-03 1.96428E-03 4.71957E-04 2.53208E-03 1.00515E-05 2.76400E-06
 -1      3005 7.71617E-04 8.09270E-04-1.19537E-04 6.99482E-04 1.27327E-04 5.02896E-05
 -1      3006 9.64498E-04 9.16606E-04-2.06616E-04 8.05143E-04 1.70927E-04 3.48963E-05
 -1      3007 1.32790E-03 8.93668E-04 1.92626E-05 1.01503E-03 6.53057E-05 7.75040E-05
 -1      3008 5.05000E-04 8.27125E-04-1.89900E-04 5.44956E-04 7.87659E-05 1.12647E-05
 -1      3009 6.67422E-03 5.69046E-04-1.21531E-06 3.71544E-04 1.08538E-05 8.34409E-05
 -1      3010 6.57812E-03-1.13652E-03 8.11323E-04 8.82606E-05-3.73673E-04 2.02550E-04
 -1      3011 5.73054E-03 6.44997E-04 6.89715E-05 7.26798E-05 1.71340E-05 1.07090E-04
 -1      3012 5.87758E-03 8.53088E-04 2.24360E-06 1.83740E-04-5.93501E-06-4.36979E-05
 -1      3013 6.09412E-03 7.94304E-04 1.80454E-04-3.15710E-06-8.01948E-06 1.01232E-04
 -1      3014 5.37436E-03 5.46666E-04 1.64705E-05 4.93414E-04 5.40387E-05 2.30596E-05
 -1      3015 7.06135E-03 3.73279E-04 2.90772E-05-6.49066E-04 1.08467E-05 2.60710E-05
 -1      3016 7.09997E-03 1.90091E-04-1.87142E-05-4.39778E-04-1.08831E-05 1.34176E-05
 -1      3017 6.96263E-03 2.14848E-04-2.00542E-05-4.60763E-04-4.33961E-06-9.07376E-06
 -1      3018 1.35577E-03 7.34115E-03-3.51331E-04 2.92330E-05 1.13673E-04-1.29801E-04
 -1      3019 7.88092E-03 6.77476E-03 1.28621E-03-4.43462E-03-3.22952E-04-3.58631E-04
 -1      3020 7.24796E-03 2.20308E-03-6.74776E-04-1.88975E-03 2.20806E-04 1.60677E-04
 -1      3021 4.42835E-03 3.15259E-04 6.54501E-05-7.67005E-04 1.22209E-04-4.79462E-05
 -1      3022 7.60133E-03-4.41597E-05-1.29556E-05 1.84746E-04 3.88332E-06 6.21468E-06
 -1      3023 6.70233E-03 6.22321E-05-2.05306E-05 2.66639E-04 5.56579E-06-4.66204E-05
 -1      3024 6.73849E-03 3.56456E-05-3.81663E-05 2.20990E-04 5.29425E-06-6.60058E-05
 -1      3025 6.55296E-03 8.94468E-04 1.63478E-04 3.52598E-05-1.16847E-05-4.19396E-05
 -1      3026 6.56801E-03 7.61105E-04 5.47193E-05 1.42828E-04-5.58892E-06 2.44625E-05
 -1      3027 3.51945E-07 1.36827E-06 2.13419E-07 9.90234E-07 8.66440E-08-4.18243E-08
 -1      3028 6.74429E-03 5.15497E-04-5.37489E-05-1.53570E-04-2.09798E-06 5.00066E-05
 -1      3029 6.78306E-03 3.49455E-04-3.51605E-05-1.94647E-04 4.91399E-07 6.79608E-05
 -1      3030 6.70186E-04-1.61600E-05 3.41005E-05 5.44108E-04-3.08171E-06 6.97881E-06
 -1      3031 6.33380E-03 1.05102E-03 5.74214E-05-7.89118E-04-2.82074E-05 6.94799E-05
 -1      3032 6.97407E-03 7.00795E-05-7.20777E-05 2.95342E-04-3.47616E-06 2.25327E-05
 -1      3033 6.91139E-03 1.23839E-04-6.11149E-05 3.02505E-04 7.29359E-07 1.28362E-05
 -1      3034 6.95110E-03 6.80873E-05-7.78562E-05 2.75232E-04 8.03008E-08-8.86809E-06
 -1      3035 8.31271E-03 4.26023E-04 3.92966E-05 1.25854E-04 5.73954E-05-1.07289E-04
 -1      3036 7.19024E-03 2.33782E-03-9.80226E-05-9.78683E-06 1.07582E-04-7.50802E-05
 -1      3037 5.31355E-03 4.52734E-04-1.40473E-04 4.72193E-04-4.18070E-05 1.05571E-04
 -1      3038 5.95994E-03 9.84195E-04 1.45023E-05 4.00100E-04-3.89625E-05-3.65055E-05
 -1      3039 6.17799E-03 7.31170E-04-8.68703E-06 2.82406E-04-1.27066E-05-4.98195E-05
 -1      3040 6.27331E-03 7.67288E-04-2.03108E-06 5.16907E-04-1.41353E-05-5.34367E-05
 -1      3041 7.21732E-03 1.97874E-04 2.38042E-05 5.00074E-04 7.00957E-06-3.33197E-05
 -1      3042 6.99137E-03 1.44582E-04-5.97921E-05 3.99834E-04 2.43072E-06-6.22738E-05
 -1      3043 7.03879E-03 1.61585E-04-4.15593E-05 4.27042E-04-1.09603E-06-3.06440E-05
 -1      3044 7.01287E-03 4.09847E-04 4.07331E-05 7.20293E-04 1.20783E-05-2.45767E-05
 -1      3045 6.90663E-03 3.74653E-04-2.10200E-06 5.72478E-04-7.16211E-07-4.93948E-05
 -1      3046 6.10221E-03 6.67815E-04 3.15544E-05 2.33241E-05-1.00930E-05-1.46946E-04
 -1      3047 6.37964E-03 7.92058E-04 4.69211E-05-3.40866E-05-2.30178E-05-1.16515E-04
 -1      3048 6.18078E-03 7.03409E-04 5.61806E-05-3.60855E-05-8.92519E-06 3.72674E-06
 -1      3049 6.87007E-03 1.62543E-04-4.45541E-05 1.98684E-04 1.50067E-06-2.80293E-05
 -1      3050 6.86117E-03 5.75270E-05-5.43521E-05 1.90631E-04 3.22559E-06-1.59026E-05
 -1      3051 6.85990E-03 1.45573E-04-2.57916E-05 1.87282E-04 5.94739E-06-4.64813E-05
 -1      3052 6.88387E-03 7.82651E-05-3.51703E-05 1.23913E-04 2.62812E-06-2.21349E-05
 -1      3053 6.56388E-03 5.44158E-04-1.13689E-05 2.95493E-04 5.23895E-06 1.00456E-04
 -1      3054 1.35139E-03 1.43104E-03-1.13426E-04 1.37368E-03-2.39872E-04-6.44162E-05
 -1      3055 6.87109E-03 2.64515E-05-3.16266E-05 1.49374E-04-3.34626E-06 8.41050E-06
 -1      3056 6.87738E-03 7.16633E-06-2.68067E-05 1.38400E-04-4.09575E-06 1.54232E-05
 -1      3057 6.91679E-03 1.46452E-05-1.50440E-05 1.14266E-04 9.93242E-07-3.66756E-06
 -1      3058 7.11904E-03 6.80209E-04 1.56149E-04 9.41935E-04-4.05353E-06-3.20200E-05
 -1      3059 6.66697E-03 1.00170E-03 1.49723E-04 7.41386E-04-3.88648E-06-3.95748E-05
 -1      3060 6.89296E-03 4.49513E-04 1.11325E-06 7.55169E-04-3.24718E-06-7.60158E-05
 -1      3061 6.68431E-03 7.45502E-04 5.87231E-05 5.46765E-04-2.70327E-06-4.91307E-05
 -1      3062 7.18991E-03 9.30925E-04 1.03207E-04-1.10346E-03 6.23691E-05-1.25441E-05
 -1      3063 7.05899E-03 1.05234E-03 1.28760E-04 9.91362E-04 4.54545E-07-3.78076E-05
 -1      3064 6.32502E-03 9.83902E-04 2.79646E-05 7.06521E-04-3.74256E-05-6.87515E-05
 -1      3065 7.25695E-03-2.73418E-03-7.22977E-04-1.81543E-03 1.13954E-05 1.58893E-05
 -1      3066 6.79504E-03 1.97924E-05-7.06516E-05-2.15404E-04-1.83605E-06-1.87520E-05
 -1      3067 6.82267E-03 8.02077E-05-3.61341E-05-2.46931E-04-6.88261E-06-3.96872E-05
 -1      3068 6.78178E-03 2.69952E-05-1.29228E-05-1.96474E-04-5.43558E-06-2.18459E-05
 -1      3069 5.43610E-06 2.05104E-06 7.13972E-07 4.58502E-06-3.60329E-07 6.27007E-09
 -1      3070 8.07833E-03 6.27797E-04 4.15083E-04 1.08814E-03-1.39008E-05-4.08939E-06
 -1      3071-1.49379E-03-5.20658E-04 2.61229E-04-1.07954E-03 3.75625E-06 4.39598E-06
 -1      3072 2.69151E-04 5.89418E-04-1.78635E-04-3.59618E-04-6.20226E-05 4.45708E-05
 -1      3073 2.45073E-03 1.25163E-03-2.33079E-04-1.39755E-03-9.10771E-05 7.13994E-05
 -1      3074 1.04801E-03 1.43038E-03-2.94778E-04-1.17642E-03-9.17052E-05 5.24196E-05
 -1      3075 1.07904E-03 1.40578E-03-2.91236E-04-1.22267E-03-1.57404E-04 7.89523E-05
 -1      3076 2.10975E-04-4.01737E-05 2.55050E-05 5.85751E-05-1.79175E-07 1.06978E-06
 -1      3077 2.43909E-04-7.22541E-06 1.53125E-05 1.02746E-04 6.91496E-07 3.13411E-07
 -1      3078 6.54172E-04 8.62827E-04-1.52363E-04-6.82332E-04-1.52913E-04 4.31611E-05
 -1      3079 6.05295E-04 8.42123E-04-2.38279E-04-6.64722E-04-1.26223E-04 5.60611E-05
 -1      3080 8.41349E-04 1.05912E-03-3.29421E-04-8.02454E-04-1.80902E-04 8.55657E-05
 -1      3081 7.29099E-03 7.44424E-05 3.75689E-06-5.15136E-04 2.32338E-05 3.11813E-05
 -1      3082 7.15901E-03 7.32792E-04 1.43968E-04-8.06980E-04-3.71880E-06 5.69938E-05
 -1      3083 2.71460E-05-3.28995E-06 1.35733E-06 8.71251E-06-1.12046E-07-1.94287E-07
 -1      3084-1.06359E-03 7.56371E-04 1.71106E-04-5.50769E-04 2.01458E-04 2.39430E-05
 -1      3085 6.87494E-03 1.24527E-04-4.69843E-05-3.75665E-04-2.46064E-06-1.02837E-04
 -1      3086 6.75792E-03 1.83096E-04-1.73160E-05-4.18864E-04 7.77878E-06-1.25019E-04
 -1      3087 6.77295E-03 4.09281E-04-1.07932E-06-5.67768E-04 2.69728E-06-9.87569E-05
 -1      3088 7.08733E-03 2.40172E-04 2.34051E-05-5.47003E-04 3.47424E-06-1.08313E-04
 -1      3089 3.45641E-04 6.26500E-04-1.33283E-04 4.31237E-04 1.55789E-05 4.12812E-06
 -1      3090 6.79013E-03 9.08926E-04 5.21146E-04-3.61096E-05 3.84126E-05-5.87697E-05
 -1      3091 2.55216E-04 2.42800E-06 1.44691E-05-1.14408E-04-2.68002E-07-1.75018E-06
 -1      3092 1.82247E-04-9.20366E-06 1.79872E-05-4.61118E-05-8.29149E-06-3.19389E-06
 -1      3093 6.41605E-03 1.62865E-03 3.37587E-04-1.60127E-03 7.61330E-05-9.57350E-05
 -1      3094 6.27493E-03 1.01268E-03 5.86882E-06 9.22335E-04 2.73646E-05 1.35676E-05
 -1      3095 6.79221E-03 5.72099E-05-3.84745E-07-2.60866E-04-1.15078E-05-5.88683E-05
 -1      3096 6.72481E-03 9.42585E-05-2.43488E-05-3.59424E-04 2.75558E-06-7.04026E-05
 -1      3097 1.43441E-03 2.76842E-04 2.44289E-04 8.25358E-04-2.45468E-05 1.02663E-04
 -1      3098 6.25112E-03 1.81403E-03 2.19126E-04-1.87432E-03-3.98952E-05 1.38465E-04
 -1      3099 1.40065E-03 1.48875E-03-7.96557E-05-1.43066E-03 2.51196E-04-7.67018E-05
 -1      3100 6.99643E-03 1.19166E-04-5.61506E-05-3.71383E-04-9.01365E-06 5.43726E-05
 -1      3101 7.14653E-03-1.65052E-06-9.62137E-07 1.08934E-04-5.31874E-07 3.59359E-07
 -1      3102 7.21106E-03 3.46465E-07 1.17082E-06 1.12158E-04 4.92831E-09-2.74617E-07
 -1      3103 6.82441E-03 2.40511E-04-5.79137E-05-2.29720E-04 1.61864E-06-5.31439E-05
 -1      3104 6.49320E-03 7.62032E-04 1.56374E-04 1.91304E-05 5.18367E-05-4.93570E-05
 -1      3105 6.39601E-03 5.76465E-04-1.03128E-05-1.13824E-05 1.13698E-05-6.72494E-05
 -1      3106 6.84273E-03 7.55413E-04 1.76683E-04-1.38435E-05-1.78694E-05-2.80201E-05
 -1      3107 6.82461E-03 2.84103E-04-4.53461E-05 1.88814E-04-1.60313E-07-3.40374E-05
 -1      3108 6.79438E-03 2.21078E-04-5.49590E-05 2.70049E-04 3.84273E-06-5.60909E-05
 -1      3109 6.81785E-03 2.45247E-04-6.88723E-05 2.82442E-04-6.67803E-07-2.81163E-05
 -1      3110 6.77588E-03 2.78595E-04-2.32417E-05 1.85344E-04 3.99922E-06-5.71604E-05
 -1      3111 7.54901E-03-4.13734E-05 1.09277E-05-1.46591E-04 4.15436E-06-1.27098E-06
 -1      3112 6.59574E-03 4.34699E-04-1.10807E-05-1.82863E-05-1.64791E-06 6.35427E-05
 -1      3113-1.79612E-03 2.62396E-04 1.23120E-04-1.08771E-03 1.00622E-04-2.38771E-04
 -1      3114-1.08987E-03 7.36620E-04 1.69482E-04-5.31411E-04-1.68876E-04-3.07299E-05
 -1      3115-3.23303E-08 2.15826E-07 8.45893E-09-1.90638E-08-2.57422E-09-1.60070E-09
 -1      3116 1.68305E-04-8.09787E-06 1.62679E-05 3.63121E-05-5.66782E-06 2.93056E-06
 -1      3117 2.46037E-04-9.02476E-06 1.61131E-05 9.98837E-05-2.32812E-06 8.01365E-07
 -1      3118 6.63666E-03 4.83170E-04-1.81599E-05-1.35470E-04-5.45336E-06 8.33890E-05
 -1      3119 5.26497E-03 1.86938E-03 4.70107E-04 2.34360E-03-1.35568E-04-1.50977E-04
 -1      3120 5.30901E-03 1.66031E-03 4.62106E-04 2.18663E-03-9.20640E-05-7.38740E-05
 -1      3121 5.57399E-05-9.92538E-07 5.45248E-06 1.11395E-06-3.62205E-07-1.15632E-07
 -1      3122 4.30155E-05-5.68659E-06 1.71951E-06-5.62911E-06 5.19548E-08-4.61359E-07
 -1      3123 7.03399E-03-1.55997E-06 5.11429E-07 1.48685E-04 5.19590E-07 1.56037E-06
 -1      3124 7.03907E-03-1.13664E-05 8.02996E-07 6.46434E-05 1.36879E-06-6.82286E-07
 -1      3125 6.97131E-03 1.59408E-06-1.91346E-06 1.46878E-04-2.30387E-07 1.28052E-06
 -1      3126 6.34318E-03 5.71260E-04 1.07726E-06 1.70977E-04 7.08188E-06 6.32145E-05
 -1      3127 6.24605E-03 5.95788E-04-2.65763E-07 5.07021E-05-7.23449E-06 5.90884E-05
 -1      3128 2.62756E-03 1.72828E-03-1.08777E-04 1.75052E-03-6.35946E-05-3.51578E-06
 -1      3129 3.25801E-03 1.00639E-03 4.13839E-05 1.56005E-03-2.18990E-05 8.56124E-06
 -1      3130 1.54416E-03 1.69639E-03-1.72332E-04 1.38584E-03-3.81591E-05-7.62405E-05
 -1      3131 8.82681E-04 8.21584E-04-4.94403E-05-7.88692E-04-5.63183E-05 3.91566E-05
 -1      3132-8.94715E-08 4.06698E-07 3.84486E-08-1.10300E-07 2.47408E-09-1.90135E-09
 -1      3133-5.24793E-08 3.73480E-07 3.23141E-08-8.83301E-08 1.09089E-08 1.61345E-08
 -1      3134 3.55528E-03 4.79039E-04 5.68077E-04-9.35080E-04 9.32728E-05 2.61523E-04
 -1      3135 2.19134E-03 3.37238E-05 1.19682E-04-8.97470E-04 5.99153E-05 1.17889E-04
 -1      3136 6.22861E-03 1.04114E-03 2.71348E-04 1.27934E-04 2.04568E-06-5.31001E-06
 -1      3137 6.03852E-03 1.17883E-03 2.47035E-04 5.68705E-04-4.81168E-05-7.86750E-05
 -1      3138 6.07007E-03 1.18311E-03 1.82474E-04 6.00029E-04-5.17325E-05-8.11495E-05
 -1      3139 5.48443E-03 9.05621E-04 1.83593E-04 6.02866E-04-7.35491E-05-1.33391E-04
 -1      3140 3.54461E-03 1.02856E-03 1.05528E-04 2.84443E-04 1.18344E-04-2.67498E-05
 -1      3141 7.88043E-03 4.41761E-04 3.39530E-04 1.00732E-03-1.57815E-06 1.30505E-05
 -1      3142 7.97617E-03 4.35443E-04 3.65690E-04 9.91410E-04 2.14965E-05-3.64590E-05
 -1      3143 7.03805E-03 1.35177E-03 4.27038E-04 1.07031E-03 2.41506E-05-1.22387E-05
 -1      3144 7.39172E-03 2.52799E-04 1.12997E-04 5.91860E-04 1.21372E-05-1.88980E-05
 -1      3145 7.25492E-03 1.83253E-04 4.60574E-05 5.61972E-04 1.84930E-06-3.77551E-05
 -1      3146 4.81815E-03 7.50242E-04 3.85911E-04 6.56168E-04-4.66901E-05-1.22968E-04
 -1      3147 5.52456E-03 9.77919E-04 3.28004E-04 6.04447E-04-3.94988E-05-7.93572E-05
 -1      3148 5.17505E-03 7.80209E-04 4.32654E-04 5.43279E-04 1.20418E-06-3.88612E-05
 -1      3149 4.14695E-03 7.22529E-04 2.70873E-04 1.10397E-03-4.90715E-05-8.51707E-05
 -1      3150 3.86365E-03 6.58503E-04 4.42465E-04 9.32848E-04-1.18795E-05-4.76834E-05
 -1      3151 4.59667E-03 7.49384E-04 3.32728E-04 1.01404E-03-6.58305E-06-4.11720E-05
 -1      3152 6.91125E-03 4.40757E-06-6.48180E-06 1.57986E-04-6.21910E-07 1.51567E-06
 -1      3153 6.99201E-03 2.60704E-07-7.10270E-07 9.23215E-05-1.63024E-06 2.03421E-06
 -1      3154 6.96954E-03 8.15517E-06-7.01183E-06 9.67911E-05 9.28780E-07-3.51107E-06
 -1      3155 6.05451E-03 7.06112E-04-1.32429E-05 5.01092E-07 5.23456E-06-2.91730E-05
 -1      3156 5.92499E-03 6.16628E-04 2.25274E-04 1.17996E-05-4.26628E-05 4.32964E-05
 -1      3157 5.92025E-03 1.00892E-03 5.56853E-05-3.18647E-04-2.40401E-05 2.42197E-05
 -1      3158 4.47500E-04 7.69457E-04-2.75167E-04-5.63102E-04-8.17446E-05 6.30659E-05
 -1      3159 3.88871E-03 3.19672E-04 3.99113E-04-7.75103E-04 4.57369E-06-2.14945E-04
 -1      3160 4.42127E-03 2.44984E-04 2.83985E-04-7.38214E-04-3.08002E-06-4.22807E-04
 -1      3161 6.45540E-04 9.78036E-04-3.98454E-04-6.83506E-04-1.01620E-04 4.15853E-05
 -1      3162 5.48576E-07 1.05659E-06 7.11883E-08 1.03754E-06-9.53955E-09-1.48419E-08
 -1      3163 1.03565E-03 8.57076E-04-3.84035E-05-8.68009E-04-1.05092E-04 3.69808E-05
 -1      3164 5.30579E-04 8.50581E-04-4.11038E-04-6.04695E-04-5.94201E-05 5.61951E-05
 -1      3165 6.84864E-03 8.45455E-05-8.87897E-06 1.48189E-04 3.32501E-06-2.00967E-05
 -1      3166 5.97094E-03 1.23211E-03 2.34453E-05-6.64168E-04-7.30249E-05-2.01398E-05
 -1      3167 5.86380E-03 1.00796E-03 5.54164E-05-4.61008E-04 2.44716E-05-4.85523E-05
 -1      3168 6.84889E-03 1.05654E-04-2.14259E-05-1.58726E-04-3.62207E-06-2.74437E-05
 -1      3169 7.24063E-03 5.44534E-04 6.19322E-05-9.79493E-04-3.24235E-05 1.09558E-04
 -1      3170 7.44614E-03 9.42103E-04 1.85034E-04-1.14733E-03-6.07023E-05 5.22592E-05
 -1      3171 7.36580E-03-1.00077E-05-3.59704E-06-1.26193E-04-2.84362E-06-3.61017E-06
 -1      3172 7.33236E-03-1.18205E-05-1.23982E-06 1.03461E-05-9.39202E-07-2.68152E-06
 -1      3173 7.35611E-03-6.08198E-06 2.10206E-06-1.15268E-04-1.94258E-06-3.67375E-06
 -1      3174 7.20042E-03-4.57181E-06 2.01736E-06-1.04454E-04 5.03476E-07 3.11281E-07
 -1      3175 6.80572E-03 8.41899E-05-5.69900E-05-3.18522E-04 6.89759E-07-8.18947E-05
 -1      3176 6.92686E-03 1.96885E-04-4.31910E-05-4.02719E-04 1.10322E-06-5.53783E-05
 -1      3177 6.81816E-03 1.85869E-04-1.64390E-05-3.60591E-04-1.07546E-05-5.89668E-05
 -1      3178 6.35317E-03 9.62128E-04 2.72515E-05-4.95856E-04 1.39248E-05-5.75488E-05
 -1      3179 5.58325E-03 9.07493E-04 4.85292E-05-3.35182E-04-2.93979E-05 3.05251E-05
 -1      3180 5.99296E-03 8.35103E-04 8.72818E-06-1.20726E-04-1.05417E-06-4.09592E-05
 -1      3181 9.66610E-08 8.89808E-07 4.80885E-08 6.90791E-07 5.29820E-09 7.23997E-09
 -1      3182 5.94061E-03 9.49956E-04 1.96486E-05 2.56089E-04 1.41608E-05 2.57327E-05
 -1      3183 6.26054E-03 1.12934E-03 5.14503E-05 6.58439E-04 3.64991E-05 4.18847E-05
 -1      3184 6.01113E-03 1.18517E-03 8.48511E-05 6.05816E-04-2.06415E-05-2.88783E-05
 -1      3185 2.59969E-04 6.04549E-05 4.59476E-05 1.43868E-04 2.51896E-06 2.51535E-07
 -1      3186 7.18985E-03-1.01522E-05 8.39653E-07 8.47165E-06 8.59049E-07 4.92554E-07
 -1      3187 7.12690E-03-1.64727E-06-3.10923E-07-1.52289E-04-1.22231E-06 2.19483E-07
 -1      3188 7.20918E-03-4.94499E-06-1.37110E-06-1.07437E-04-1.43993E-06 4.10290E-07
 -1      3189 7.59824E-05-8.05941E-06 6.33744E-06-2.32291E-06 2.75435E-06-1.19627E-06
 -1      3190 5.50387E-03 9.05477E-04 4.45126E-04-3.89691E-04 2.37441E-06 1.01491E-05
 -1      3191 5.53123E-03 8.15653E-04 6.64085E-04-2.66335E-04 1.54088E-05-9.20784E-05
 -1      3192 5.79293E-03 9.80458E-04 3.18843E-04-2.52195E-04 3.28038E-05-5.62783E-05
 -1      3193 5.74366E-03 1.06060E-03 3.34131E-04-7.51029E-04 5.99857E-05-4.74294E-05
 -1      3194 5.34445E-03 7.55012E-04 2.98998E-04-4.30314E-04 7.18974E-05-1.53947E-04
 -1      3195 3.59680E-03 6.50695E-04 4.00947E-05 1.40288E-03-1.47356E-04-1.29475E-04
 -1      3196 2.61889E-03 8.61680E-04 3.65853E-05 1.35957E-03-1.26092E-04-4.06536E-05
 -1      3197 5.50098E-03 9.41928E-04 2.68921E-04 6.38025E-04-6.48558E-05-1.06034E-04
 -1      3198 6.05483E-03 9.83301E-04 6.23814E-05 2.54265E-04-1.19840E-05-8.01896E-06
 -1      3199 2.24904E-03 3.18579E-04 2.85659E-04-1.01243E-03-2.08855E-05-1.45608E-04
 -1      3200 6.37144E-04 9.51800E-04-9.10088E-05-7.69417E-04 6.30066E-05-2.49712E-05
 -1      3201 1.06233E-03 2.12175E-05 3.43128E-05-7.03564E-04 3.44713E-06-5.42390E-05
 -1      3202 1.43353E-03 5.98377E-04 1.74271E-04-8.10314E-04-6.44216E-06-1.23211E-04
 -1      3203 6.90360E-03 5.45518E-05-8.49723E-06 8.04413E-05 1.70832E-06-1.22115E-05
 -1      3204 6.95659E-03 3.25117E-05-8.03330E-06 5.31295E-05 1.69638E-06-6.52395E-06
 -1      3205 6.93642E-03 8.14607E-05-1.95592E-05 4.08172E-05 7.54309E-07-1.53084E-05
 -1      3206 6.94812E-03 4.57627E-05-3.27657E-06 5.57851E-06 1.42354E-06-8.98161E-06
 -1      3207-3.74439E-08 1.72541E-07 1.83274E-08 5.27254E-09-4.39754E-10-9.18151E-10
 -1      3208 1.14558E-09 2.51158E-07 2.62823E-08-5.88415E-08 1.33389E-09 8.23742E-11
 -1      3209-2.74502E-08 2.18261E-07 1.16437E-08-2.69058E-08 1.80191E-09-5.41726E-10
 -1      3210 7.19277E-03 2.30373E-04 1.80135E-05 4.90740E-04 4.18474E-06-6.85872E-05
 -1      3211 6.56262E-04-8.75043E-04 1.12730E-04 6.32044E-04-4.30261E-04-3.88854E-04
 -1      3212 4.38979E-04-1.51362E-03-2.73725E-04-3.37507E-04 1.87885E-04-5.27455E-04
 -1      3213 1.23400E-06 1.14651E-06 2.41402E-07 1.20257E-06-3.17687E-08 2.55371E-08
 -1      3214 4.96944E-03 9.39292E-04 3.41716E-04-1.15805E-03 3.43094E-06-1.64888E-05
 -1      3215 5.79652E-03 1.25468E-03 4.65126E-04-7.55090E-04-7.15487E-05 7.65553E-05
 -1      3216 3.01308E-04 7.07381E-04-8.64251E-05 5.20714E-04-4.41687E-05 1.20816E-05
 -1      3217 3.34944E-04 5.35613E-04-3.37938E-05 4.51723E-04-1.55872E-05 3.15998E-06
 -1      3218 1.56508E-03 1.27125E-03-2.78669E-04-1.21707E-03 3.10347E-04-1.16471E-04
 -1      3219 6.99141E-03-3.38339E-06 8.15585E-07-1.33817E-04 4.70488E-07 2.79230E-07
 -1      3220 1.08625E-04-1.53398E-05 4.52524E-06 1.18970E-05-6.93141E-07 1.53175E-06
 -1      3221 8.71001E-05-2.11025E-05 9.08307E-06-1.87513E-06-3.84170E-07 4.73799E-07
 -1      3222 4.49907E-03 4.62384E-04 7.63951E-04-6.58612E-04-2.61252E-05-2.65929E-04
 -1      3223 7.09196E-08 8.99956E-07 4.11770E-08-7.16619E-07-1.11945E-08 7.54974E-09
 -1      3224 6.44753E-03 1.59592E-03 4.85119E-04 9.44368E-04-2.77669E-05-3.62129E-05
 -1      3225 6.99764E-03 1.42171E-03 4.88571E-04 1.18540E-03 9.82283E-06 1.37141E-05
 -1      3226 6.42751E-03 1.29810E-03 2.89118E-04 7.07401E-04-6.00850E-06-2.31261E-05
 -1      3227 8.43852E-04 7.35311E-04 5.30940E-06-7.96947E-04-4.13540E-05-6.28729E-06
 -1      3228 4.42779E-03-3.22416E-03-4.33011E-04 1.58693E-04-2.16907E-05 4.37718E-07
 -1      3229 7.25312E-03-2.72023E-03-7.15523E-04-1.82005E-03-4.68878E-05 1.07030E-05
 -1      3230 9.18955E-06 8.42173E-07 5.91007E-07-5.72892E-06 4.67183E-08-7.94679E-08
 -1      3231 1.74867E-05-7.26223E-07 1.60850E-06-8.28915E-06 1.04057E-06 8.75699E-08
 -1      3232 6.90879E-03 3.30327E-06-4.65176E-06 1.18263E-04-4.70582E-06 3.64914E-06
 -1      3233 6.97475E-03-3.13750E-06-3.12320E-06 9.06547E-05-1.09420E-06 2.30579E-06
 -1      3234 6.83784E-03 2.46150E-03-6.60791E-04 1.01542E-03-8.08331E-07 1.78445E-04
 -1      3235 7.45323E-03 6.29692E-03 6.88944E-04 3.76492E-03-1.52406E-04-2.39437E-04
 -1      3236 7.80522E-03-6.87596E-05 4.67117E-06-2.31282E-04 4.13828E-06 2.26797E-05
 -1      3237 3.52257E-03 9.80439E-04 1.31470E-04-2.67436E-04-1.13192E-04-2.52520E-05
 -1      3238 2.21200E-03 1.37118E-03-7.47838E-05 1.21355E-03 6.40897E-06-1.40874E-05
 -1      3239 5.49662E-03 1.16440E-03 2.29237E-04 1.20034E-03-1.03675E-04-1.55948E-04
 -1      3240 3.32252E-03-7.76337E-04 4.35549E-05 2.64598E-04-1.98603E-04 1.72930E-04
 -1      3241 3.63710E-03-1.33951E-03-2.69650E-05-5.34383E-04 1.42675E-04 2.98382E-04
 -1      3242 7.03109E-03-4.53679E-07 9.96255E-09 1.49046E-04-5.85027E-08-2.30072E-06
 -1      3243 7.03299E-03-1.01855E-05-2.98330E-07 7.87344E-05-1.14391E-06 7.12139E-07
 -1      3244 6.98158E-03-2.91434E-07-2.80844E-06 1.47936E-04 2.50682E-07-1.64312E-06
 -1      3245 6.96725E-03-7.81173E-07-2.55154E-06 1.42635E-04-8.87718E-07-2.04565E-06
 -1      3246 4.02212E-03 7.88460E-04 1.34724E-04 8.87300E-04 1.04388E-04 1.48928E-04
 -1      3247 6.29077E-03 1.07777E-03 8.78460E-05 3.92727E-04 8.34767E-06-3.33898E-05
 -1      3248 4.58197E-04 7.24033E-04-2.21974E-04 4.78600E-04 2.77900E-05 1.76423E-05
 -1      3249 6.38609E-03 1.14922E-03 1.72136E-04-4.58557E-04-1.43503E-05-8.00189E-06
 -1      3250 6.86466E-03 1.07491E-03 2.58774E-04-8.21137E-04 8.18524E-07-7.48909E-06
 -1      3251 6.87403E-03 6.01540E-04 4.47291E-05-5.59535E-04 6.89592E-06 1.47143E-06
 -1      3252 6.97215E-03 1.07085E-04-5.34869E-05-3.77184E-04 6.84131E-06 7.68318E-05
 -1      3253 5.06975E-03 1.51289E-03 3.75996E-04-2.18096E-03-1.04277E-04 4.99682E-05
 -1      3254 6.00585E-03 1.58164E-03 4.45364E-04-1.77601E-03-2.39647E-05 2.55076E-05
 -1      3255 7.43789E-03 1.05935E-03 4.70499E-04-1.12256E-03 1.57491E-05-2.84385E-05
 -1      3256 6.18782E-03 1.33212E-03 2.85286E-04-5.51130E-04-2.96345E-05 4.38220E-05
 -1      3257 5.44855E-03 1.64906E-03 4.45628E-04-2.13233E-03 1.34157E-04-1.42691E-04
 -1      3258 5.32387E-03 1.52165E-03 3.55585E-04-1.94039E-03 1.52655E-04-1.09022E-04
 -1      3259 6.16718E-03 1.16522E-03 3.84839E-04-6.90001E-04 6.85879E-05-5.94678E-05
 -1      3260 1.26059E-03 3.79211E-04-2.17173E-04-2.18136E-04-8.81690E-05 6.22891E-04
 -1      3261 6.39697E-03 9.03998E-04 1.79587E-04-5.88004E-05 1.39947E-06-2.98461E-05
 -1      3262 6.24669E-03 1.01643E-03 2.98246E-04-1.43977E-04-1.55418E-05-1.62316E-05
 -1      3263 6.22865E-03 9.16688E-04 2.46171E-04-7.14164E-05-1.71236E-05 5.78373E-05
 -1      3264 5.98489E-03 9.79752E-04 3.29775E-04-1.96563E-04-4.53712E-05 6.56657E-05
 -1      3265 6.32088E-04 8.35913E-04-2.25291E-04 5.97435E-04-9.62954E-05-5.21931E-05
 -1      3266 1.09082E-03 1.66632E-03-2.94064E-04 1.26730E-03 3.47434E-05 4.18920E-05
 -1      3267 5.87621E-03 1.03260E-03 1.26829E-04 5.86716E-04-7.16601E-05-1.07744E-04
 -1      3268 4.95130E-03 1.03045E-03 2.98906E-04 1.37530E-03 1.02689E-07-2.61922E-05
 -1      3269 5.64545E-03 1.03702E-03 3.39822E-04 5.48823E-04-2.34712E-05-3.58350E-05
 -1      3270 5.46789E-03 1.06727E-03 3.23290E-04 7.50776E-04 1.98098E-05 1.39412E-05
 -1      3271 4.41666E-03 7.94166E-04 3.13074E-04 1.23347E-03 1.87380E-05 1.89307E-05
 -1      3272 5.35691E-03 8.59441E-04 4.58641E-04 4.71659E-04 1.65248E-05 2.00439E-05
 -1      3273 6.88798E-03 8.53366E-05-3.19443E-05 1.28287E-04 7.29243E-08 9.32994E-06
 -1      3274 6.93321E-03 8.29169E-05-2.20848E-05 4.62022E-05-1.28350E-06 1.62642E-05
 -1      3275 9.93472E-04 1.19450E-03-2.48248E-04 1.04350E-03-1.46045E-04-5.52777E-05
 -1      3276 6.93094E-03 2.61062E-04-2.93384E-05 4.54442E-04 7.21089E-07 1.87834E-05
 -1      3277 6.77177E-03 3.43212E-04-4.86591E-05 3.12246E-04-2.70621E-06 4.05448E-05
 -1      3278 6.96424E-03 3.98561E-04 6.58949E-06 6.11420E-04 6.63072E-06 3.31976E-05
 -1      3279 7.04419E-03 1.79665E-04-3.49227E-05 4.39827E-04 6.71324E-06 2.48047E-06
 -1      3280 4.88567E-03 1.79677E-03 4.14195E-04 2.37708E-03 7.58610E-05 7.19813E-05
 -1      3281 4.63515E-03 1.06840E-03 2.34316E-04 1.55503E-03 5.37549E-05 4.70161E-05
 -1      3282 5.96072E-03 1.39842E-03 4.86833E-04 1.22183E-03 4.35718E-05 4.39911E-05
 -1      3283 6.71974E-03 4.73861E-04-2.64351E-05 2.77027E-04 4.68693E-07 6.03677E-05
 -1      3284 6.06904E-03 7.96487E-04 2.35880E-05 1.59891E-04-1.64030E-06 4.26603E-05
 -1      3285 6.86806E-03 1.66882E-04-4.71466E-05 2.35159E-04-2.85852E-06 4.59271E-05
 -1      3286 2.75009E-05-3.61153E-06 1.94045E-06-8.95813E-06 2.21160E-07 8.07881E-09
 -1      3287 7.34855E-03 2.75967E-04 7.48945E-05 6.36686E-04-3.02087E-06-5.73256E-05
 -1      3288 5.60332E-03 9.14324E-04 2.75620E-07-5.25264E-04 8.89537E-07 8.15515E-05
 -1      3289 6.45289E-03 1.69380E-03 5.60361E-04-1.82884E-03-7.44122E-06 1.78982E-05
 -1      3290 6.16196E-03 1.72259E-03 5.38892E-04-1.59770E-03 2.48027E-05-2.74200E-05
 -1      3291 7.61899E-03 2.83134E-04 2.12124E-04-9.23650E-04 8.44586E-06 4.09991E-06
 -1      3292 6.97654E-03 1.37739E-04-7.18984E-05-3.97177E-04 8.90367E-06-7.69287E-05
 -1      3293 6.70903E-03 4.79489E-05-1.01817E-05 2.63238E-04-7.48566E-06 5.10411E-05
 -1      3294 3.16681E-03 1.06425E-03-5.99161E-04 3.50271E-04 2.49435E-04 9.66746E-05
 -1      3295 3.99734E-04 5.94837E-04-1.79077E-05-5.46938E-04 8.72198E-06 2.01907E-05
 -1      3296 1.03321E-03 1.02807E-03-2.68075E-04 8.98753E-04 1.10828E-04 7.69703E-05
 -1      3297 6.89774E-03 7.18058E-05-2.22180E-05 1.20012E-04-2.57020E-06 1.93586E-05
 -1      3298 6.96993E-03 1.55974E-05-6.78547E-06 4.60188E-05-1.49965E-06 2.79506E-06
 -1      3299 7.13574E-03 1.94112E-04-3.62354E-06-4.90229E-04-2.54294E-06 2.17749E-06
 -1      3300 7.10581E-03 1.84805E-04-1.58102E-05-4.51773E-04-5.87680E-06-3.73228E-05
 -1      3301 6.49237E-03 4.53275E-04 3.13537E-06 3.79636E-04-1.20600E-05-6.91144E-05
 -1      3302 6.54972E-03 3.94301E-04-7.76053E-06 5.27178E-04-9.91046E-06-6.95460E-05
 -1      3303-1.60326E-08 3.16949E-07 2.78583E-08-5.85810E-08-5.95739E-09-1.24325E-08
 -1      3304 7.16131E-03 1.23146E-04-3.40155E-06-4.69036E-04-1.18807E-05 4.77767E-05
 -1      3305 7.08143E-03 2.15968E-04 2.13551E-06 5.25146E-04-3.70406E-06 1.35453E-04
 -1      3306 7.17830E-03 2.14016E-04-3.90869E-05 6.06901E-04 2.12873E-06 1.37503E-04
 -1      3307 7.14726E-03 1.73890E-04 3.08836E-05-5.37798E-04 1.39597E-05 2.08044E-05
 -1      3308 1.71434E-03 8.98843E-04 3.19228E-05 1.12780E-03 1.05561E-04 5.32623E-05
 -1      3309 5.49892E-03 7.09346E-04-1.65401E-05 2.68714E-04 3.14858E-05 2.31194E-05
 -1      3310 4.58909E-03 4.67755E-04 6.01514E-05 8.62727E-04 6.93499E-05 7.30342E-05
 -1      3311 3.64249E-03 4.78330E-04 6.12619E-05 1.19128E-03 1.01801E-04 5.43555E-05
 -1      3312 6.83992E-03 9.80274E-05-3.60829E-05 1.57476E-04-4.89579E-06 3.60973E-05
 -1      3313 6.83710E-03 7.96705E-05-7.48065E-05-2.96298E-04-4.18494E-07 1.02867E-04
 -1      3314 8.96147E-04 9.23592E-04 1.04444E-05 8.65362E-04-5.99490E-05 1.16928E-05
 -1      3315 7.55015E-04 6.75777E-04 3.20606E-05 7.61513E-04-6.48663E-06-1.81190E-05
 -1      3316 1.39141E-03 3.13204E-05 2.32249E-04 7.56782E-04 5.34803E-05-1.32319E-04
 -1      3317 9.98828E-04 1.01653E-03-1.85187E-04 9.01366E-04 1.80902E-04 4.19646E-05
 -1      3318 6.72068E-03 2.13650E-04-3.44367E-05 2.62077E-04 5.82945E-06-7.30036E-05
 -1      3319-9.14375E-08 8.04668E-07 7.77029E-08-5.24773E-07-1.38437E-09-7.84184E-10
 -1      3320 3.49518E-03 9.99181E-04 1.07574E-04-2.75376E-04 1.09995E-04 6.57422E-06
 -1      3321 5.52628E-03 8.28433E-04 5.87333E-04 2.54145E-04-1.28779E-05 1.24145E-04
 -1      3322 5.01639E-03 7.66205E-04 1.21190E-03 6.31361E-04-4.02224E-05 1.97039E-04
 -1      3323 6.45729E-03 6.99884E-04 1.85733E-05-9.81476E-05 2.75921E-06 3.36911E-05
 -1      3324 7.02431E-03-2.85526E-06-2.71259E-06 3.50098E-05-6.72822E-07-1.84950E-07
 -1      3325-5.98556E-09 1.28350E-07 1.23248E-08 2.22244E-09-1.06797E-09-5.02238E-09
 -1      3326 5.89973E-03 1.14882E-03-5.35598E-06 5.01668E-04-7.28055E-05-7.85764E-06
 -1      3327 7.21454E-03 9.92397E-04 1.20490E-04 1.15751E-03-6.89923E-05-2.52350E-05
 -1      3328 7.05782E-03-1.05094E-05 1.04015E-07 3.10805E-06-2.25154E-07 8.92655E-07
 -1      3329 7.12836E-03-9.93086E-06 1.95561E-07 4.45873E-05 1.70350E-07-3.21323E-07
 -1      3330 7.11801E-03-9.46532E-06 1.54823E-06 4.93459E-05 1.29776E-06 6.28843E-07
 -1      3331 6.61023E-03 6.18660E-04-1.68847E-05 3.71507E-05 4.87955E-06-7.04450E-05
 -1      3332 6.32643E-03 6.78573E-04 2.27901E-07 6.72948E-06 1.33233E-06-5.55545E-05
 -1      3333 6.38230E-03 6.36067E-04-9.03576E-06 1.32213E-04 2.11897E-06-6.31602E-05
 -1      3334 6.42121E-03 5.13229E-04-2.66319E-05 6.44350E-05 3.17889E-06-7.18147E-05
 -1      3335 6.19007E-03 9.12426E-04 4.63164E-04 6.61098E-05-3.55396E-06-2.21328E-04
 -1      3336 6.16112E-03 8.51513E-04 1.32245E-04 3.35472E-05-3.03553E-05-8.20264E-05
 -1      3337 4.62112E-04 1.56508E-04 6.10661E-05-3.92405E-04-2.97395E-06-2.73091E-06
 -1      3338 6.83130E-03 4.19685E-04-1.82294E-05 4.17709E-04 1.81866E-06-6.54207E-05
 -1      3339 6.86569E-03 8.20212E-05-1.20732E-05 1.34346E-04-3.88733E-06 2.15327E-05
 -1      3340 5.62399E-03 7.60846E-04 6.39074E-05 4.34860E-04-4.80950E-05-7.62693E-05
 -1      3341 5.67440E-03 6.34613E-04 2.41692E-05 1.54733E-04-2.39740E-05-7.94548E-05
 -1      3342 5.75068E-03 8.88694E-04 4.71795E-05 1.78438E-04 2.46136E-06-3.12527E-05
 -1      3343 7.93463E-03 7.03042E-04 4.74142E-04 1.16259E-03 2.02665E-05 6.19973E-06
 -1      3344 6.75026E-03 1.48397E-03 4.23922E-04 1.05330E-03 1.32782E-05 2.69794E-05
 -1      3345 6.19011E-03 6.82387E-04 1.29265E-04-6.31376E-05 1.22468E-06-1.80234E-05
 -1      3346 6.62235E-03 7.84649E-04 2.43844E-04-2.35332E-05-4.61868E-06 7.92135E-05
 -1      3347 3.16023E-03 6.15794E-04 7.82061E-05-1.16026E-03 1.09533E-04-2.97021E-05
 -1      3348 6.69793E-03 6.67721E-04 1.26154E-05-1.30187E-04-1.50756E-07 9.61181E-07
 -1      3349 6.35164E-03 1.04841E-03 2.52983E-04-2.19149E-04-1.01204E-05-2.38613E-05
 -1      3350 5.91847E-03 1.03971E-03 2.72856E-04-2.97028E-04 2.45927E-05-6.50037E-05
 -1      3351 6.25427E-03 9.75185E-04 4.76746E-04-2.29661E-06 4.72353E-06-9.16955E-05
 -1      3352 7.90891E-04 1.09200E-03-1.36708E-04-9.35468E-04-1.38210E-04-2.38965E-06
 -1      3353 1.19956E-03 1.38750E-03-9.11001E-05-1.30597E-03-2.45957E-04 3.85838E-05
 -1      3354 7.25744E-04 9.33092E-04-5.78160E-05-8.10521E-04-9.69677E-05 1.85932E-06
 -1      3355 6.94095E-03 5.73455E-05-8.07698E-05 2.70598E-04 2.52558E-06-3.68001E-05
 -1      3356 6.91490E-03 2.42445E-04-4.29639E-05 4.32881E-04-2.75776E-07-1.83800E-05
 -1      3357 6.64876E-03 6.51591E-04 7.07392E-06 3.75695E-04-4.94511E-06-6.97939E-05
 -1      3358 7.06220E-03 2.42848E-07 6.50784E-07 1.51362E-04-1.24380E-07-2.66003E-08
 -1      3359 3.71607E-03 2.01035E-03 1.46683E-04 1.65816E-03-2.86896E-04-1.99621E-04
 -1      3360 3.81836E-03 2.06532E-03 1.09219E-04 1.67759E-03-2.73216E-04-1.66766E-04
 -1      3361 6.18460E-03 2.09278E-03 4.65785E-04 2.55102E-03-1.98875E-04-2.78628E-04
 -1      3362 6.12258E-03 7.33178E-04-1.80242E-05 9.60950E-05 1.58517E-05-4.69670E-05
 -1      3363 6.64774E-03 4.61600E-04-2.32865E-05 2.17427E-04 1.69071E-06 9.08162E-05
 -1      3364 6.78460E-03 3.62754E-04-3.39327E-05 1.93256E-04-3.77737E-06 4.48016E-05
 -1      3365 5.15181E-03 1.43770E-03 3.62504E-04-1.87735E-03 8.13701E-05-1.22861E-04
 -1      3366 7.42692E-03 1.27032E-03 3.67324E-04 1.51031E-03-1.71511E-05 3.52870E-05
 -1      3367 7.92004E-03 9.98255E-04 6.44890E-04 1.23418E-03-7.40427E-06 5.27449E-06
 -1      3368 7.99017E-03 1.11340E-03 7.05125E-04 1.36798E-03 9.32162E-06 6.25766E-06
 -1      3369 6.79232E-03 2.99237E-05-4.67615E-05 2.85672E-04-3.95814E-06 1.00731E-04
 -1      3370 6.73837E-03 2.33533E-04-4.20209E-07 5.09822E-04 8.76100E-06-7.54454E-05
 -1      3371 6.74718E-03 7.01507E-04 1.24252E-04-1.19437E-05-2.91340E-06 1.41270E-05
 -1      3372 6.54904E-03 7.86584E-04 1.22360E-04-1.07951E-04 7.23491E-06-3.94780E-06
 -1      3373 6.67614E-03 8.13689E-04 1.79941E-04-1.56068E-05-8.19816E-06-3.93004E-05
 -1      3374 5.93841E-03 1.01563E-03 3.52199E-04 2.07234E-04-1.35184E-05-1.72097E-05
 -1      3375 3.50762E-03 7.68099E-04 3.20566E-05-1.25559E-03 2.00728E-04-1.42064E-04
 -1      3376 4.99715E-03 7.01578E-04 2.05266E-04-7.58852E-04 1.06949E-04-1.62673E-04
 -1      3377 6.46012E-03 1.04522E-03 1.56793E-04 4.45231E-04 4.59931E-06-1.40296E-05
 -1      3378 6.21540E-03 1.14532E-03 2.34312E-04 3.20107E-04 9.41014E-06 2.21724E-05
 -1      3379 6.35208E-03 1.90362E-03 5.86351E-04 2.17881E-03-6.39034E-05-8.85636E-05
 -1      3380 7.86975E-03 1.05491E-03 6.33157E-04 1.21870E-03-1.67505E-05-6.30430E-05
 -1      3381 8.00951E-03 3.97244E-04 2.59308E-04 1.02635E-03 1.71819E-05 3.56971E-05
 -1      3382 6.58212E-03 1.41978E-03 2.06509E-04 1.25339E-03-2.15912E-05-1.61852E-05
 -1      3383 7.01222E-03 4.45898E-04 6.76853E-05 7.92262E-04-1.00250E-05 2.52427E-05
 -1      3384 6.96340E-03 4.01801E-04 1.74401E-05-6.51888E-04-2.08784E-05-5.13927E-05
 -1      3385 6.02357E-03 1.49700E-03 5.47551E-04 1.27585E-03 3.68058E-06 3.09029E-05
 -1      3386 6.05697E-03 1.34277E-03 4.77670E-04 1.02247E-03-1.08524E-05-6.16512E-06
 -1      3387 5.36777E-03 1.65508E-03 4.62817E-04 2.17028E-03-2.81763E-05-8.13177E-05
 -1      3388 5.30922E-04 5.09654E-04-2.49684E-05-5.94212E-04-1.34630E-05 2.31320E-05
 -1      3389 3.02290E-04 5.22685E-04-1.59572E-05-4.67309E-04-1.52246E-06-3.27690E-06
 -1      3390 6.55499E-03 1.04597E-03 5.32467E-04-6.35864E-05 5.64286E-06-1.24014E-04
 -1      3391 5.16311E-03-1.07138E-03-1.49462E-04-1.88377E-03-7.16668E-04-4.96821E-04
 -1      3392 6.90446E-03 3.35949E-04-2.83777E-05-6.28861E-04-2.61172E-05 1.08376E-04
 -1      3393 7.58336E-03 1.02602E-03 3.75226E-04-1.14790E-03 1.24728E-05 1.87876E-05
 -1      3394 6.02184E-03 1.28399E-03-1.00165E-06-6.06267E-04 3.72821E-05 2.83240E-05
 -1      3395 7.10182E-03 1.72128E-04-2.87943E-05 4.99143E-04 9.04379E-06 1.17328E-04
 -1      3396 6.75178E-03 4.49387E-04-2.33851E-05 6.86939E-04 1.97416E-05 9.61290E-05
 -1      3397 3.32041E-03-7.91620E-04 3.53021E-05-2.42208E-04 2.04078E-04 1.76270E-04
 -1      3398 6.50812E-03 7.09999E-04 1.63529E-04-1.37458E-05 1.74436E-05 9.48246E-05
 -1      3399 1.43894E-03 8.70558E-04 2.55369E-06 1.06786E-03-9.79738E-05-2.83053E-05
 -1      3400-1.80007E-08 1.58399E-07 1.30133E-08 6.50592E-09 3.94429E-09 5.82553E-09
 -1      3401 6.31673E-03 8.70629E-04 1.36506E-05 2.46448E-04-6.02600E-06-6.92587E-05
 -1      3402 7.24658E-03 2.05082E-04 2.73830E-05-5.48245E-04-1.53041E-05-4.42368E-05
 -1      3403 7.34737E-03 4.02106E-04 1.89643E-04 7.22997E-04-1.36594E-05-1.38852E-05
 -1      3404 6.31515E-03 9.74990E-04 1.60158E-04-2.21162E-04 1.35391E-05-6.69754E-06
 -1      3405 5.86479E-03 7.32345E-04 3.47412E-05 6.35542E-05-9.01500E-06-1.53162E-05
 -1      3406 7.95485E-03 4.44080E-04 3.43501E-04 1.03970E-03-5.18598E-07 1.25426E-05
 -1      3407 2.97193E-03 1.53007E-03-9.60762E-05 1.60062E-03-1.93708E-04-1.21112E-04
 -1      3408 6.53844E-03 1.82425E-03 2.48599E-04-1.91952E-03 1.78722E-05-1.23961E-04
 -1      3409 3.26917E-03 5.10636E-04 2.57778E-04-1.07867E-03 6.75536E-05-3.18329E-04
 -1      3410 3.10884E-03 1.60840E-03-4.52649E-05 1.69362E-03-2.47358E-04-1.20184E-04
 -1      3411 2.62605E-03 1.41056E-03-5.48427E-05 1.54515E-03-2.73889E-04-1.24919E-04
 -1      3412 4.12259E-03 6.24325E-04 1.52885E-05 1.22441E-03-1.50981E-04-1.00839E-04
 -1      3413 2.54418E-03 1.38062E-03-6.05759E-05 1.44540E-03-2.23563E-04-1.35567E-04
 -1      3414 6.85516E-03 4.04393E-05-3.58357E-05-1.45209E-04 1.55160E-06-9.82122E-06
 -1      3415 2.97476E-04 6.34263E-04-1.02000E-04-3.88733E-04-6.85766E-05 4.14254E-05
 -1      3416 6.55743E-03 4.11702E-04-1.18196E-05 1.49764E-04 4.56899E-06 5.16830E-05
 -1      3417 7.00884E-03 5.32250E-04 8.17905E-05 7.97634E-04 5.28777E-06 2.39617E-05
 -1      3418 6.73189E-03 5.26507E-05-2.19429E-05 3.71638E-04 5.76635E-06-7.54942E-05
 -1      3419 8.00354E-03 5.45657E-04 4.33816E-04 1.08603E-03-1.44410E-05-1.63306E-05
 -1      3420 5.83166E-04 7.75056E-04-2.53498E-05-6.63500E-04-6.04490E-05-1.80192E-05
 -1      3421 3.86767E-08 6.46239E-07 6.56214E-08 2.83050E-07 1.64166E-08-2.39775E-08
 -1      3422-3.53358E-08 4.64904E-07 2.13134E-08 1.58419E-07 5.63982E-09-2.09385E-09
 -1      3423 5.73434E-03 8.39619E-04 5.82824E-05-3.56497E-04 5.08417E-05-8.84188E-05
 -1      3424 6.29683E-03 1.31908E-03 1.23901E-03 1.57004E-04 4.36004E-05-3.07560E-04
 -1      3425 6.08045E-03 1.29393E-03 4.48074E-04 8.67736E-04-4.17876E-05-4.73744E-05
 -1      3426 6.06320E-03 1.20141E-03 3.64404E-04 6.35985E-04-7.72621E-06-3.75814E-05
 -1      3427 5.48108E-03 1.02456E-03 3.15156E-04 7.11628E-04 5.86812E-05 9.06164E-05
 -1      3428 6.99949E-03 4.05705E-04 4.95135E-05 7.08913E-04 1.30505E-05 1.26506E-04
 -1      3429 6.75997E-03 6.61720E-04 4.48031E-05 8.83582E-04 2.32828E-05 9.42573E-05
 -1      3430 5.77200E-03 6.06346E-04 3.16609E-04 1.61140E-04 1.95547E-05-2.94770E-04
 -1      3431 6.39731E-03 1.85538E-03 5.83527E-04 2.23961E-03 7.28997E-05 8.07698E-05
 -1      3432 2.51796E-03 1.65777E-03-1.45147E-04 1.74646E-03 1.47118E-04 5.21635E-05
 -1      3433 2.92550E-03 2.43899E-04 5.52076E-04 9.58080E-04-3.26285E-05-5.41176E-05
 -1      3434 4.09720E-03 6.58283E-04 9.09584E-04 9.09196E-04 2.83284E-05-2.34391E-04
 -1      3435 4.05042E-09 5.62064E-08 5.24476E-09-3.96554E-09 1.30152E-10 1.61928E-09
 -1      3436 6.38394E-03 1.87706E-03 5.95395E-04 2.06843E-03-4.12159E-05-3.76386E-05
 -1      3437 5.81605E-03 1.04966E-03 9.44959E-04 3.28344E-04 2.85001E-05-3.17885E-04
 -1      3438 7.25706E-03 2.33352E-04-7.98856E-07 5.91496E-04 1.07881E-05 9.61615E-05
 -1      3439 6.78521E-03 2.85610E-04-1.43958E-06 5.64817E-04 7.05783E-06 1.01705E-04
 -1      3440 6.79336E-03 1.94779E-04-2.89744E-05 4.29336E-04 3.26109E-06 1.18509E-04
 -1      3441 5.78047E-03 6.25222E-04 3.46769E-05 5.60048E-05 6.94142E-05-3.12800E-05
 -1      3442 6.69012E-03 1.60601E-03 2.55785E-04-1.90266E-03-6.19630E-05 9.44852E-05
 -1      3443 7.50533E-03 8.54027E-04 2.04133E-04-1.08466E-03 3.23614E-06-5.19918E-05
 -1      3444 7.99656E-04 9.72813E-04-1.81584E-04-8.05832E-04 4.51581E-05-4.26944E-05
 -1      3445 8.08952E-03 7.38891E-04 5.37529E-04 1.10954E-03-8.32884E-06-2.29988E-05
 -1      3446 6.94607E-03 5.66159E-05-4.20510E-05 4.46746E-04 9.08488E-06-1.05586E-04
 -1      3447 6.78652E-03 1.15168E-04-7.89780E-06 3.94124E-04-8.32859E-07 7.73270E-05
 -1      3448 6.72492E-03 4.78231E-04-8.14292E-06-5.04333E-05-2.96348E-06-7.15472E-05
 -1      3449 2.88400E-03 6.85755E-04 4.05695E-04-1.10706E-03 2.45972E-05-1.28923E-04
 -1      3450 4.97587E-03 1.88150E-03 3.93604E-04 2.42406E-03 1.46238E-04 1.30479E-04
 -1      3451 6.84981E-03 6.66035E-05-5.77829E-05 2.18439E-04 1.79261E-06 9.81464E-06
 -1      3452 4.91591E-03 1.94826E-03 4.17182E-04 2.49896E-03 9.69093E-05 1.32168E-04
 -1      3453 1.10557E-08 6.73254E-07 6.26663E-08-2.88633E-07-2.43285E-08-2.37197E-08
 -1      3454 6.79775E-03 4.96481E-04-3.33401E-05 1.22469E-04-5.58451E-06 2.97133E-06
 -1      3455 6.70887E-03 4.12081E-04-3.20791E-05 2.71006E-04 4.32860E-06-7.14556E-05
 -1      3456 6.52916E-03 5.81942E-04-2.64567E-05 1.98019E-04-1.15795E-05-7.88256E-05
 -1      3457 6.80892E-03 1.29409E-04-1.93914E-05 1.83842E-04-9.05870E-06 3.27166E-05
 -1      3458 6.91790E-03 5.63626E-05-2.04920E-05-9.02392E-05-3.19363E-06-1.15870E-05
 -1      3459 1.82492E-03 1.04558E-03-1.03647E-05 1.02462E-03-2.07371E-04-7.25378E-05
 -1      3460 2.59351E-03 1.31378E-03 5.43657E-06 1.49725E-03-2.90634E-04-1.69933E-04
 -1      3461 5.96977E-03 9.91078E-04 2.01912E-04-2.76320E-04 1.22287E-05-1.00311E-04
 -1      3462 5.82323E-04 8.88314E-04-1.32994E-04 6.42505E-04-1.34971E-04-4.71570E-05
 -1      3463 2.47275E-03 1.73823E-03-1.53661E-04 1.66853E-03 6.68707E-05 2.66432E-05
 -1      3464 2.92521E-03 1.12253E-03-1.89955E-06 1.53963E-03 3.97085E-05 2.58992E-05
 -1      3465 9.79388E-04 1.63541E-03-3.55238E-04 1.25766E-03 1.05669E-04 4.45888E-05
 -1      3466 6.74339E-03 5.07086E-04-2.64922E-05 2.64139E-04-1.84018E-07-2.33582E-06
 -1      3467 7.31899E-03 2.74494E-04 8.06098E-05 5.29120E-04-5.76049E-06-1.34340E-05
 -1      3468 7.31259E-03 2.52592E-04 7.40846E-05 5.41088E-04 6.92636E-06 1.68911E-05
 -1      3469 7.41659E-03 4.05150E-04 1.93218E-04 7.48570E-04-2.17146E-06-3.95778E-06
 -1      3470 7.65846E-03 1.03165E-03 4.26926E-04-1.23673E-03-5.50932E-06-4.16623E-05
 -1      3471 7.21863E-03 8.00478E-04 1.99746E-04-8.25604E-04 2.17335E-05-7.59069E-05
 -1      3472 4.45585E-03 7.13508E-04-1.69799E-05 1.21423E-03-1.56613E-04-1.73018E-04
 -1      3473 4.83481E-03 7.20423E-04 8.53209E-05 7.07919E-04-1.03697E-04-1.37843E-04
 -1      3474 4.77889E-03 1.06825E-03 8.87218E-05 1.47291E-03-1.31710E-04-1.06227E-04
 -1      3475 7.20968E-03 5.42719E-04 4.76792E-05-9.95542E-04 3.90968E-05-8.22182E-05
 -1      3476 5.35879E-03 8.27578E-04 3.85147E-04 6.00610E-04-5.22227E-05-1.87152E-04
 -1      3477 4.13316E-03 7.18934E-04 2.32986E-04 1.09408E-03-7.39466E-05-1.48817E-04
 -1      3478 4.68479E-03 7.09758E-04 5.73634E-04 5.85203E-04-1.66273E-05-1.88420E-04
 -1      3479 5.38235E-03 1.13628E-03 6.46999E-05-1.52527E-03-1.23893E-04 2.08544E-04
 -1      3480 5.01513E-03 7.44118E-04 4.20181E-04 5.82960E-04 9.15114E-06 1.19920E-04
 -1      3481 5.61690E-03 8.09267E-04 1.75875E-04 5.09730E-04 9.14376E-05 1.57566E-04
 -1      3482 4.54313E-04 1.39378E-04 6.02832E-05-3.36431E-04 1.48511E-05 5.81215E-06
 -1      3483 1.33922E-04 5.62534E-06 1.58844E-05 3.40992E-05-8.18533E-08 2.22258E-07
 -1      3484 3.59915E-04 5.94487E-05 4.56922E-05-2.17151E-04-1.70885E-05-1.37919E-05
 -1      3485 6.61195E-03 4.96911E-04-1.02848E-05 1.07261E-04 1.75838E-06-8.65578E-05
 -1      3486 6.64831E-03 1.15690E-03 2.38688E-04 7.39846E-04-1.44821E-05-5.27073E-06
 -1      3487 6.31274E-03 1.21042E-03 2.94522E-04 5.71092E-04 1.12285E-05 1.16582E-05
 -1      3488 6.70355E-03 1.49088E-03 4.30642E-04 1.11989E-03-3.35415E-06-1.39886E-05
 -1      3489 6.15244E-03 1.22121E-03 3.52862E-04 6.01186E-04 7.88349E-06-4.37822E-06
 -1      3490 5.76970E-03 1.18104E-03 1.37522E-03 3.95589E-04-3.52027E-06-2.93449E-04
 -1      3491 6.08435E-03 1.01027E-03 2.18087E-04-2.76335E-04-2.63543E-05 7.53138E-05
 -1      3492 6.31443E-03 1.05691E-03 1.01900E-04-4.35615E-04-1.28835E-05-1.70716E-05
 -1      3493 6.61766E-03 3.52867E-04-5.64282E-06 4.84128E-04-3.28901E-06 6.56716E-05
 -1      3494 6.87397E-03 1.16855E-04-1.54208E-05 8.53629E-05-9.42935E-07 2.32503E-05
 -1      3495 7.79730E-03 9.10190E-04 3.53800E-04-1.10308E-03 1.38720E-05-6.05139E-05
 -1      3496 6.70447E-03 1.78801E-04-7.76461E-06 3.85182E-04-2.35891E-06 5.37279E-05
 -1      3497 6.78381E-03 7.59319E-04 6.38495E-05-7.62463E-04 4.44897E-06-5.96290E-05
 -1      3498 6.50581E-03 6.35875E-04-1.84216E-05-4.14559E-04 1.17795E-05-7.53320E-05
 -1      3499 5.05153E-03 6.70569E-04 1.05922E-03 5.50107E-04 7.21749E-05-3.45773E-04
 -1      3500 4.78983E-03 7.25549E-04 3.48203E-04 6.19853E-04-5.99105E-05-2.17192E-04
 -1      3501 2.25869E-03 3.54545E-04 3.09521E-04 9.95720E-04-5.82906E-06 1.60539E-04
 -1      3502 1.94512E-03 7.66707E-04 1.78736E-04 9.79782E-04-1.15211E-05-4.15262E-05
 -1      3503 2.31228E-03 7.84880E-04 2.27231E-04 1.00177E-03 1.85991E-05 3.41397E-05
 -1      3504 3.22146E-03 2.59207E-04 5.40332E-04 9.12957E-04 2.84457E-07 1.25173E-05
 -1      3505 3.30082E-03 8.20958E-04 2.09407E-04 1.16411E-03-1.18102E-05-1.25901E-05
 -1      3506 6.68222E-03 3.96492E-04-2.33091E-05 3.74660E-04 6.65107E-06 9.56349E-05
 -1      3507 2.42272E-03 1.66316E-03-1.90989E-04 1.57647E-03 1.39227E-04 9.23448E-05
 -1      3508 7.14907E-03 6.01155E-04 8.83746E-05-7.46100E-04 1.82442E-05-8.17736E-05
 -1      3509 6.57687E-03 3.67967E-04-1.37005E-05 3.08745E-04-4.45401E-06 5.48092E-05
 -1      3510 4.37829E-03 6.80340E-04 9.47126E-04 8.15928E-04 4.37961E-05-1.34723E-04
 -1      3511 4.96646E-03 7.21998E-04 5.85663E-04 4.85668E-04 5.98065E-06-1.01803E-04
 -1      3512 7.17106E-03 9.28690E-04 3.07662E-04 1.07422E-03 8.23354E-06 1.29403E-05
 -1      3513 3.50326E-03 6.96329E-04 6.75850E-04 9.93590E-04 1.99627E-05 2.40433E-04
 -1      3514 6.95698E-03 1.63247E-03 1.14877E-03 3.30884E-05-7.81814E-05 9.11567E-04
 -1      3515 5.04795E-03 7.54977E-04 1.24465E-03 6.04226E-04 1.67645E-05-1.63010E-04
 -1      3516 5.60111E-03 8.04802E-04 8.16169E-04 2.42360E-04-9.31434E-06-1.24968E-04
 -1      3517 4.93245E-03 7.32172E-04 6.70935E-04 4.70108E-04-5.98495E-06 3.56271E-05
 -1      3518 7.99918E-03 1.08142E-03 5.91681E-04 1.30894E-03-1.84359E-05-3.90403E-05
 -1      3519 7.52507E-03 1.45924E-04 1.56464E-04-7.67171E-04 4.40382E-05 2.13120E-05
 -1      3520 4.95570E-04 8.47694E-04-2.40880E-04 5.69209E-04 5.71536E-05 2.66900E-06
 -1      3521 4.29917E-03 6.22464E-04 9.00281E-04 8.21443E-04-4.25116E-05 1.69952E-04
 -1      3522 2.38086E-03 3.62170E-04 3.58296E-04 1.00978E-03 6.95542E-05 7.28320E-05
 -1      3523 5.88933E-03 1.03957E-03 6.82029E-05 4.60898E-04 3.30819E-05 4.22915E-05
 -1      3524 6.72301E-03 6.78464E-04 7.47990E-05 2.43599E-05-2.21837E-06-4.65842E-05
 -1      3525 7.13096E-03-1.96125E-06 4.59520E-07 1.13157E-04 8.73586E-07-9.57783E-07
 -1      3526 6.02394E-03 9.28397E-04 6.92548E-04-1.38167E-04 8.54402E-06-9.04764E-07
 -1      3527 5.95205E-03 1.15862E-03 2.52652E-04-7.05209E-04 3.51967E-05-2.83397E-05
 -1      3528 7.87178E-03 4.04590E-04 2.52840E-04 1.03587E-03-4.03328E-06 3.35409E-05
 -1      3529 6.88084E-03 1.64897E-04-4.48859E-05 2.08435E-04 2.45165E-06 1.19902E-05
 -1      3530-2.00450E-08 2.91240E-07 2.59088E-08 4.99757E-08 5.87577E-09-8.83815E-09
 -1      3531-3.26203E-08 2.07543E-07 1.75380E-08 4.75889E-09 6.47818E-09-1.12835E-08
 -1      3532 6.83522E-03 2.65637E-04-5.84884E-05 3.11098E-04-5.49052E-06 4.05392E-06
 -1      3533 2.83352E-04 2.79334E-04 1.44580E-05 3.59060E-04-6.84932E-06 8.32140E-06
 -1      3534 3.88999E-04 8.47125E-06 7.27032E-05 2.97584E-04 3.35371E-06 9.55376E-07
 -1      3535 3.48965E-04 3.85049E-05 4.00441E-05 2.01606E-04 1.61133E-05-1.47706E-05
 -1      3536 2.92305E-04 2.78374E-07 2.65789E-05 1.63127E-04-1.84720E-05 4.04467E-06
 -1      3537 6.92288E-03 3.57853E-05-5.77281E-06 7.79118E-05-2.21454E-06 7.14169E-06
 -1      3538 3.45139E-04 7.00441E-04-2.31641E-05-4.67314E-04-1.91747E-05 1.16757E-06
 -1      3539 6.83592E-03 3.00370E-04-4.14948E-05 2.03910E-04-4.96335E-06 9.42426E-06
 -1      3540 5.65468E-03 8.62198E-04 5.78890E-04 2.41383E-04-1.14262E-05-2.55439E-05
 -1      3541-2.57266E-08 1.28227E-07 4.24238E-09-6.80285E-09 1.92975E-09 2.25841E-10
 -1      3542 8.17023E-03 5.68624E-04 5.09343E-04 1.07377E-03-9.45775E-06-3.43063E-06
 -3
    1PSTEP                         3           1           1          
  100CL  101 1.000000000        3542                     0    1           1
 -4  TOSTRAIN    6    1
 -5  EXX         1    4    1    1
 -5  EYY         1    4    2    2
 -5  EZZ         1    4    3    3
 -5  EXY         1    4    1    2
 -5  EYZ         1    4    2    3
 -5  EZX         1    4    3    1
 -1         1 5.44604E-09-6.49448E-08 2.32957E-08-3.01481E-10-1.42139E-10-2.88880E-09
 -1         2 2.88041E-08-8.42564E-10-4.55386E-09-3.83026E-10 1.90647E-10-9.70070E-09
 -1         3 5.66870E-08 3.99680E-08-3.16101E-08-6.21246E-08-2.99065E-10 3.63042E-09
 -1         4 6.26482E-08 2.09783E-08-2.41594E-08 6.05710E-08-2.78168E-09 6.85809E-10
 -1         5 3.89845E-08-1.04628E-08-1.20378E-08 7.39341E-09 3.78181E-10 1.20614E-09
 -1         6 3.92728E-08-1.11229E-08-1.17267E-08-6.77156E-09-3.59092E-10 6.86792E-10
 -1         7 5.37183E-09-6.51340E-08 2.36097E-08-1.26542E-10 8.11207E-11 2.95975E-09
 -1         8 2.96642E-08-1.19094E-09-5.56779E-09-5.35038E-11 1.33979E-10 9.61771E-09
 -1         9 5.51312E-08 3.95274E-08-3.11619E-08-6.29260E-08 1.54670E-09-3.66017E-09
 -1        10 5.66952E-08 3.26749E-08-2.75225E-08 6.98963E-08 1.06512E-09-3.09632E-09
 -1        11 3.90834E-08-1.05743E-08-1.19880E-08 6.69340E-09-5.83017E-10-8.18901E-10
 -1        12 3.89868E-08-1.06141E-08-1.18499E-08-7.19266E-09 4.97840E-10-6.97209E-10
 -1        13 7.65270E-11 8.71270E-09-4.01838E-09 8.61802E-09-1.25099E-09-2.56423E-10
 -1        14 4.50010E-10 8.46916E-09-3.96615E-09-8.51938E-09 1.26216E-09-5.26172E-10
 -1        15 1.78817E-10 8.74487E-09-4.06879E-09 8.23464E-09 1.31758E-09 4.66089E-10
 -1        16 1.20722E-09 7.91214E-09-4.12324E-09-8.60953E-09-1.10463E-09 4.59576E-10
 -1        17 1.51039E-08-8.73983E-08 2.49761E-08 4.32076E-09-6.01854E-13 2.54755E-11
 -1        18 7.44303E-09-5.10743E-08 1.76360E-08 1.07393E-08 5.84901E-09-4.29657E-10
 -1        19 4.73297E-08-1.76226E-08-1.23356E-08-1.48523E-08 3.21453E-09-7.43190E-09
 -1        20 1.17228E-07-2.92548E-08-3.55019E-08-1.18963E-09-4.13592E-09-3.05811E-09
 -1        21 9.97867E-08-2.10794E-08-2.94911E-08 3.10921E-08 2.49022E-10 8.62622E-09
 -1        22 3.85430E-08-7.11272E-08 1.02483E-08-1.83077E-08 1.10509E-08 2.59014E-09
 -1        23 1.00483E-08-8.43833E-08 3.06296E-08 6.22113E-10 5.84124E-10-3.12925E-09
 -1        24 4.30188E-08-7.34793E-08 5.84719E-09 1.92080E-08-1.25194E-08 2.54142E-09
 -1        25 9.98443E-08-2.50333E-08-2.84186E-08-2.91794E-08-1.61131E-09 9.52310E-09
 -1        26 1.16799E-07-2.95610E-08-3.53562E-08 2.41933E-09 3.54791E-09-3.13301E-09
 -1        27 4.71377E-08-1.77368E-08-1.20786E-08 1.48881E-08-3.41327E-09-7.34822E-09
 -1        28 5.82130E-09-4.94612E-08 1.75823E-08-1.09702E-08-5.85397E-09-7.61166E-10
 -1        29 7.33610E-09-5.11830E-08 1.75790E-08 1.07574E-08-5.67706E-09 3.70764E-10
 -1        30 4.73694E-08-1.73506E-08-1.23608E-08-1.51871E-08-3.19658E-09 7.33194E-09
 -1        31 1.16545E-07-2.86457E-08-3.53615E-08-1.41593E-09 4.09977E-09 3.42881E-09
 -1        32 9.89078E-08-2.05443E-08-3.07935E-08 3.41954E-08-1.23123E-09-1.06840E-08
 -1        33 3.85473E-08-7.36843E-08 1.09964E-08-2.15693E-08-9.87649E-09-1.33681E-09
 -1        34 8.19307E-09-8.15334E-08 2.95895E-08 1.95630E-09-7.08385E-10 3.41673E-09
 -1        35 4.30039E-08-7.39878E-08 6.12328E-09 1.98133E-08 1.23971E-08-2.05680E-09
 -1        36 9.93590E-08-2.48261E-08-2.81140E-08-2.92461E-08 1.39693E-09-9.16671E-09
 -1        37 1.16782E-07-2.93941E-08-3.52483E-08 2.30577E-09-3.51503E-09 3.28896E-09
 -1        38 4.64311E-08-1.75731E-08-1.18241E-08 1.48316E-08 3.38378E-09 7.27147E-09
 -1        39 5.78594E-09-4.96313E-08 1.74978E-08-1.12391E-08 5.55820E-09 6.87988E-10
 -1        40 2.25631E-08-9.25849E-10-6.10123E-10-1.64016E-10-2.06668E-11 3.90998E-10
 -1        41 2.76172E-08-3.79821E-09-3.25282E-09-4.53977E-09 2.34588E-09 9.38731E-09
 -1        42 1.88542E-08-7.51433E-09-3.29019E-10-6.44332E-09 1.79442E-09 5.73074E-09
 -1        43 7.77241E-09-5.31754E-09-1.62290E-10-2.47741E-09 7.85100E-10 1.36566E-09
 -1        44 2.36419E-09-1.97724E-09-6.02844E-11-6.19366E-12 2.78443E-10 1.64709E-10
 -1        45 8.29447E-10-6.28362E-10-3.06766E-11 3.13550E-10 1.02973E-10 4.84573E-11
 -1        46 1.68078E-10-9.95514E-11-1.35284E-11 2.21570E-10 3.64985E-11 1.02772E-11
 -1        47 1.64276E-11 9.81296E-12-5.06574E-12 9.94318E-11 1.52184E-11 4.90503E-13
 -1        48-8.77960E-12 1.90505E-11-2.21526E-12 3.24957E-11 4.87583E-12-3.48993E-13
 -1        49-8.65034E-12 1.17266E-11-4.13697E-13 7.00945E-12 1.76878E-12-7.81260E-13
 -1        50-3.66269E-12 4.77766E-12-2.18239E-13 1.40874E-14 4.33613E-13-4.34658E-13
 -1        51-1.05849E-12 1.48444E-12-7.33951E-14-6.21697E-13 1.21717E-13-1.60501E-13
 -1        52-1.20701E-13 2.81197E-13-3.36114E-14-3.65351E-13 2.87175E-14-8.12350E-14
 -1        53 5.21709E-14 4.94794E-14-2.29078E-14 1.21242E-14 5.59478E-15-5.34333E-14
 -1        54-2.45977E-13 4.19459E-13-1.63700E-14 4.69276E-13-4.17927E-14-9.49725E-14
 -1        55-1.37205E-12 1.85674E-12-9.13836E-14 7.48326E-13-1.52977E-13-2.32300E-13
 -1        56-3.95985E-12 5.22742E-12-2.71609E-13-3.43269E-13-4.84404E-13-4.50458E-13
 -1        57-8.73956E-12 1.24759E-11-5.96359E-13-8.79459E-12-1.75377E-12-6.67133E-13
 -1        58-1.20107E-11 2.21582E-11-1.86601E-12-3.58368E-11-5.98679E-12-1.17592E-12
 -1        59 2.18831E-11 6.35571E-12-5.54625E-12-1.03345E-10-1.54932E-11 7.44778E-13
 -1        60 2.58453E-10-1.69832E-10-1.44626E-11-2.41727E-10-3.98561E-11 1.95725E-11
 -1        61 9.69564E-10-7.44969E-10-4.53636E-11-3.60471E-10-1.13155E-10 8.62212E-11
 -1        62 2.67791E-09-2.18664E-09-1.23144E-10 2.93082E-10-2.61218E-10 2.49004E-10
 -1        63 9.17610E-09-5.81960E-09-2.95593E-10 3.20837E-09-9.68068E-10 1.75419E-09
 -1        64 2.09342E-08-7.05852E-09-3.08575E-09 6.60997E-09-1.52303E-09 4.51215E-09
 -1        65 2.87477E-08-3.36249E-09-4.95210E-09 3.81389E-09-1.95540E-09 8.70010E-09
 -1        66 2.91172E-08-4.44544E-09-5.72620E-09-3.61995E-09-1.66105E-09-7.35157E-09
 -1        67 1.92220E-08-7.09262E-09-2.50014E-09-5.66456E-09-1.23087E-09-4.26827E-09
 -1        68 9.38108E-09-6.20611E-09 5.40165E-11-3.10806E-09-1.03787E-09-2.08449E-09
 -1        69 3.01896E-09-2.47686E-09-1.25148E-10-5.90571E-10-2.89376E-10-3.06848E-10
 -1        70 1.07968E-09-8.40078E-10-5.65537E-11 3.55666E-10-1.07233E-10-9.77605E-11
 -1        71 2.72116E-10-1.75389E-10-1.38598E-11 2.54618E-10-4.66188E-11-1.50306E-11
 -1        72 4.11996E-11-6.11282E-12-6.72577E-12 1.20193E-10-1.92014E-11-4.33018E-12
 -1        73-6.93560E-12 2.05774E-11-2.65123E-12 4.66877E-11-7.79927E-12-1.20993E-13
 -1        74-1.09172E-11 1.59333E-11-1.03415E-12 1.35643E-11-2.80184E-12 5.66209E-13
 -1        75-5.02800E-12 6.87160E-12-2.37940E-13 1.65861E-12-7.69290E-13 5.51967E-13
 -1        76-1.81512E-12 2.38505E-12-1.25990E-13-6.66032E-13-2.75616E-13 2.34189E-13
 -1        77-5.30798E-13 7.93743E-13-4.78453E-14-5.36992E-13-4.21607E-14 1.15068E-13
 -1        78-1.65135E-14 1.20667E-13-1.23722E-14-2.13878E-13-4.88118E-15 7.11585E-14
 -1        79 2.26128E-14 9.31594E-14-3.62523E-15 2.36220E-13 1.42774E-14 7.09182E-14
 -1        80-4.98175E-13 7.57828E-13-5.10551E-14 5.78346E-13 8.46509E-14 1.20818E-13
 -1        81-2.09140E-12 2.83564E-12-9.61336E-14 4.37798E-13 2.47035E-13 2.91911E-13
 -1        82-6.34464E-12 8.16692E-12-8.68239E-14-1.53407E-12 9.75918E-13 6.76851E-13
 -1        83-1.08700E-11 1.56337E-11-9.25688E-13-1.30705E-11 2.79873E-12 7.30502E-13
 -1        84-7.70182E-12 2.07465E-11-2.63635E-12-4.50714E-11 7.39803E-12 2.05708E-13
 -1        85 5.43067E-11-1.53810E-11-5.72833E-12-1.30839E-10 1.95633E-11-1.91839E-12
 -1        86 3.33199E-10-2.34073E-10-1.93128E-11-2.94024E-10 5.49916E-11-3.01349E-11
 -1        87 1.09945E-09-8.46505E-10-5.55588E-11-3.19137E-10 1.14997E-10-1.05513E-10
 -1        88 3.05488E-09-2.37869E-09-1.68965E-10 7.99319E-10 2.56269E-10-3.01357E-10
 -1        89 1.02830E-08-6.27459E-09-2.89004E-10 3.48631E-09 1.07641E-09-2.12335E-09
 -1        90 2.21337E-08-7.07468E-09-2.58027E-09 6.18230E-09 1.88653E-09-5.45434E-09
 -1        91 2.88749E-08-2.84173E-09-9.02997E-11 4.38143E-09 1.86970E-09-1.28874E-08
 -1        92 7.61216E-08 1.68789E-08-2.35669E-08-6.80278E-08 8.70867E-11-8.26483E-10
 -1        93 2.73834E-08-1.23493E-08-1.07506E-08-1.41453E-08 5.55551E-09-6.18596E-09
 -1        94-2.78929E-08-5.64289E-09 1.31883E-08 3.22951E-08 2.09631E-09-2.57968E-09
 -1        95-8.09386E-08 3.04290E-08 1.76638E-08 1.88629E-08 8.76800E-10-8.48658E-10
 -1        96-5.40876E-08 1.50945E-08 1.44914E-08-2.86557E-08 1.05068E-09 2.86318E-09
 -1        97-1.63440E-09-1.07875E-08 4.97895E-09-1.56870E-08 2.04650E-09 3.06109E-09
 -1        98 1.89469E-08-1.21898E-09-6.91032E-09 2.07217E-08 2.08332E-09 2.74955E-09
 -1        99-1.07096E-08 5.70575E-08-1.94749E-08 3.37425E-08 7.36005E-10 1.14287E-09
 -1       100-2.33553E-08 7.74178E-08-2.23075E-08 5.21800E-10 1.39763E-10 6.63315E-10
 -1       101-1.18005E-08 5.82159E-08-1.94293E-08-3.30916E-08-6.91282E-10 1.37949E-09
 -1       102 1.92008E-08-5.92513E-10-7.52923E-09-2.03690E-08-2.13714E-09 2.65848E-09
 -1       103-7.62564E-10-1.10341E-08 4.81050E-09 1.46105E-08-1.90262E-09 3.03768E-09
 -1       104-5.48576E-08 1.56781E-08 1.45539E-08 2.85226E-08-9.96058E-10 2.83910E-09
 -1       105-8.13944E-08 3.13563E-08 1.76837E-08-2.08549E-08-5.71733E-10-8.07965E-10
 -1       106-1.81500E-08-1.07687E-08 1.15035E-08-3.18715E-08-2.25573E-09-9.06058E-10
 -1       107 4.02526E-08-2.14206E-08-1.10452E-08 1.80086E-08-1.26144E-09-2.11258E-09
 -1       108 2.64802E-08-1.18450E-08-1.05254E-08-1.42001E-08-5.12171E-09 5.90140E-09
 -1       109-2.81940E-08-5.33216E-09 1.29778E-08 3.21536E-08-2.25019E-09 2.38025E-09
 -1       110-8.10428E-08 3.00427E-08 1.78807E-08 1.86844E-08-9.23582E-10 6.75855E-10
 -1       111-5.40591E-08 1.48361E-08 1.46315E-08-2.83956E-08-1.19450E-09-2.90392E-09
 -1       112-1.85204E-09-1.05239E-08 4.96135E-09-1.56615E-08-2.07647E-09-3.09164E-09
 -1       113 1.85920E-08-9.13290E-10-6.82764E-09 2.07598E-08-2.06992E-09-2.68737E-09
 -1       114-1.07712E-08 5.69846E-08-1.92695E-08 3.35175E-08-6.69453E-10-1.29469E-09
 -1       115-2.33817E-08 7.74230E-08-2.21254E-08 4.60502E-10-5.40172E-11-8.36951E-10
 -1       116-1.18190E-08 5.82194E-08-1.92994E-08-3.29897E-08 7.33142E-10-1.49987E-09
 -1       117 1.90214E-08-3.22497E-10-7.53467E-09-2.05307E-08 2.12725E-09-2.65252E-09
 -1       118-6.96001E-10-1.09300E-08 4.63282E-09 1.44307E-08 1.96796E-09-2.98374E-09
 -1       119-5.44462E-08 1.53711E-08 1.45343E-08 2.81753E-08 1.11051E-09-2.93242E-09
 -1       120-7.87645E-08 2.98778E-08 1.64453E-08-2.23383E-08 3.32279E-10 5.29114E-10
 -1       121-2.56895E-08-7.22487E-09 1.23872E-08-3.69896E-08 3.87836E-09 2.24976E-09
 -1       122 4.16748E-08-2.16882E-08-1.07655E-08 2.04070E-08 7.75524E-10 2.52594E-09
 -1       123 3.18296E-08-9.99826E-09-9.65247E-09 9.68167E-10 8.35130E-11-4.94342E-10
 -1       124 3.12918E-08-9.40044E-09-9.37479E-09 1.29249E-09 1.00791E-11-9.38732E-11
 -1       125 3.19062E-08-9.65909E-09-9.54408E-09 1.20152E-09 1.04888E-11 1.63919E-11
 -1       126 3.25867E-08-9.75597E-09-9.78017E-09 1.24457E-09-2.00484E-12 4.28067E-11
 -1       127 3.34276E-08-1.00100E-08-1.00323E-08 1.30505E-09 1.77282E-12 2.97227E-11
 -1       128 3.43826E-08-1.02711E-08-1.03181E-08 1.37697E-09-2.14125E-11 1.36202E-11
 -1       129 3.54925E-08-1.06178E-08-1.06279E-08 1.61528E-09-2.11681E-11-8.82173E-11
 -1       130 3.59836E-08-1.09280E-08-1.08933E-08 2.09017E-09 9.18162E-11-3.44629E-10
 -1       131 4.97508E-08-1.62604E-08-1.72451E-08-7.84919E-09-5.98325E-10 4.47149E-09
 -1       132 4.13323E-08-1.02646E-08-1.17624E-08 9.48199E-09-2.02306E-10-4.32223E-10
 -1       133 4.49970E-08-1.37417E-08-1.09587E-08 8.61834E-09-1.78453E-10-1.96198E-11
 -1       134 4.35372E-08-1.23260E-08-1.02642E-08 9.09302E-09-9.17840E-11 2.10644E-10
 -1       135 4.37506E-08-1.28130E-08-1.01334E-08 8.89986E-09 6.80885E-11 7.69763E-11
 -1       136 4.43196E-08-1.37039E-08-1.00298E-08 7.96700E-09-3.89558E-11-6.13735E-11
 -1       137 4.45559E-08-1.30571E-08-1.01652E-08 9.03556E-09-3.72672E-11 7.37900E-11
 -1       138 4.34742E-08-1.27201E-08-1.02436E-08 8.43725E-09-4.55587E-11-2.88864E-10
 -1       139 4.39199E-08-1.25423E-08-1.08200E-08 9.04456E-09 9.19616E-11 6.95844E-11
 -1       140 4.39764E-08-1.20520E-08-1.20154E-08 9.19160E-09 5.87078E-11 2.03517E-10
 -1       141 3.23893E-08-9.84359E-09-9.71423E-09 2.17240E-09 1.15972E-10 3.31589E-10
 -1       142 3.14307E-08-9.50672E-09-9.38706E-09 1.43412E-09-2.17401E-11 1.54611E-10
 -1       143 3.17519E-08-9.57488E-09-9.50464E-09 1.21354E-09 4.54045E-13 2.89474E-11
 -1       144 3.25778E-08-9.75728E-09-9.77308E-09 1.25596E-09 5.07356E-12-4.20687E-11
 -1       145 3.34146E-08-9.99598E-09-1.00342E-08 1.30598E-09-8.78147E-13-3.34463E-11
 -1       146 3.43496E-08-1.02801E-08-1.02947E-08 1.39966E-09 4.68285E-12 5.92038E-13
 -1       147 3.55072E-08-1.07652E-08-1.05260E-08 1.66395E-09 5.31490E-11 8.13594E-11
 -1       148 3.69399E-08-1.26695E-08-1.06493E-08 2.75970E-09-2.48240E-10 1.49739E-10
 -1       149 4.40833E-08-1.34768E-08-1.99318E-08 1.59414E-09-9.03579E-10-6.56870E-09
 -1       150 3.23227E-08-1.00225E-08-9.72976E-09-2.09046E-09-1.23316E-10-4.86208E-10
 -1       151 3.14135E-08-9.49489E-09-9.40024E-09-1.39824E-09-6.08247E-11-4.93487E-11
 -1       152 3.18329E-08-9.55351E-09-9.56223E-09-1.29841E-09 1.22140E-11-2.25675E-11
 -1       153 3.27915E-08-9.82231E-09-9.83798E-09-1.26226E-09 5.49394E-12 4.71646E-11
 -1       154 3.38454E-08-1.01295E-08-1.01644E-08-1.35759E-09-2.27042E-12 1.79501E-11
 -1       155 3.49575E-08-1.04779E-08-1.04950E-08-1.45952E-09 3.98870E-11 1.78496E-11
 -1       156 3.53678E-08-1.16087E-08-1.01289E-08-2.78833E-09-1.38052E-10-4.94133E-10
 -1       157 4.63603E-08-1.69448E-08-1.70431E-08 4.93694E-10-7.43959E-10 4.11264E-09
 -1       158 4.25371E-08-1.15070E-08-1.18694E-08-8.73010E-09 3.28133E-10-8.35978E-10
 -1       159 4.40309E-08-1.25787E-08-1.08252E-08-9.34614E-09-1.15424E-10-2.40145E-10
 -1       160 4.31935E-08-1.24541E-08-1.05841E-08-7.28717E-09-2.44367E-10-6.71221E-11
 -1       161 4.15435E-08-1.10767E-08-1.00106E-08-8.92695E-09 6.01402E-11 3.10824E-10
 -1       162 4.27438E-08-1.13582E-08-1.01105E-08-9.91822E-09 6.45040E-11-2.50712E-10
 -1       163 4.22440E-08-1.20423E-08-1.01926E-08-7.30353E-09 1.22015E-10 7.75735E-11
 -1       164 4.36365E-08-1.25368E-08-1.01613E-08-9.77249E-09-1.31298E-10-1.35135E-10
 -1       165 4.55091E-08-1.35579E-08-1.10776E-08-9.45466E-09 9.23310E-11 5.54621E-11
 -1       166 4.21996E-08-1.13887E-08-1.16793E-08-8.52697E-09-1.16147E-10 1.03673E-09
 -1       167 3.18497E-08-9.96942E-09-9.66346E-09-1.61038E-09 6.93283E-12 4.62051E-10
 -1       168 3.15309E-08-9.55694E-09-9.44978E-09-1.44953E-09 2.52024E-11 1.30715E-10
 -1       169 3.22650E-08-9.68959E-09-9.67350E-09-1.20918E-09-1.68092E-11-3.29698E-11
 -1       170 3.33888E-08-9.99519E-09-1.00193E-08-1.30504E-09 2.03138E-13-4.36846E-11
 -1       171 3.45207E-08-1.03203E-08-1.03669E-08-1.50804E-09-6.76155E-12-3.34904E-12
 -1       172 3.60191E-08-1.12804E-08-1.05521E-08-2.02758E-09 9.10528E-11 1.81197E-10
 -1       173 3.82141E-08-1.02792E-08-1.29300E-08 1.65692E-09 1.76350E-10-1.54170E-09
 -1       174-1.30210E-09 3.96785E-09-1.23690E-09-1.81363E-09-1.58180E-10 1.91692E-10
 -1       175-7.24546E-10 3.36184E-09-1.19723E-09-2.03163E-09-1.02577E-10 1.61991E-10
 -1       176-6.34931E-11 2.21110E-09-9.33740E-10-2.10051E-09-1.60730E-11 1.08030E-10
 -1       177 6.72591E-10 5.56449E-10-5.31294E-10-1.29796E-09 1.66415E-11 2.75460E-11
 -1       178 5.60274E-10-3.27469E-11-2.33693E-10-4.34514E-10 1.84951E-11-9.35674E-12
 -1       179 2.66701E-10-2.81548E-11-1.17731E-10-1.47408E-10 7.88519E-12-1.67501E-11
 -1       180 1.55481E-10-4.91841E-11-4.90419E-11-3.57502E-11 5.26831E-12-8.22861E-13
 -1       181 7.18261E-11-2.44667E-11-2.15890E-11 6.52187E-12 2.07624E-12-1.43504E-12
 -1       182 2.87334E-11-7.28645E-12-9.68851E-12 1.21083E-11 4.90954E-13-8.59932E-13
 -1       183 8.69574E-12 2.01969E-13-3.99745E-12 7.98877E-12 1.31484E-13-3.82655E-13
 -1       184 2.99473E-12 1.02474E-12-1.95237E-12 3.36868E-12-1.53903E-13-2.08836E-13
 -1       185 6.97978E-13 1.30550E-12-9.34080E-13 2.06450E-12 3.85885E-14-1.02384E-13
 -1       186-5.03033E-14 9.15107E-13-3.95734E-13 7.27377E-13 2.37640E-14-4.62025E-14
 -1       187-1.53435E-13 5.70151E-13-1.91536E-13 2.37798E-13-7.70899E-15-1.79149E-14
 -1       188-9.54187E-14 3.58724E-13-1.18642E-13 4.31756E-14 5.12297E-15 3.48279E-15
 -1       189-1.39087E-13 4.05707E-13-1.22531E-13-2.75415E-14 8.99812E-15 3.20395E-15
 -1       190-1.66135E-13 5.75377E-13-1.87510E-13-1.94524E-13 1.64410E-15-1.84315E-14
 -1       191-7.40447E-14 9.59929E-13-4.07034E-13-7.91747E-13-5.13416E-15-4.48377E-14
 -1       192 6.35509E-13 1.17489E-12-8.04645E-13-1.52028E-12 5.18062E-14-2.98599E-15
 -1       193 2.67749E-12 1.45112E-12-1.85418E-12-4.20599E-12 1.42149E-13-4.90783E-14
 -1       194 9.05122E-12 1.67336E-13-4.11520E-12-8.19775E-12-8.75681E-14-3.31896E-13
 -1       195 2.82822E-11-7.39987E-12-9.38392E-12-1.22684E-11-5.61836E-13-8.85487E-13
 -1       196 7.08872E-11-2.51348E-11-2.09694E-11-5.98736E-12-1.93141E-12-1.09122E-12
 -1       197 1.28938E-10-3.26024E-11-4.72257E-11 2.62276E-11-1.49875E-12-6.70621E-12
 -1       198 2.85145E-10-7.80383E-11-9.17575E-11 1.01344E-10-6.15080E-12-5.55883E-12
 -1       199 5.11399E-10-3.15280E-11-2.14825E-10 4.07226E-10-2.28110E-11-8.07180E-12
 -1       200 6.42422E-10 4.43486E-10-4.80190E-10 1.16305E-09-3.23964E-11 3.65980E-11
 -1       201 3.39893E-10 1.65384E-09-8.55455E-10 1.84547E-09 9.55500E-11 7.16382E-11
 -1       202-3.12057E-10 2.76231E-09-9.91004E-10 1.86650E-09 1.74750E-10 8.37989E-11
 -1       203-1.35888E-09 4.25345E-09-1.18275E-09 2.12950E-09-1.81390E-11-1.73008E-10
 -1       204 2.45124E-08 2.30908E-09-1.11437E-08-2.05023E-08 1.26934E-09-1.80938E-09
 -1       205 2.58461E-08 8.13875E-10-1.09509E-08 1.92495E-08-8.04712E-10-1.55372E-09
 -1       206 2.43755E-08 1.52297E-09-1.06030E-08 1.87955E-08 9.43824E-10 1.43349E-09
 -1       207 7.45533E-10 8.57869E-09-4.92514E-09 7.81514E-09 3.42347E-09 1.56435E-09
 -1       208 1.33253E-09 9.01386E-09-5.80197E-09 1.06681E-08 1.82985E-09 1.21175E-09
 -1       209 6.86629E-10 8.84316E-09-6.07917E-09 8.15146E-09 1.54684E-09 7.86011E-10
 -1       210-6.28074E-10 1.05861E-08-6.31069E-09 8.28216E-09 8.91049E-10 4.37319E-10
 -1       211-1.64017E-10 9.66253E-09-6.09652E-09 7.75723E-09 1.09984E-10-5.76226E-11
 -1       212 3.68890E-10 1.01381E-08-6.35305E-09 9.76910E-09-7.01645E-10-4.38445E-10
 -1       213 1.69299E-09 8.22153E-09-6.04823E-09 8.65561E-09-1.38722E-09-6.13565E-10
 -1       214 7.42204E-10 9.73111E-09-5.87125E-09 1.03963E-08-2.45920E-09-1.03431E-09
 -1       215 6.46330E-10 8.91549E-09-5.17376E-09 8.81024E-09-3.02545E-09-1.31373E-09
 -1       216 2.43767E-08 8.99622E-10-1.04221E-08-1.80644E-08-1.10564E-09 1.42588E-09
 -1       217 1.40141E-09 8.12103E-09-5.12917E-09-9.02859E-09-2.70010E-09 1.37159E-09
 -1       218 1.99457E-09 8.88249E-09-6.13273E-09-1.02100E-08-2.32858E-09 1.08143E-09
 -1       219 1.21773E-09 8.63178E-09-6.13664E-09-8.38108E-09-1.54555E-09 8.60869E-10
 -1       220 1.42499E-10 9.37701E-09-5.91521E-09-8.17546E-09-8.03623E-10 4.29037E-10
 -1       221 1.76539E-09 8.18881E-09-6.10807E-09-8.62127E-09-5.71699E-10 2.23713E-11
 -1       222 1.30533E-09 8.59817E-09-6.06093E-09-9.28314E-09 1.10549E-09-3.74956E-10
 -1       223 1.87330E-09 8.06516E-09-5.82559E-09-8.99589E-09 1.15610E-09-4.86173E-10
 -1       224 5.65022E-10 9.38730E-09-6.03135E-09-7.33755E-09 2.48354E-09-9.58506E-10
 -1       225 3.61524E-10 8.66094E-09-4.91677E-09-7.85918E-09 3.37900E-09-1.36844E-09
 -1       226-1.10739E-09 3.77651E-09-1.20479E-09-1.92202E-09-3.26295E-13-3.25721E-11
 -1       227-5.94229E-10 3.22203E-09-1.18858E-09-2.09371E-09 1.83144E-10-2.20837E-10
 -1       228 2.44806E-10 1.94591E-09-9.89950E-10-2.17335E-09-3.97328E-11-1.13284E-10
 -1       229 5.55034E-10 6.39981E-10-5.53255E-10-1.15225E-09-6.53023E-11 4.04503E-11
 -1       230 4.78823E-10 3.43192E-11-2.21851E-10-4.02671E-10-6.11445E-13 1.03630E-11
 -1       231 3.21932E-10-6.44907E-11-1.18848E-10-1.91646E-10-1.20493E-11 7.72020E-13
 -1       232 1.59052E-10-4.98031E-11-5.01082E-11-2.90672E-11-3.90471E-12 2.86268E-12
 -1       233 7.20531E-11-2.43051E-11-2.16700E-11 8.97448E-12-1.47825E-12 1.91417E-12
 -1       234 2.46937E-11-5.14256E-12-8.49768E-12 9.16525E-12-5.08657E-14 4.71797E-13
 -1       235 1.04179E-11-1.72100E-12-4.08995E-12 6.73702E-12-7.72134E-13-5.51580E-15
 -1       236 3.44930E-12 8.74101E-13-1.99437E-12 4.47009E-12-1.05929E-13 1.59772E-13
 -1       237 5.24159E-13 1.49866E-12-9.19800E-13 2.01248E-12 1.86439E-14 9.46276E-14
 -1       238-1.52790E-14 8.35679E-13-3.57846E-13 5.99533E-13 1.59507E-14 2.57356E-14
 -1       239-1.36400E-13 6.11188E-13-2.21054E-13 3.13278E-13 9.32564E-16 1.96074E-14
 -1       240-1.39190E-13 4.07327E-13-1.22466E-13 5.50375E-14-4.57117E-17 1.11808E-14
 -1       241-1.18509E-13 3.77112E-13-1.19956E-13-8.37814E-14 2.75936E-15 1.26497E-14
 -1       242-1.16988E-13 5.23072E-13-1.91927E-13-1.71801E-13 5.22644E-15-2.18195E-15
 -1       243-1.16562E-13 9.90401E-13-3.96538E-13-7.06810E-13-1.90388E-14 3.82579E-14
 -1       244 5.90214E-13 1.35245E-12-8.83611E-13-1.91568E-12-1.32636E-14 9.23114E-14
 -1       245 3.44823E-12 8.54025E-13-2.00105E-12-4.24080E-12 8.72059E-14 2.03288E-13
 -1       246 8.13834E-12 1.04721E-13-3.66170E-12-6.37682E-12 7.34424E-14 2.86663E-13
 -1       247 2.67723E-11-6.48324E-12-9.13976E-12-1.24290E-11 3.37666E-13 9.52843E-13
 -1       248 6.91876E-11-2.31223E-11-2.09530E-11-8.78856E-12 1.46424E-12 1.61446E-12
 -1       249 1.49803E-10-4.99646E-11-4.64759E-11 3.24668E-11 4.98561E-12 1.77596E-12
 -1       250 2.32273E-10-4.67873E-11-8.23718E-11 9.26738E-11 6.26312E-12 3.23909E-12
 -1       251 5.05448E-10-4.03404E-11-2.09272E-10 3.87761E-10 2.11978E-11 1.03523E-11
 -1       252 6.91591E-10 4.00662E-10-4.77922E-10 1.13111E-09 2.53048E-11-3.05409E-11
 -1       253 4.16791E-10 1.59651E-09-9.28783E-10 1.96295E-09-5.96008E-11-1.36079E-10
 -1       254-5.79101E-10 3.16509E-09-1.13448E-09 1.96670E-09-1.02163E-10-1.81532E-10
 -1       255-1.02056E-09 3.92615E-09-1.28592E-09 2.10865E-09-7.96209E-11-3.60855E-11
 -1       256 2.72061E-09-1.57788E-08 3.88758E-09 3.50898E-09 1.76555E-10-1.08744E-10
 -1       257 8.54233E-08-1.76760E-08-2.49343E-08-2.64937E-08 6.21143E-11-2.27748E-10
 -1       258 1.26532E-07-2.88122E-08-3.39933E-08 2.74414E-08 9.35490E-11-6.71461E-10
 -1       259 6.20712E-08-3.54352E-08-1.13488E-08 1.50073E-08 2.98039E-10-5.41399E-10
 -1       260 2.39050E-08-8.41574E-08 1.21963E-08-2.08995E-08 7.25331E-10 1.10525E-09
 -1       261 2.04805E-08-8.59407E-08 1.59537E-08 2.11716E-08-8.75554E-10 3.93233E-10
 -1       262 5.11851E-08-2.94614E-08-1.04678E-08-1.22241E-08-4.16981E-10 3.64913E-10
 -1       263 1.25978E-07-2.66988E-08-3.46493E-08-2.73581E-08-4.21172E-11 2.53598E-10
 -1       264 8.41316E-08-1.75628E-08-2.45541E-08 2.69805E-08 1.31657E-11-1.42669E-10
 -1       265 3.21145E-09-2.20623E-08 5.81943E-09-7.50473E-09-2.06794E-10-1.12269E-10
 -1       266 2.13021E-08-2.81873E-09-2.85044E-10-3.67816E-09-2.36758E-10-1.46195E-09
 -1       267 2.14752E-08-2.64188E-09-1.82293E-10 3.35481E-09 1.85641E-10-1.57580E-09
 -1       268 7.78015E-09-4.65997E-09-7.45461E-11-4.66561E-09 3.92243E-10 6.32408E-10
 -1       269 3.23858E-09-2.60107E-09-4.49488E-11-1.41724E-09 5.42664E-11 1.46053E-10
 -1       270 1.60476E-09-1.46119E-09-2.34105E-11 8.30242E-11-1.97654E-11 4.36239E-11
 -1       271 4.57977E-10-3.91333E-10-1.67540E-12 2.61812E-10-2.11126E-12 6.46825E-12
 -1       272 8.08518E-11-5.80838E-11-2.33437E-12 1.50833E-10 3.33629E-13-9.12296E-13
 -1       273-8.43104E-13 8.83543E-12-5.45314E-13 6.34538E-11 3.41825E-13-3.34327E-13
 -1       274-1.30831E-11 1.52868E-11 4.28844E-14 1.95992E-11 2.36508E-13 2.64651E-14
 -1       275-6.64476E-12 7.70491E-12 5.54152E-15 3.87246E-12 5.54593E-14 7.47201E-14
 -1       276-2.46890E-12 2.80375E-12-2.14257E-14-3.19846E-13-1.59022E-14-1.26751E-14
 -1       277-4.90814E-13 5.99077E-13-4.61369E-15-5.30497E-13 1.31310E-14-6.13411E-15
 -1       278-2.00720E-14 6.62380E-14-1.38948E-15-9.82880E-14-1.95719E-15 7.12621E-16
 -1       279-1.40847E-13 2.07933E-13-4.09147E-15 2.52978E-13-3.03943E-15-4.35779E-15
 -1       280-8.76743E-13 1.01731E-12-9.77756E-15 5.81143E-13 7.06777E-15-6.91745E-15
 -1       281-2.91675E-12 3.27565E-12 1.71845E-14-1.60956E-15-3.54483E-14 9.14473E-15
 -1       282-6.87504E-12 7.99270E-12-5.98540E-14-4.37572E-12-1.13470E-13 5.84410E-14
 -1       283-1.20226E-11 1.47354E-11-7.34685E-14-2.10365E-11-1.84277E-13-1.62142E-13
 -1       284 7.43363E-13 7.77028E-12-7.61879E-13-6.47821E-11-2.83530E-13-3.34070E-13
 -1       285 1.10407E-10-8.55129E-11-5.76657E-13-1.65734E-10-5.18724E-13 2.72047E-12
 -1       286 5.12846E-10-4.55280E-10-8.12504E-13-3.00169E-10-3.43660E-12 5.27156E-13
 -1       287 1.55089E-09-1.38361E-09-1.37267E-11-4.33728E-11-4.60741E-12 4.48452E-12
 -1       288 4.24678E-09-3.59106E-09 3.82236E-11 2.46130E-09 4.47626E-12 5.86213E-12
 -1       289 1.32560E-08-5.57236E-09-2.07302E-10-6.02232E-09-5.52020E-10-1.64865E-09
 -1       290 1.66852E-08-5.75275E-09-3.86400E-10-5.52548E-09 5.92535E-10 2.02182E-09
 -1       291 1.02727E-08-5.80256E-09-2.74668E-10 5.14436E-09-6.74316E-10 1.29530E-09
 -1       292 1.83113E-08-5.60418E-09-1.41601E-10 5.87838E-09-6.17255E-10 2.31379E-09
 -1       293 1.84788E-08-5.54305E-09-2.56757E-10 5.89159E-09 7.74844E-10-2.35939E-09
 -1       294 4.10393E-09-3.24848E-09 4.48142E-11-2.70754E-09-1.85072E-10-7.98342E-11
 -1       295 1.07769E-08-6.22482E-09 7.28405E-12 5.34745E-09 6.54579E-10-1.52144E-09
 -1       296 1.13332E-08-6.11167E-09-6.04256E-11 5.44488E-09 4.50848E-11-8.21820E-13
 -1       297 6.47141E-09 2.14496E-09-7.53222E-09 5.84244E-09-3.33119E-10-2.54530E-10
 -1       298-4.68933E-09-8.61228E-09 2.93060E-09 1.61531E-08 3.26324E-10-3.02058E-10
 -1       299-7.40703E-08 3.01665E-08 1.59144E-08-6.44028E-09 1.17253E-10 6.07879E-12
 -1       300 4.16393E-09-5.52964E-09 1.28404E-09-3.38666E-09 2.19314E-10 1.29407E-10
 -1       301-2.36393E-08 6.66145E-08-1.54232E-08 1.97488E-08 1.28206E-10 1.15145E-10
 -1       302-1.20451E-09 3.38814E-08-1.23112E-08-3.44652E-08-4.19900E-11 8.62657E-11
 -1       303-7.51807E-08 3.05337E-08 1.61198E-08 5.84528E-09-2.06464E-11 5.06128E-11
 -1       304-4.53354E-08 8.29231E-09 1.09720E-08-3.06999E-08-1.06918E-09-4.59049E-10
 -1       305 3.79710E-09-5.64813E-09 1.76198E-09 3.12268E-09-1.79928E-10 9.29273E-11
 -1       306-2.31563E-08 6.84184E-08-1.68919E-08-1.63901E-08 2.66862E-11 3.25788E-11
 -1       307-2.15702E-08-9.33746E-10 7.45907E-09-2.11583E-08 4.02846E-11 2.48205E-10
 -1       308-5.01852E-08 9.98033E-09 1.30289E-08 2.90846E-08 9.97720E-11-2.31537E-10
 -1       309 4.29572E-09 2.70024E-08-1.20159E-08 3.35969E-08 1.76604E-10 2.34893E-10
 -1       310-2.15649E-08-1.25461E-09 7.80140E-09 2.10787E-08 3.46312E-12 1.47102E-10
 -1       311 3.19828E-08-9.55778E-09-9.90179E-09 1.46913E-09-4.55679E-11-8.33495E-10
 -1       312 3.20619E-08-9.55080E-09-9.78456E-09 1.23388E-09 1.33528E-11-1.04215E-10
 -1       313 3.37088E-08-1.00810E-08-1.01180E-08 1.34605E-09-3.46081E-12 1.10896E-12
 -1       314 3.51912E-08-1.07445E-08-1.08220E-08 2.17067E-09 4.36621E-11-9.17677E-10
 -1       315 3.43005E-08-1.04962E-08-1.05090E-08 1.80044E-09-1.60287E-11-7.13968E-10
 -1       316 3.50009E-08-1.08553E-08-1.05260E-08 1.72576E-09-2.33740E-11-3.54897E-10
 -1       317 3.53378E-08-1.09756E-08-1.04082E-08 1.87136E-09-3.44676E-11-2.86173E-11
 -1       318 3.54379E-08-1.11792E-08-1.04787E-08 2.03811E-09 4.47583E-12 1.38565E-10
 -1       319 3.51002E-08-1.09025E-08-1.05746E-08 1.62316E-09-2.84072E-11 2.52476E-10
 -1       320 3.47218E-08-1.05256E-08-1.06249E-08 1.35064E-09 7.81587E-11 6.54154E-10
 -1       321 3.51077E-08-1.05620E-08-1.08373E-08 1.42301E-09-1.65688E-11 9.50304E-10
 -1       322 3.51638E-08-1.09463E-08-1.05638E-08 2.41856E-09 1.32411E-10 1.02087E-09
 -1       323 3.17187E-08-9.39393E-09-9.89196E-09 1.20134E-09-5.43642E-12 4.95538E-10
 -1       324 3.21506E-08-9.56023E-09-9.82802E-09 1.26944E-09-9.86122E-12 8.41064E-11
 -1       325 3.29299E-08-9.84297E-09-9.90738E-09 1.31408E-09-5.03870E-12-2.58433E-11
 -1       326 3.15865E-08-9.36373E-09-9.76384E-09 1.12991E-09 2.65879E-11-4.57232E-10
 -1       327 3.27918E-08-9.81418E-09-9.86826E-09 1.29346E-09 8.43889E-12 1.55048E-11
 -1       328 3.27062E-08-1.00704E-08-1.00654E-08 1.31032E-09-2.59369E-11 9.85668E-10
 -1       329 3.21539E-08-9.46445E-09-1.02161E-08 1.26251E-09-8.03036E-13-9.53871E-11
 -1       330 3.25423E-08-9.74778E-09-1.02658E-08 1.30309E-09 1.91020E-11-5.86528E-10
 -1       331 3.33958E-08-1.01353E-08-1.05212E-08 1.26561E-09-6.76632E-13-3.05040E-10
 -1       332 3.32674E-08-9.94446E-09-1.04940E-08 1.48654E-09-1.54383E-11-4.45440E-12
 -1       333 3.26316E-08-9.58792E-09-1.04397E-08 1.19484E-09 7.99565E-12 3.48203E-10
 -1       334 3.31625E-08-1.00827E-08-1.03685E-08 1.30591E-09-1.35394E-11 7.05634E-10
 -1       335 3.20656E-08-9.72277E-09-9.86325E-09-1.36659E-09-1.07082E-12-8.27555E-10
 -1       336 3.16350E-08-9.45231E-09-9.76245E-09-1.06687E-09 1.22701E-11-4.28627E-10
 -1       337 3.32269E-08-9.96345E-09-9.97641E-09-1.29004E-09-6.02245E-12 1.74258E-11
 -1       338 3.43456E-08-1.02668E-08-1.03145E-08-1.39209E-09-1.98209E-12-5.65525E-12
 -1       339 3.52332E-08-1.06666E-08-1.06690E-08-2.68708E-09 1.48432E-10-9.65856E-10
 -1       340 3.49075E-08-1.05751E-08-1.05780E-08-1.96541E-09 1.40361E-11-4.34029E-10
 -1       341 3.50656E-08-1.08300E-08-1.03244E-08-1.92883E-09 9.72702E-11 1.84712E-10
 -1       342 3.47940E-08-1.05855E-08-1.05254E-08-2.55545E-09-6.22585E-11 8.38786E-10
 -1       343 3.16617E-08-9.47656E-09-9.78841E-09-1.20983E-09-1.82872E-11 7.11507E-10
 -1       344 3.26106E-08-9.79770E-09-9.83001E-09-1.22788E-09 1.01717E-11 6.22712E-13
 -1       345 3.22710E-08-9.64900E-09-9.82985E-09-1.18605E-09 2.03105E-12-7.51912E-11
 -1       346 3.65492E-08-1.16000E-08-1.05919E-08-2.89807E-09 1.43545E-10 2.33354E-10
 -1       347 3.57660E-08-1.14134E-08-1.06530E-08-2.50918E-09-9.23074E-11-5.93185E-10
 -1       348 3.44825E-08-1.04992E-08-1.04731E-08-1.01830E-09 3.39908E-11-6.52178E-12
 -1       349 3.19353E-08-9.52638E-09-9.82611E-09-1.17331E-09 1.43822E-11 2.39895E-10
 -1       350 3.27825E-08-9.56043E-09-1.04734E-08-1.21553E-09-3.66830E-11 3.03322E-10
 -1       351 3.21435E-08-9.47062E-09-1.02145E-08-1.26199E-09-7.02473E-11-5.48142E-10
 -1       352 3.28597E-08-9.86036E-09-1.05241E-08-1.14253E-09 2.15568E-13 7.97284E-11
 -1       353 3.25844E-08-9.57444E-09-1.03138E-08-1.46246E-09-3.98556E-11 6.43823E-10
 -1       354 3.30287E-08-9.95468E-09-1.05018E-08-1.26536E-09 2.80467E-11-3.40105E-10
 -1       355 3.19331E-08-9.34826E-09-1.01736E-08-1.19424E-09-3.85643E-12-1.26437E-10
 -1       356 3.20949E-08-9.48092E-09-1.02300E-08-1.12285E-09 1.09171E-11 3.62971E-10
 -1       357 7.59419E-09 2.79118E-09-4.29874E-09-1.02730E-08 1.12026E-10 3.59708E-10
 -1       358 2.47408E-09 1.02617E-09-1.44720E-09-4.33702E-09-1.13069E-10 1.63910E-10
 -1       359 1.96396E-09 1.70489E-09-1.51976E-09 4.43846E-09 1.44930E-11 4.74353E-12
 -1       360 7.03806E-09 2.47343E-09-3.94964E-09 9.27858E-09-3.79187E-10 2.58896E-10
 -1       361 1.70286E-08-2.37342E-09-6.42931E-09-9.53680E-09 6.45050E-10-1.65227E-10
 -1       362 2.49359E-08-1.75334E-09-1.04995E-08-4.19949E-09-6.54545E-10-1.31120E-10
 -1       363 1.66326E-08-2.08207E-09-6.34222E-09 9.91104E-09-5.12756E-10-2.77869E-10
 -1       364 2.49467E-08-2.23202E-09-9.83745E-09 4.17021E-09 1.96095E-10-3.35731E-10
 -1       365 2.84727E-08-5.15990E-09-1.01188E-08-5.04212E-09-1.72616E-10 3.08147E-10
 -1       366 3.08785E-08-8.11560E-09-9.70347E-09-2.81988E-09-3.75764E-12 1.30329E-10
 -1       367 3.33844E-08-1.00661E-08-9.97974E-09-3.59590E-10 8.84057E-12-4.95827E-12
 -1       368 2.90302E-08-5.46335E-09-1.00962E-08 5.23101E-09 1.00435E-10 2.55282E-10
 -1       369 3.22459E-08-9.34609E-09-9.80821E-09 1.39252E-09-1.58583E-11 4.48138E-11
 -1       370 3.34579E-08-1.00879E-08-1.00156E-08 4.53718E-10-6.43065E-12-5.85211E-12
 -1       371-1.50858E-09 3.38220E-08-1.54902E-08-3.66260E-09 8.34166E-10 1.77776E-10
 -1       372 2.69590E-08-6.05366E-09-9.18632E-09 3.02544E-10 4.33368E-11 1.47422E-09
 -1       373 5.26977E-09 2.10606E-09-3.03853E-09-7.12650E-09 2.61204E-10-2.14651E-10
 -1       374 9.31996E-09-5.53186E-10-4.08474E-09 7.32103E-09-4.14423E-10-1.42069E-10
 -1       375 2.70120E-08-6.14712E-09-9.69493E-09 4.85512E-10-2.69229E-12-8.31725E-10
 -1       376 2.95138E-08-5.66641E-09-1.10844E-08-2.07563E-10-1.08898E-10-6.66984E-10
 -1       377 1.78699E-09 3.95616E-09-2.38658E-09 5.96244E-09-2.14666E-10 3.87145E-10
 -1       378 3.24488E-08-9.43236E-09-9.83868E-09-9.86496E-10 1.83206E-11 7.53107E-11
 -1       379 3.11496E-08-8.26198E-09-9.76998E-09 3.01100E-09-1.97794E-11 5.58105E-11
 -1       380 3.28237E-08-9.82239E-09-9.83009E-09 7.98453E-10-1.33199E-11-8.02925E-12
 -1       381 3.42268E-08-1.03342E-08-1.02357E-08 8.13041E-11 5.18944E-12 4.61730E-12
 -1       382 2.44300E-08-5.29219E-09-8.32719E-09-2.26496E-09-7.44223E-11-1.22376E-10
 -1       383 2.42271E-08-5.20094E-09-8.27082E-09 2.97234E-09-8.76525E-12-9.89711E-11
 -1       384 1.88634E-08-5.24343E-09-5.89630E-09-6.61717E-09 4.08471E-10 3.38282E-10
 -1       385 2.70684E-08-5.60152E-09-9.28309E-09-2.07604E-10-4.72049E-11 2.06579E-10
 -1       386 2.49293E-08-3.70325E-09-9.09392E-09-1.24233E-09 7.54327E-12 4.64589E-11
 -1       387 2.81626E-08-5.81010E-09-9.60120E-09 1.55329E-09 1.40738E-11 1.79919E-10
 -1       388 3.28310E-08-9.56274E-09-9.96566E-09 2.66907E-10-2.20151E-12 4.00850E-11
 -1       389 2.53826E-08-5.65382E-09-8.77938E-09-3.33551E-11 2.88273E-10 5.71940E-10
 -1       390 3.09441E-08-8.01806E-09-9.80917E-09 1.09071E-09-8.18986E-12 8.70792E-11
 -1       391 2.50611E-08-3.93083E-09-9.16415E-09 7.35394E-10 1.28242E-10 9.22584E-11
 -1       392 2.94476E-08-6.96909E-09-9.77657E-09-4.94663E-11-3.04791E-11 4.47217E-10
 -1       393 1.78532E-08-4.53569E-09-5.70122E-09 6.93758E-09-2.72136E-10 4.16171E-10
 -1       394 2.72323E-08-5.26871E-09-9.52057E-09-6.88042E-10-5.38306E-11 2.71042E-10
 -1       395 3.00479E-08-7.25872E-09-1.00037E-08-5.04742E-10 5.64654E-11 4.71378E-10
 -1       396 3.15136E-08-8.39578E-09-9.90686E-09-4.68239E-11-2.23097E-11 1.81494E-10
 -1       397 2.42822E-08 2.97982E-09-9.84923E-09 2.01044E-08 1.76228E-09 2.11107E-09
 -1       398 2.37253E-08 3.63320E-09-8.59576E-09 2.41298E-08 5.64978E-10 8.83163E-10
 -1       399 2.38474E-08 3.24978E-09-8.32937E-09 2.24559E-08 7.18482E-11 1.52975E-10
 -1       400 2.40476E-08 2.90456E-09-8.29727E-09 2.25313E-08-1.19210E-10-2.47190E-10
 -1       401 2.34826E-08 3.24832E-09-8.50488E-09 2.28194E-08-7.07934E-10-8.79323E-10
 -1       402 2.55215E-08 1.93640E-09-8.99458E-09 2.23857E-08-7.36452E-10-1.16875E-09
 -1       403 2.44956E-08 3.11210E-09-9.42758E-09 2.43995E-08-1.67847E-09-2.37359E-09
 -1       404 2.56052E-08 2.42118E-09-8.86894E-09 2.22476E-08 9.58996E-10 1.22835E-09
 -1       405 2.68507E-08 1.63439E-09-1.00782E-08-2.02363E-08-1.34215E-09 1.74606E-09
 -1       406 2.67956E-08 1.08011E-09-8.62745E-09-2.10353E-08-5.83153E-10 8.50633E-10
 -1       407 2.35740E-08 2.35313E-09-8.30669E-09-1.92409E-08 3.22140E-10-4.61556E-10
 -1       408 2.43792E-08 2.06043E-09-8.86547E-09-1.89518E-08 1.12286E-09-1.14629E-09
 -1       409 2.42283E-08 2.53229E-09-9.79281E-09-1.91830E-08 1.61719E-09-1.88869E-09
 -1       410 2.55804E-08 2.25445E-09-8.76172E-09-2.23268E-08-3.91648E-10 2.25449E-10
 -1       411 2.71396E-08 9.38205E-10-8.92333E-09-2.04066E-08-8.33277E-10 1.29894E-09
 -1       412 2.64250E-08 1.65562E-09-8.83819E-09-2.21645E-08 4.42267E-10-8.91103E-10
 -1       413 5.72231E-09 3.62569E-09-3.83919E-09-9.30048E-09-1.71761E-10-3.82027E-10
 -1       414 4.24845E-09 2.42026E-09-2.96971E-09-6.94122E-09-2.50009E-10-3.06004E-10
 -1       415 1.78435E-09 1.23730E-09-1.18568E-09 3.82216E-09-2.90863E-11 1.09325E-10
 -1       416 6.75782E-09 3.18828E-09-4.20844E-09 9.84323E-09 6.49551E-11-1.59303E-10
 -1       417 1.73864E-08-3.64227E-09-6.04575E-09-8.26040E-09-3.89482E-10-5.77511E-11
 -1       418 2.41223E-08-1.57562E-09-1.02909E-08-3.09256E-09 5.48605E-10 2.12408E-10
 -1       419 1.60136E-08-2.00020E-09-6.15219E-09 9.76150E-09 3.44494E-10 1.18668E-10
 -1       420 2.45895E-08-2.15523E-09-1.01442E-08 3.02381E-09-6.89403E-10 1.56616E-10
 -1       421 2.83315E-08-5.12064E-09-9.98299E-09-5.04803E-09 1.01804E-10-1.97041E-10
 -1       422 3.21691E-08-9.35231E-09-9.73754E-09-1.43485E-09-4.47387E-11-1.44954E-10
 -1       423 3.36161E-08-1.01332E-08-1.00630E-08-4.76282E-10-4.61108E-12 4.23590E-12
 -1       424 3.58717E-08-1.09384E-08-1.06968E-08 1.86485E-11-6.00575E-11-9.45439E-11
 -1       425 2.97556E-08-6.15695E-09-1.02441E-08 5.45911E-09-2.16595E-10-3.72240E-10
 -1       426 3.17509E-08-8.94142E-09-9.68238E-09 3.25454E-09 1.07638E-10-6.61563E-11
 -1       427 3.28791E-08-9.79935E-09-9.86725E-09 7.12716E-10 1.85139E-11-3.37692E-13
 -1       428 3.35377E-08-1.01224E-08-1.00281E-08 2.95331E-10 6.53006E-12 5.37613E-12
 -1       429 3.43348E-08-1.03503E-08-1.02880E-08 3.11191E-11-7.69066E-12 3.78820E-12
 -1       430 3.99314E-08-1.06772E-08-1.21803E-08 3.00253E-10 2.93617E-11-3.20424E-10
 -1       431-1.68450E-08 3.96157E-08-1.07587E-08 3.77493E-10 1.49258E-10-1.43184E-09
 -1       432 2.86719E-08-6.57159E-09-9.91059E-09 1.73326E-10-1.10466E-10-1.10520E-09
 -1       433 2.31161E-08-5.74329E-09-7.78806E-09-3.90784E-09-3.62644E-10 8.44015E-10
 -1       434 4.88217E-09 2.37090E-09-3.24515E-09 7.09236E-09 3.62217E-10-8.49305E-11
 -1       435 2.75064E-08-5.87644E-09-9.79303E-09-2.84376E-10 1.79802E-10-1.34276E-09
 -1       436 1.92215E-09 1.14667E-09-1.33373E-09-3.78075E-09 1.18491E-10 5.48132E-11
 -1       437 3.13039E-08-8.29904E-09-9.85367E-09-3.06872E-09 1.18428E-11-1.88076E-11
 -1       438 3.30803E-08-9.88316E-09-9.92778E-09-5.20709E-10-1.55546E-11-1.89474E-11
 -1       439 3.20034E-08-8.93094E-09-9.87910E-09 1.08030E-09 1.70432E-11-9.09523E-11
 -1       440 2.40697E-08-6.42891E-09-7.77467E-09 1.92264E-09 4.14958E-10-5.14981E-10
 -1       441 2.42874E-08-5.65238E-09-8.02758E-09-1.41892E-09 1.15149E-10-2.30125E-10
 -1       442 2.43497E-08-6.00197E-09-7.84420E-09 2.98808E-09-8.27084E-12-1.55440E-10
 -1       443 1.63740E-08-3.88013E-09-5.26836E-09 7.95046E-09 8.22133E-11-3.12515E-10
 -1       444 3.05716E-08-7.75629E-09-9.81040E-09 1.02656E-10-7.72457E-12-2.67881E-10
 -1       445 2.80852E-08-5.76974E-09-9.63563E-09-1.53400E-09 5.86343E-11-1.47284E-10
 -1       446 3.21052E-08-8.96945E-09-9.89799E-09-5.42738E-10-3.75786E-12-1.23259E-10
 -1       447 3.27495E-08-9.52470E-09-9.94506E-09 2.04669E-10 4.73447E-12-5.56376E-11
 -1       448 1.35836E-08-1.78713E-09-5.20341E-09-7.24278E-09-2.60535E-14 7.27861E-10
 -1       449 2.61501E-08-3.96140E-09-9.49126E-09 2.26020E-09-9.39855E-11-6.25168E-11
 -1       450 2.54839E-08-4.28793E-09-9.19730E-09-6.01169E-10-3.26899E-11-1.82804E-10
 -1       451 2.95289E-08-6.71560E-09-9.78400E-09 3.24891E-09-3.57089E-11-1.96201E-10
 -1       452 2.58776E-08-5.02404E-09-9.20632E-09 1.08341E-10 4.40225E-11-2.79405E-10
 -1       453 3.02938E-08-7.53067E-09-9.81364E-09-1.02076E-09-2.13554E-11-2.57533E-10
 -1       454 2.87548E-08-6.38175E-09-9.63230E-09 1.08246E-09 8.63465E-12-2.28715E-10
 -1       455 2.61889E-08-6.09157E-09-8.93659E-09 8.79498E-11-2.05333E-10-8.33722E-10
 -1       456 3.17390E-08-8.91778E-09-9.75051E-09 2.18936E-09 3.64255E-11-8.29576E-11
 -1       457-6.59603E-10 2.79130E-09-1.67586E-09-9.34922E-10-6.34212E-10 2.34188E-10
 -1       458 3.86318E-11 1.21538E-09-4.31684E-10-1.55351E-09 6.00125E-11 1.65460E-11
 -1       459 3.03846E-10-2.48106E-12-1.18615E-10-2.48342E-10-3.07249E-12-1.42486E-11
 -1       460 1.00170E-10-3.82464E-11-2.37834E-11-1.00592E-11 6.98180E-13 7.58909E-13
 -1       461 1.62350E-11-4.09131E-12-4.87942E-12 9.26005E-12-4.20835E-13 4.32667E-14
 -1       462 1.66770E-12 8.14878E-13-9.87561E-13 2.94071E-12 2.82548E-14-2.59662E-15
 -1       463-6.65915E-14 5.79254E-13-2.11528E-13 4.11481E-13-2.10242E-14 8.25690E-15
 -1       464-1.23816E-13 3.29974E-13-7.80951E-14-1.43920E-14 3.24676E-15-1.02549E-15
 -1       465-1.63738E-13 6.74816E-13-1.96422E-13-4.01257E-13-7.95897E-15-3.74766E-16
 -1       466 1.62108E-12 8.28605E-13-9.54747E-13-2.66939E-12 6.58183E-14-6.38283E-14
 -1       467 1.49336E-11-3.31901E-12-4.41972E-12-9.31096E-12-1.27083E-13 1.08624E-13
 -1       468 9.60075E-11-3.85047E-11-2.29270E-11 1.24982E-11-1.72110E-13 5.52427E-13
 -1       469 3.51787E-10-7.89184E-11-1.03002E-10 2.15731E-10-1.39287E-13 2.86146E-12
 -1       470 1.10258E-10 1.04101E-09-3.77764E-10 1.40246E-09-2.13384E-11-4.60144E-12
 -1       471-8.64488E-10 2.97818E-09-1.65592E-09 1.10777E-09 4.53162E-10-1.78109E-11
 -1       472-4.17029E-10 3.47732E-09-3.48636E-09-5.73179E-10-1.31652E-09 3.94566E-10
 -1       473-1.63657E-10 4.27301E-09-4.49340E-09-1.15973E-09-8.76793E-10 2.80526E-10
 -1       474-2.54310E-10 3.55348E-09-3.99015E-09-6.40959E-10-3.30461E-10 3.45062E-10
 -1       475-1.02544E-09 4.37334E-09-3.78873E-09-5.86475E-10 3.11785E-10 1.89011E-11
 -1       476-1.04863E-09 5.33506E-09-4.46956E-09-1.45695E-09 8.85099E-10-2.59107E-10
 -1       477-9.54685E-10 4.18571E-09-3.53883E-09-7.57531E-10 1.21512E-09-6.37997E-10
 -1       478-5.92572E-10 4.20468E-09-2.87769E-09-2.14133E-09 1.43120E-09-4.89242E-10
 -1       479-1.54933E-09 4.71673E-09-2.56796E-09 2.67720E-09 1.49621E-09 2.95809E-10
 -1       480-4.64460E-10 4.23078E-09-4.08768E-09 1.56515E-09 6.51669E-10 3.11931E-10
 -1       481-1.47579E-11 4.42403E-09-4.40606E-09 2.22246E-09-2.46567E-10-8.71575E-11
 -1       482-1.62342E-09 4.21589E-09-2.57134E-09 1.53392E-09-1.24856E-09-2.41239E-10
 -1       483-1.42761E-10 1.98265E-09-1.10069E-09-9.49246E-10-6.80719E-11 1.15276E-11
 -1       484-6.68445E-10 2.71382E-09-1.14423E-09-1.88436E-09-4.87140E-11-8.11378E-11
 -1       485 5.05773E-10 2.40461E-10-2.71700E-10-8.49072E-10 4.24132E-12-2.13865E-11
 -1       486 2.02923E-10-6.12606E-11-5.59622E-11-9.91342E-11 1.29319E-13 3.01949E-13
 -1       487 4.17323E-11-1.51776E-11-1.01721E-11 9.92946E-12 4.59632E-13 3.35526E-13
 -1       488 4.89307E-12 1.97361E-13-1.97910E-12 4.20767E-12-1.70255E-13 2.40493E-14
 -1       489 1.58623E-14 1.11738E-12-4.32592E-13 1.18360E-12 2.49336E-14-2.09120E-14
 -1       490-1.52494E-13 4.43868E-13-1.16535E-13 1.78329E-13 1.00281E-15-1.17549E-14
 -1       491-9.11368E-14 3.46930E-13-9.79417E-14-8.99747E-14-2.56885E-15-4.10991E-15
 -1       492 1.73583E-13 9.32589E-13-4.41836E-13-1.23638E-12-7.97247E-15-6.35000E-15
 -1       493 5.13018E-12 8.21170E-15-2.15173E-12-4.23225E-12 2.06809E-13-1.44328E-13
 -1       494 4.14410E-11-1.51445E-11-1.00098E-11-9.51875E-12-2.94511E-13 2.71555E-13
 -1       495 1.58052E-10-3.82980E-11-5.03516E-11 6.21007E-11 1.62713E-12-6.18225E-12
 -1       496 5.51847E-10 9.06986E-11-2.26931E-10 6.94751E-10 1.42455E-12 6.67393E-12
 -1       497-3.65814E-10 2.11590E-09-9.63680E-10 1.17143E-09-9.00760E-11-1.27883E-11
 -1       498-5.07959E-10 3.93592E-09-2.76438E-09-1.95776E-09-1.37003E-09 3.04982E-10
 -1       499 1.72471E-10 4.55305E-09-4.78266E-09 1.44444E-09 3.16352E-10 1.17232E-10
 -1       500-6.18318E-10 3.40867E-09-3.04968E-09 1.07958E-09 1.04816E-09 1.19186E-10
 -1       501-1.27341E-10 3.97315E-09-3.94577E-09 1.24544E-09-9.46004E-10-4.38293E-10
 -1       502-3.88835E-10 1.96347E-09-8.37064E-10 1.26868E-09 4.41620E-13 7.91561E-12
 -1       503-6.55878E-10 2.88815E-09-2.34869E-09-6.93150E-10-3.99180E-10 2.74155E-10
 -1       504-1.13974E-10 2.84948E-09-2.91432E-09 6.96909E-10-2.31580E-10-4.56326E-11
 -1       505-9.44418E-10 3.55740E-09-2.25870E-09-1.55982E-09 1.59140E-10-1.58097E-11
 -1       506-1.22491E-09 4.56491E-09-2.79953E-09-2.25732E-09 3.62414E-10-2.07446E-10
 -1       507 1.44564E-10 3.08602E-09-3.50065E-09 8.77751E-10 1.61714E-10 1.48205E-10
 -1       508-2.37636E-10 2.06167E-09-1.82053E-09 8.42838E-10 1.24279E-10 4.85907E-11
 -1       509-6.49606E-10 2.48016E-09-1.68442E-09 7.98188E-10-3.07630E-10-1.72520E-10
 -1       510-9.15070E-10 3.29760E-09-1.68125E-09-1.36649E-09 5.72183E-10 1.58104E-10
 -1       511 3.16636E-08-7.99625E-09-1.02822E-08 1.76327E-09 9.91874E-12 4.97507E-10
 -1       512 2.91376E-08-4.97850E-09-9.74598E-09 1.42940E-10 4.16011E-12-1.66925E-10
 -1       513 3.01571E-08-5.68139E-09-1.01277E-08 2.69849E-10-1.02642E-12-1.77150E-10
 -1       514 3.17527E-08-6.52893E-09-1.01301E-08-1.70917E-10-2.34701E-11-1.51928E-10
 -1       515 3.25465E-08-9.57031E-09-9.97722E-09 1.07929E-09-3.58667E-11 1.96104E-10
 -1       516 3.18446E-08-7.60833E-09-1.05482E-08-3.08550E-10-6.70712E-12 4.47586E-10
 -1       517 3.24062E-08-9.36855E-09-9.97541E-09 1.52392E-09 4.69819E-11-3.90364E-10
 -1       518 3.00542E-08-5.96375E-09-1.01659E-08 6.67557E-10-2.22608E-11-3.07120E-10
 -1       519 3.11526E-08-6.54113E-09-1.03578E-08-3.29456E-11-3.64461E-11-3.11643E-10
 -1       520 3.30148E-08-9.86751E-09-9.95031E-09 6.67147E-10-1.72645E-11 2.82885E-11
 -1       521 3.24679E-08-8.90633E-09-1.02264E-08 8.50095E-10-2.50085E-11 2.78516E-10
 -1       522 3.08731E-08-7.24530E-09-1.01788E-08 3.13991E-09 5.25206E-11 6.44661E-10
 -1       523 2.81995E-08-4.07250E-09-1.02639E-08 2.28234E-09 5.39404E-11 3.95879E-10
 -1       524 3.66863E-09 2.62410E-09-2.50124E-09 5.53738E-09-2.94333E-10-3.59484E-10
 -1       525 1.60780E-08-1.91662E-09-5.83908E-09 7.40661E-09-1.00989E-09-8.76669E-10
 -1       526 1.51036E-08-2.46776E-09-3.92987E-09 6.15563E-09-3.33481E-10-8.15032E-10
 -1       527 1.87724E-08-3.67639E-09-4.83724E-09 5.30043E-09 5.95835E-11 1.92795E-10
 -1       528 2.64133E-08-4.26441E-09-9.05148E-09 1.25117E-09-2.70456E-10-6.59147E-10
 -1       529 3.07533E-08-5.87568E-09-9.08775E-09 1.78276E-11 5.27511E-11 7.44036E-10
 -1       530 3.20418E-08-7.75267E-09-1.06437E-08 2.61873E-10 4.53191E-12-3.79171E-10
 -1       531 2.95791E-08-5.38568E-09-9.76558E-09-4.97864E-10-1.26057E-10-5.71792E-10
 -1       532 2.60426E-08-4.22870E-09-8.18331E-09 1.46050E-09-1.37868E-10-4.64540E-10
 -1       533 2.65954E-08-4.00707E-09-8.55857E-09 1.02210E-09 1.03558E-10 1.17213E-10
 -1       534 2.88070E-08-4.09821E-09-1.00432E-08 2.93875E-09-5.29007E-11 1.93925E-11
 -1       535 3.13337E-08-5.31440E-09-1.00350E-08 6.56467E-09 7.25342E-12-6.52599E-11
 -1       536 3.04870E-08-6.75911E-09-1.02625E-08 7.22007E-10 2.10305E-11 6.28524E-10
 -1       537 3.33270E-08-9.93496E-09-1.00500E-08-8.97984E-11-1.07791E-12-3.92082E-12
 -1       538 3.28553E-08-9.71830E-09-9.98997E-09 7.64458E-10 1.96927E-11-7.29761E-11
 -1       539 3.28221E-08-9.24931E-09-1.02387E-08-5.92320E-10 8.04564E-13 2.29150E-11
 -1       540 3.25397E-08-8.97548E-09-1.02266E-08 7.19939E-10 1.34575E-11-1.98235E-10
 -1       541 3.22515E-08-9.18822E-09-9.96296E-09 1.84602E-09-5.72984E-11 4.50464E-10
 -1       542 3.27600E-08-8.33874E-09-1.04787E-08 3.68547E-09-3.65094E-11 3.76082E-10
 -1       543 3.16680E-08-7.74260E-09-1.04081E-08-9.66245E-10-1.86297E-11-4.67361E-10
 -1       544 2.79062E-08-2.97908E-09-1.04742E-08-3.95563E-09-7.17364E-11 2.85072E-10
 -1       545 2.56340E-08-4.80429E-09-7.46268E-09-5.97235E-10 1.31275E-10-1.23928E-09
 -1       546 2.28944E-08-4.76364E-09-7.59342E-09-3.01536E-09 6.57815E-10-1.07541E-09
 -1       547 2.27021E-08-4.07913E-09-7.19936E-09-6.52038E-09 7.34363E-10-7.17484E-10
 -1       548 9.34398E-09 1.00150E-09-4.73684E-09-7.89575E-09 1.36536E-09-5.27289E-10
 -1       549 9.11747E-09 1.26829E-09-4.02113E-09-7.76644E-09 1.13187E-10-1.23661E-10
 -1       550 3.24500E-08-9.04130E-09-1.01869E-08-2.01724E-09 4.51753E-11 5.29277E-10
 -1       551 3.19521E-08-8.31754E-09-1.01660E-08 3.35832E-09-2.83355E-11-7.32424E-10
 -1       552 2.76851E-08-3.61725E-09-1.02524E-08 2.50999E-09-1.15209E-10-3.05330E-10
 -1       553 2.81466E-08-2.60573E-09-9.39554E-09 5.33464E-09 2.72667E-10 2.47439E-10
 -1       554 1.69921E-08-2.46706E-09-6.18808E-09 7.01366E-09 9.97909E-10 7.66867E-10
 -1       555 8.91799E-09 1.45218E-09-4.37347E-09 7.95215E-09 8.85554E-10 6.30460E-10
 -1       556 2.53752E-08-4.47787E-09-8.82366E-09 3.30888E-09 6.10436E-10 5.87201E-10
 -1       557 2.51891E-08-4.61822E-09-7.86473E-09 2.03970E-09 3.98505E-10 9.99010E-10
 -1       558 2.59515E-08-5.27701E-09-8.02746E-09 9.45784E-10 3.57762E-10 1.93474E-09
 -1       559 2.88502E-08-5.61546E-09-8.46883E-09-4.85545E-10-5.78202E-11 1.39028E-09
 -1       560 3.09604E-08-7.46775E-09-1.01452E-08 1.57714E-09-6.20389E-12-5.43181E-10
 -1       561 2.88109E-08-4.26641E-09-1.01095E-08 2.55307E-09 5.26409E-11-1.93700E-10
 -1       562 3.23315E-08-8.06750E-09-1.04510E-08 3.55329E-09 1.62460E-11-4.71899E-10
 -1       563 3.09532E-08-7.33739E-09-1.01011E-08-3.46626E-09 1.10598E-10-6.67917E-10
 -1       564 6.85421E-09 2.73388E-09-4.13235E-09-7.86887E-09-1.18952E-09 4.38571E-10
 -1       565 2.85979E-08-3.46913E-09-1.05451E-08-4.59236E-09 1.51584E-10-2.51959E-10
 -1       566 2.87638E-08-4.94130E-09-1.02556E-08-9.72381E-10 3.88984E-11-3.82934E-10
 -1       567 2.80750E-08-2.78325E-09-1.01220E-08-4.66941E-09-1.24255E-10-1.00597E-10
 -1       568 2.53656E-08-4.66209E-09-8.66391E-09-3.99422E-09-6.86175E-10 8.03073E-10
 -1       569 2.09403E-08-3.54338E-09-6.82270E-09-7.25026E-09-5.15323E-10 5.12881E-10
 -1       570 2.78783E-08-5.49746E-09-8.07981E-09 3.70309E-10-1.00771E-10 1.43786E-09
 -1       571 3.24069E-08-8.17526E-09-1.04503E-08-3.50446E-09-1.89482E-11-4.75724E-10
 -1       572 2.01409E-09 3.00183E-09-2.07290E-09 4.85780E-09 8.95274E-11 1.15467E-10
 -1       573 2.98305E-08-5.71200E-09-1.03325E-08 6.49374E-10 3.44968E-12-3.70598E-10
 -1       574 3.11575E-08-6.93578E-09-1.04590E-08 4.51354E-11 1.78405E-12-4.47776E-10
 -1       575 4.93391E-09 4.36802E-09-4.57748E-09 8.28876E-09 3.38071E-10 3.02597E-10
 -1       576 2.40225E-08-5.24466E-09-4.78444E-09 1.54243E-09-1.80008E-10 2.64960E-10
 -1       577 2.49281E-08-5.33363E-09-6.06975E-09 1.33044E-09 2.45268E-11-1.65206E-09
 -1       578 2.01011E-08-1.62889E-09-7.01133E-09 1.01857E-08 8.39312E-11 1.30038E-10
 -1       579 3.24493E-08-7.80839E-09-1.04974E-08 3.86650E-09 3.12144E-11-3.46997E-11
 -1       580 2.83202E-08-5.48072E-09-7.25412E-09-1.31806E-10 8.91497E-11-8.19134E-11
 -1       581 8.62578E-09 2.50007E-09-4.80097E-09 8.82648E-09-4.65756E-10-3.66065E-10
 -1       582 2.30302E-08-3.49957E-09-7.28460E-09 6.96161E-09-2.36802E-10-3.37420E-10
 -1       583 3.28153E-08-9.22574E-09-1.03167E-08 2.02450E-09-1.04018E-11 2.76574E-10
 -1       584 2.83802E-08-2.13831E-09-1.00261E-08 6.45026E-09-3.39166E-10-3.93537E-10
 -1       585 2.55358E-08-1.60678E-09-9.59801E-09 7.59041E-09-6.83205E-10-1.01796E-09
 -1       586 2.24122E-08-2.93335E-09-7.63460E-09 7.79894E-09-7.96211E-10-8.00366E-10
 -1       587 1.98823E-08-1.78361E-09-7.09187E-09 9.13935E-09 6.12966E-10 6.10510E-10
 -1       588 2.60965E-08-1.69281E-09-9.56813E-09 7.14362E-09 6.63021E-10 5.71976E-10
 -1       589 3.35765E-08-1.01106E-08-1.00539E-08 5.14323E-10 5.93147E-13-2.98262E-13
 -1       590 3.27560E-08-9.20905E-09-1.03124E-08 1.73866E-09 2.23896E-11-1.31348E-10
 -1       591 3.17771E-08-7.62408E-09-1.05206E-08 1.74335E-09 1.67175E-12-2.40450E-10
 -1       592 3.10517E-08-6.69298E-09-1.05173E-08 1.46758E-09-2.20191E-11 2.81350E-10
 -1       593 2.77999E-08-2.12347E-09-9.13556E-09 6.46853E-09 2.26650E-12-1.25143E-11
 -1       594 2.76384E-08-2.27199E-09-9.42533E-09 5.04367E-09-1.71492E-10-2.88887E-10
 -1       595 2.84642E-08-2.62632E-09-1.08557E-08 6.05002E-09 5.02108E-10-6.11256E-11
 -1       596 3.24527E-08-6.63221E-09-1.05314E-08 6.20712E-09-5.22053E-11-4.56964E-10
 -1       597 3.33630E-08-7.83379E-09-1.04100E-08 5.49946E-09 1.00588E-10-2.03987E-10
 -1       598 3.29383E-08-7.33156E-09-1.04513E-08 5.96650E-09 9.92414E-12 4.02549E-10
 -1       599 3.32209E-08-7.05938E-09-1.02269E-08 6.49951E-09-5.03242E-11 1.03461E-10
 -1       600 3.30387E-08-7.49861E-09-1.07371E-08 5.90451E-09 1.38555E-10 7.27862E-10
 -1       601 2.24023E-08-5.15100E-09-4.72294E-09-2.45518E-09 1.92668E-10 1.73890E-11
 -1       602 2.89082E-08-4.56326E-09-1.01604E-08-1.59969E-09 2.56139E-11-1.57192E-10
 -1       603 3.29797E-08-7.95435E-09-1.04522E-08-4.83306E-09-5.07091E-11-2.59381E-11
 -1       604 2.59901E-08-2.88051E-09-8.91464E-09-2.49823E-09-7.80643E-11 1.88400E-10
 -1       605 4.65504E-09 3.63920E-09-3.84847E-09-7.04380E-09-4.20029E-10 2.79715E-10
 -1       606 3.32976E-08-8.93495E-09-1.04732E-08-3.46098E-09 4.34192E-11 2.47785E-10
 -1       607 3.09846E-08-6.49642E-09-1.05749E-08-1.93585E-09 1.22872E-11 2.09328E-10
 -1       608 2.74485E-08-2.77726E-09-9.74946E-09-3.61969E-09-4.30251E-11 1.03363E-10
 -1       609 2.95810E-08-5.70684E-09-8.80511E-09 5.41072E-10-4.93315E-11-1.50944E-10
 -1       610 3.28979E-08-9.39142E-09-1.03128E-08-1.72210E-09 2.82472E-12-9.26699E-11
 -1       611 3.01732E-08-6.68094E-09-1.01251E-08-1.49732E-09-6.02112E-11 5.33662E-10
 -1       612 1.81538E-09 2.32247E-09-1.81986E-09-3.55607E-09-3.29251E-10 1.88471E-10
 -1       613 1.09828E-08-7.58088E-08 2.63636E-08-4.95467E-10-2.81116E-11-4.96986E-10
 -1       614 1.12833E-08-7.56677E-08 2.60157E-08-5.59604E-10-2.05629E-11 6.77671E-10
 -1       615 1.07079E-08-7.47407E-08 2.39920E-08 1.00173E-08 2.95716E-09 2.56527E-11
 -1       616 2.06306E-08-2.78133E-08 2.83628E-09-5.13876E-09 8.00185E-09-7.00672E-09
 -1       617 9.50963E-08-2.53217E-08-2.72630E-08-1.53522E-08-1.07551E-09-8.87388E-09
 -1       618 1.31460E-07-3.17505E-08-3.72024E-08 2.21152E-08-2.80538E-09 4.71935E-09
 -1       619 6.80329E-08-4.08078E-08-9.66009E-09 2.01320E-08 9.68513E-09 1.25861E-08
 -1       620 1.70685E-08-9.25402E-08 2.48607E-08-3.51274E-08 3.96781E-09 7.51265E-10
 -1       621 2.23969E-08-9.30571E-08 2.15813E-08 3.28325E-08-5.46519E-09-2.41766E-09
 -1       622 7.58914E-08-4.56256E-08-1.11328E-08-2.06318E-08-1.09923E-08 1.16471E-08
 -1       623 1.31578E-07-3.34428E-08-3.64599E-08-1.96400E-08 3.82589E-09 4.82107E-09
 -1       624 9.37845E-08-2.48424E-08-2.69676E-08 1.57338E-08 8.90994E-10-9.00229E-09
 -1       625 2.02022E-08-2.75107E-08 1.60272E-09 4.41246E-09-8.15178E-09-6.77476E-09
 -1       626 9.70231E-09-7.43679E-08 2.36186E-08-1.09489E-08-2.96224E-09-8.03922E-10
 -1       627 1.06761E-08-7.45620E-08 2.37468E-08 9.91557E-09-2.95777E-09-2.28569E-11
 -1       628 2.06493E-08-2.80971E-08 2.87330E-09-5.03942E-09-8.00785E-09 6.89925E-09
 -1       629 9.45705E-08-2.49051E-08-2.71453E-08-1.55255E-08 9.87180E-10 9.07162E-09
 -1       630 1.32298E-07-3.10094E-08-3.80607E-08 2.39851E-08 3.32130E-09-4.29447E-09
 -1       631 6.80006E-08-4.16908E-08-1.03701E-08 1.83055E-08-1.01191E-08-1.08642E-08
 -1       632 1.37969E-08-9.18852E-08 2.46586E-08-3.61306E-08-3.24969E-09-7.62670E-12
 -1       633 2.21095E-08-9.22367E-08 2.10831E-08 3.28856E-08 5.70238E-09 2.56233E-09
 -1       634 7.56324E-08-4.58100E-08-1.09018E-08-2.03497E-08 1.06703E-08-1.14280E-08
 -1       635 1.31031E-07-3.31500E-08-3.62934E-08-1.95230E-08-3.87462E-09-4.66589E-09
 -1       636 9.29736E-08-2.46043E-08-2.67354E-08 1.53371E-08-6.96507E-10 9.15356E-09
 -1       637 2.00503E-08-2.79882E-08 1.76785E-09 3.94107E-09 8.30519E-09 6.74433E-09
 -1       638 9.90793E-09-7.41603E-08 2.32684E-08-1.10346E-08 2.91967E-09 7.87492E-10
 -1       639 2.32770E-08-8.63060E-10 4.11529E-14-1.02476E-10 2.86312E-12 5.22654E-09
 -1       640 2.34025E-08-8.40018E-10 4.59417E-14-2.30213E-10-2.48484E-10-4.89818E-09
 -1       641 2.99097E-08-1.15707E-09-5.35786E-09-3.06127E-09 1.00745E-09 1.01501E-08
 -1       642 2.60460E-08-6.19755E-09-3.06633E-11-5.97770E-09 3.07173E-09 1.00663E-08
 -1       643 1.32928E-08-7.24580E-09-1.45654E-11-4.08072E-09 1.66180E-09 3.37415E-09
 -1       644 5.02211E-09-3.94353E-09-4.11312E-12-7.84146E-10 5.32950E-10 7.03172E-10
 -1       645 1.39509E-09-1.29875E-09-4.94296E-11 3.17136E-10 2.19539E-10 1.99384E-11
 -1       646 3.42152E-10-2.65381E-10-4.54732E-13 3.18265E-10 7.76871E-11 3.42187E-11
 -1       647 5.38001E-11-2.69085E-11-1.80108E-13 1.61139E-10 3.31440E-11 5.13361E-12
 -1       648-1.18066E-11 2.08687E-11-7.33175E-14 6.30972E-11 1.34012E-11-1.35947E-12
 -1       649-1.28123E-11 1.50402E-11-8.50573E-13 1.44993E-11 2.87417E-12-2.23447E-13
 -1       650-6.41548E-12 7.68283E-12-7.94953E-15 1.64947E-12 1.11335E-12-8.23725E-13
 -1       651-2.37997E-12 2.78236E-12-3.38600E-15-7.91859E-13 3.39825E-13-4.35099E-13
 -1       652-4.06052E-13 5.78698E-13-9.40624E-16-5.79596E-13 6.54186E-14-1.57134E-13
 -1       653 1.60112E-14 6.02497E-14-5.35602E-16-1.85788E-13 1.08670E-14-8.82556E-14
 -1       654-3.39316E-15 8.71101E-14-5.84210E-16 2.25204E-13-1.46553E-14-9.00105E-14
 -1       655-7.35922E-13 9.07112E-13-1.53267E-15 7.54181E-13-1.04251E-13-2.20591E-13
 -1       656-2.65081E-12 3.16872E-12-3.18592E-15 6.67019E-13-3.89514E-13-4.56961E-13
 -1       657-6.59601E-12 8.06125E-12-7.51498E-15-2.10982E-12-1.22336E-12-8.48307E-13
 -1       658-1.56217E-11 1.90857E-11-3.17594E-14-1.90700E-11-5.01632E-12-1.80298E-12
 -1       659-9.48240E-12 2.02830E-11-8.28199E-14-6.52301E-11-1.37668E-11-1.14064E-12
 -1       660 6.97079E-11-3.47901E-11-2.25668E-13-1.68678E-10-3.46149E-11 6.56207E-12
 -1       661 4.98810E-10-4.21601E-10-7.57870E-13-3.86226E-10-1.11284E-10 5.47482E-11
 -1       662 1.56487E-09-1.41136E-09-1.52692E-12-2.81457E-10-2.28481E-10 1.95009E-10
 -1       663 5.86224E-09-4.49453E-09-3.98222E-12 1.12801E-09-6.59142E-10 9.31871E-10
 -1       664 1.52744E-08-7.47963E-09-1.64247E-11 4.53233E-09-1.81376E-09 3.91135E-09
 -1       665 2.69275E-08-5.39388E-09-4.43268E-09 5.37885E-09-2.63614E-09 7.44091E-09
 -1       666 2.88811E-08-8.94667E-10-4.57703E-09 2.49022E-09-7.96577E-10 9.94436E-09
 -1       667 2.96381E-08-9.11328E-10-6.10806E-09-2.03728E-09-8.18351E-10-8.55011E-09
 -1       668 2.57917E-08-5.47786E-09-4.36477E-09-5.17530E-09-2.23953E-09-5.77286E-09
 -1       669 1.44534E-08-7.20966E-09-6.90329E-13-4.25430E-09-1.59837E-09-3.44549E-09
 -1       670 6.15392E-09-4.71800E-09-6.76618E-12-1.32450E-09-7.70599E-10-1.12365E-09
 -1       671 1.76354E-09-1.62258E-09-2.02106E-12 2.13296E-10-2.47503E-10-2.21181E-10
 -1       672 5.56087E-10-4.76419E-10-7.09897E-13 3.95790E-10-1.16096E-10-5.97988E-11
 -1       673 9.14435E-11-5.14797E-11-1.89660E-13 1.84622E-10-3.94167E-11-8.92624E-12
 -1       674-1.63793E-12 1.60202E-11-7.36483E-14 7.90815E-11-1.66462E-11 3.90254E-13
 -1       675-1.53355E-11 2.03060E-11-2.87990E-14 2.63221E-11-6.39281E-12 1.78623E-12
 -1       676-9.92285E-12 1.16711E-11-1.17231E-14 5.40815E-12-2.13456E-12 1.25698E-12
 -1       677-3.20375E-12 3.93536E-12-2.76412E-15-3.49804E-13-5.30475E-13 5.42977E-13
 -1       678-1.20638E-12 1.35363E-12-5.50855E-14-8.05875E-13-1.41255E-13 1.87421E-13
 -1       679-1.94532E-13 2.49768E-13-3.59753E-14-4.10762E-13 1.45410E-14 9.70008E-14
 -1       680 5.23994E-14 1.43721E-14-2.12140E-16 4.74152E-14-3.61841E-16 6.79751E-14
 -1       681-1.78557E-13 2.89750E-13-5.05471E-16 4.41785E-13 3.57914E-14 1.24388E-13
 -1       682-1.11403E-12 1.38146E-12-1.41819E-15 7.64805E-13 1.61566E-13 2.68972E-13
 -1       683-4.67496E-12 5.32989E-12-1.96415E-15 7.91816E-14 5.90926E-13 5.85508E-13
 -1       684-9.97371E-12 1.16941E-11-1.08483E-14-5.57412E-12 2.18970E-12 1.26970E-12
 -1       685-1.52070E-11 2.00317E-11-3.23342E-14-2.54531E-11 6.25070E-12 1.78325E-12
 -1       686-7.38366E-13 1.56603E-11-9.22197E-14-7.87170E-11 1.62473E-11 3.20360E-13
 -1       687 1.32206E-10-9.76851E-11-2.94508E-13-2.35650E-10 5.18794E-11-1.30286E-11
 -1       688 5.95205E-10-5.07471E-10-7.19028E-13-3.86683E-10 1.23054E-10-6.70074E-11
 -1       689 1.72477E-09-1.54756E-09-1.63831E-12-2.03680E-10 2.40127E-10-2.18241E-10
 -1       690 6.67516E-09-5.02622E-09-4.35374E-12 1.50488E-09 6.91090E-10-1.03511E-09
 -1       691 1.72352E-08-7.45315E-09-1.84930E-11 4.63824E-09 2.08652E-09-4.73494E-09
 -1       692 2.62574E-08-4.93797E-09-3.26503E-11 5.54436E-09 2.84444E-09-1.06376E-08
 -1       693 3.01513E-08-7.36403E-10-1.51195E-11 1.97649E-09 1.35399E-09-1.42156E-08
 -1       694 7.43192E-08 2.62913E-08-2.77948E-08-6.83335E-08 8.04946E-10-6.61775E-09
 -1       695 7.71456E-08 2.51857E-08-2.85549E-08-6.54624E-08-1.27092E-10 5.88200E-09
 -1       696 7.53747E-08 2.70383E-08-2.83912E-08 6.63092E-08 1.96081E-10-1.33149E-09
 -1       697 3.92444E-08 1.43137E-08-2.40444E-08-6.34718E-08 1.42798E-08-8.76580E-09
 -1       698 6.20156E-09-1.47953E-08 2.40098E-09 1.15090E-08 3.03623E-09-7.24941E-09
 -1       699-5.36215E-08 9.41961E-09 1.75570E-08 2.98514E-08 2.36967E-09-1.67456E-09
 -1       700-6.40870E-08 2.52055E-08 1.75297E-08-7.70711E-09-3.52042E-09 1.84548E-09
 -1       701-2.61733E-08-1.55274E-09 1.10803E-08-2.61497E-08 3.45340E-09 3.37486E-09
 -1       702 1.34910E-08-7.35987E-09-1.63412E-09 3.75971E-09 1.25128E-09 5.15230E-09
 -1       703 6.88678E-09 2.32966E-08-1.37278E-08 2.99928E-08 3.94473E-09 1.43824E-09
 -1       704-1.90314E-08 6.94459E-08-2.17213E-08 1.56419E-08 5.79361E-10 1.62943E-11
 -1       705-1.95051E-08 6.97417E-08-2.17595E-08-1.46892E-08-4.78801E-10 1.41529E-10
 -1       706 6.54737E-09 2.44070E-08-1.39819E-08-3.04326E-08-3.59606E-09 1.73253E-09
 -1       707 1.34303E-08-6.76406E-09-1.86572E-09-4.60207E-09-1.39251E-09 5.16251E-09
 -1       708-2.53722E-08-1.72454E-09 1.09164E-08 2.59360E-08-3.34269E-09 3.36416E-09
 -1       709-6.40522E-08 2.54295E-08 1.74350E-08 6.80930E-09 3.62214E-09 1.80427E-09
 -1       710-5.09229E-08 6.43098E-09 1.73607E-08-3.28153E-08-2.75591E-09-1.71665E-09
 -1       711 1.47362E-08-1.87799E-08 1.64933E-10-8.21923E-09-7.45831E-11-2.45247E-10
 -1       712 4.59149E-08 8.04931E-09-1.89448E-08 6.31491E-08-4.08794E-09-2.39088E-09
 -1       713 3.88445E-08 1.50734E-08-2.39172E-08-6.37588E-08-1.34713E-08 8.87848E-09
 -1       714 5.64926E-09-1.44658E-08 2.41560E-09 1.15285E-08-3.20981E-09 6.93742E-09
 -1       715-5.37964E-08 9.54132E-09 1.72793E-08 2.97901E-08-2.45721E-09 1.56291E-09
 -1       716-6.43868E-08 2.48682E-08 1.77408E-08-7.71538E-09 3.11329E-09-1.94542E-09
 -1       717-2.62923E-08-1.49487E-09 1.09395E-08-2.60929E-08-3.48382E-09-3.51878E-09
 -1       718 1.33665E-08-7.35554E-09-1.45540E-09 3.67949E-09-1.46987E-09-5.08765E-09
 -1       719 6.64831E-09 2.35396E-08-1.36484E-08 2.99496E-08-3.87835E-09-1.57361E-09
 -1       720-1.90817E-08 6.94561E-08-2.14893E-08 1.55531E-08-4.89872E-10-2.56097E-10
 -1       721-1.95524E-08 6.97915E-08-2.16111E-08-1.46961E-08 5.20871E-10-3.40684E-10
 -1       722 6.37603E-09 2.45825E-08-1.39282E-08-3.04339E-08 3.63332E-09-1.84840E-09
 -1       723 1.33981E-08-6.68147E-09-1.84687E-09-4.73854E-09 1.61425E-09-5.09825E-09
 -1       724-2.51985E-08-1.82052E-09 1.08353E-08 2.57891E-08 3.37042E-09-3.38726E-09
 -1       725-6.19286E-08 2.49456E-08 1.69982E-08 5.66413E-09-3.43128E-09-2.40037E-09
 -1       726-5.19971E-08 1.06894E-08 1.54317E-08-3.38811E-08 4.30676E-09 4.37815E-09
 -1       727 1.69305E-08-1.88887E-08 5.63927E-11-9.12312E-09 5.51961E-10 1.35326E-09
 -1       728 4.90378E-08 8.96309E-09-1.96565E-08 6.72703E-08 2.80332E-09 1.35537E-09
 -1       729 3.45693E-08-1.02548E-08-1.07097E-08 3.10733E-09-2.90403E-11-8.76960E-10
 -1       730 3.14480E-08-9.43667E-09-9.50367E-09 1.31968E-09 5.88290E-11-2.70290E-10
 -1       731 3.15589E-08-9.53541E-09-9.43589E-09 1.19908E-09-5.28472E-12-1.84027E-11
 -1       732 3.21633E-08-9.64217E-09-9.64257E-09 1.23028E-09 3.10355E-12 2.52064E-11
 -1       733 3.30204E-08-9.88363E-09-9.90862E-09 1.26191E-09 2.05395E-12 4.41127E-11
 -1       734 3.38996E-08-1.01589E-08-1.01687E-08 1.36279E-09-3.25562E-12 1.84852E-11
 -1       735 3.49891E-08-1.04269E-08-1.04863E-08 1.47337E-09-2.60367E-11-3.01707E-11
 -1       736 3.57751E-08-1.06941E-08-1.07521E-08 1.75143E-09-3.75766E-11-1.88110E-10
 -1       737 3.92684E-08-9.05261E-09-1.33531E-08-2.78909E-09 1.80776E-11 1.20363E-09
 -1       738 9.16319E-08-2.39672E-08-2.73777E-08-4.22833E-08-8.39802E-10 1.17265E-08
 -1       739 4.05711E-08-1.08820E-08-1.19025E-08 7.49064E-09-5.83460E-10-1.53986E-09
 -1       740 4.33614E-08-1.28960E-08-1.10526E-08 8.59443E-09-8.85393E-11 8.79854E-10
 -1       741 4.44234E-08-1.32343E-08-1.06252E-08 8.74690E-09-3.35787E-10-3.35953E-10
 -1       742 4.30079E-08-1.28824E-08-9.90218E-09 8.34143E-09-3.17384E-11 2.07241E-10
 -1       743 4.45502E-08-1.35209E-08-1.02049E-08 8.53459E-09 2.02330E-10 3.70806E-10
 -1       744 4.42541E-08-1.35095E-08-1.00418E-08 8.22218E-09-1.01660E-10-2.67405E-10
 -1       745 4.32922E-08-1.30775E-08-9.93305E-09 8.41168E-09-9.30982E-11-2.13847E-11
 -1       746 4.35720E-08-1.25562E-08-1.07061E-08 8.12655E-09 4.05460E-11-1.34158E-10
 -1       747 4.42467E-08-1.30518E-08-1.08952E-08 8.99807E-09 3.98156E-10 6.73780E-11
 -1       748 4.27069E-08-1.16643E-08-1.23253E-08 8.29594E-09 2.79341E-10 8.19033E-10
 -1       749 3.45487E-08-9.71565E-09-1.06950E-08 4.04648E-09 2.97665E-10 4.15797E-10
 -1       750 3.15922E-08-9.57272E-09-9.45550E-09 1.74188E-09-9.44382E-11 2.04687E-10
 -1       751 3.15268E-08-9.49887E-09-9.44881E-09 1.30442E-09 1.01924E-11 9.73273E-11
 -1       752 3.21681E-08-9.62836E-09-9.65641E-09 1.24545E-09-5.22394E-12-1.93912E-11
 -1       753 3.30161E-08-9.87532E-09-9.91287E-09 1.27034E-09-2.32466E-12-4.24488E-11
 -1       754 3.38986E-08-1.01572E-08-1.01697E-08 1.34873E-09-6.54115E-12-1.80490E-11
 -1       755 3.49331E-08-1.05474E-08-1.04038E-08 1.50393E-09 2.23613E-11 2.75590E-11
 -1       756 3.57554E-08-1.06715E-08-1.07847E-08 2.08389E-09 1.02655E-10 2.43253E-10
 -1       757 3.70965E-08-1.51603E-08-1.22017E-08 3.17743E-09-1.84203E-09-1.67403E-09
 -1       758 9.28905E-08-2.33072E-08-2.98181E-08-3.49453E-08-6.82038E-10-8.34795E-09
 -1       759 3.42850E-08-1.02100E-08-1.07004E-08-3.84169E-09 7.60018E-11-9.29338E-10
 -1       760 3.16052E-08-9.48695E-09-9.50768E-09-1.76179E-09-1.53666E-10-2.02306E-10
 -1       761 3.14655E-08-9.46749E-09-9.44723E-09-1.31272E-09 3.72283E-11-3.78455E-11
 -1       762 3.23089E-08-9.67576E-09-9.69720E-09-1.26285E-09-1.21730E-11 2.31081E-11
 -1       763 3.33360E-08-9.97462E-09-1.00157E-08-1.30465E-09-8.28436E-12 3.60236E-11
 -1       764 3.43907E-08-1.02904E-08-1.03253E-08-1.39209E-09-2.14754E-14 6.88848E-12
 -1       765 3.56719E-08-1.06835E-08-1.07025E-08-1.54098E-09-4.69951E-12-1.80293E-10
 -1       766 3.52453E-08-9.57510E-09-1.24307E-08-1.21845E-09-1.72445E-10 1.12145E-09
 -1       767 8.52037E-08-2.37472E-08-2.43411E-08 3.41740E-08 1.19343E-09 1.02775E-08
 -1       768 4.07053E-08-1.10448E-08-1.18136E-08-7.83176E-09 5.13736E-10-1.14551E-09
 -1       769 4.40272E-08-1.25106E-08-1.14683E-08-8.59888E-09-4.71861E-11-7.59249E-10
 -1       770 4.38095E-08-1.26360E-08-1.02515E-08-8.69435E-09 1.64617E-10 4.88686E-10
 -1       771 4.18607E-08-1.17841E-08-1.03163E-08-7.54899E-09 3.91381E-10-2.64860E-10
 -1       772 4.21138E-08-1.16326E-08-9.53673E-09-9.48052E-09 1.19541E-10-2.69231E-10
 -1       773 4.27552E-08-1.16344E-08-1.05057E-08-8.29981E-09-2.46332E-10 4.65130E-10
 -1       774 4.41654E-08-1.28386E-08-9.80160E-09-9.03930E-09-2.65668E-10-6.93823E-10
 -1       775 4.42950E-08-1.31488E-08-1.06475E-08-9.05473E-09-2.43711E-10 1.22504E-10
 -1       776 4.35174E-08-1.25250E-08-1.12631E-08-8.93244E-09 2.25601E-10 5.98276E-10
 -1       777 4.09128E-08-1.14704E-08-1.16825E-08-7.31157E-09-4.35107E-10 1.40575E-09
 -1       778 3.40544E-08-1.02481E-08-1.05673E-08-3.35166E-09-5.86300E-11 7.97167E-10
 -1       779 3.13560E-08-9.60113E-09-9.41496E-09-1.57549E-09 4.82482E-11 2.02192E-10
 -1       780 3.17793E-08-9.57252E-09-9.54005E-09-1.28767E-09 2.08689E-11 1.83500E-11
 -1       781 3.28347E-08-9.83030E-09-9.85309E-09-1.24280E-09 1.25288E-11-4.21943E-11
 -1       782 3.39453E-08-1.01786E-08-1.01885E-08-1.38680E-09-4.04659E-12-3.73827E-11
 -1       783 3.52526E-08-1.06596E-08-1.05678E-08-1.64078E-09 7.79149E-11 4.78664E-11
 -1       784 3.57613E-08-9.58407E-09-1.15054E-08-1.34216E-09 2.81325E-10-3.46609E-11
 -1       785 7.27518E-08-2.04572E-08-2.07505E-08 2.51701E-08-2.09916E-09-5.41115E-09
 -1       786-9.33436E-10 5.28894E-09-2.04889E-09-3.61466E-09 2.42948E-10 2.72741E-11
 -1       787-1.23973E-09 3.89186E-09-1.30956E-09-2.01015E-09-1.82111E-10 2.24723E-10
 -1       788-4.02322E-10 2.72115E-09-1.00255E-09-1.83707E-09-1.53871E-10 1.28189E-10
 -1       789 2.35471E-10 1.10443E-09-6.82349E-10-1.58291E-09 6.50748E-11 1.85446E-10
 -1       790 6.03932E-10 9.82200E-11-3.39557E-10-7.69098E-10 2.87908E-11 1.83209E-11
 -1       791 4.11704E-10-5.26268E-11-1.79918E-10-2.64912E-10 6.40576E-12-2.67079E-11
 -1       792 1.86825E-10-3.60177E-11-7.22772E-11-8.27021E-11 1.02084E-11-8.50529E-12
 -1       793 9.77637E-11-3.93873E-11-2.90013E-11-8.66895E-12 5.57167E-12-1.98212E-12
 -1       794 4.27542E-11-1.61479E-11-1.33092E-11 1.05263E-11 2.13922E-12-1.57467E-12
 -1       795 1.53621E-11-3.35006E-12-5.95381E-12 1.00840E-11 5.40478E-13-7.25457E-13
 -1       796 5.12598E-12 9.42773E-13-3.11786E-12 5.66789E-12-2.68622E-13-3.19202E-13
 -1       797 1.76317E-12 9.71571E-13-1.29746E-12 2.41551E-12-2.25925E-14-2.21784E-13
 -1       798 1.33373E-13 1.04845E-12-5.86770E-13 1.28292E-12 3.43823E-14-1.06354E-13
 -1       799-1.54564E-13 6.67058E-13-2.71369E-13 4.43641E-13-2.25602E-14-5.41942E-15
 -1       800-1.41333E-13 4.52084E-13-1.53023E-13 1.01253E-13 8.10962E-16-1.81672E-14
 -1       801-1.11674E-13 3.57229E-13-1.25834E-13 3.51297E-14 1.49212E-14 9.90280E-16
 -1       802-1.59321E-13 4.40464E-13-1.57790E-13-1.01649E-13 1.11643E-14 1.28802E-15
 -1       803-1.82038E-13 6.87447E-13-2.50281E-13-4.14338E-13-7.92019E-15-4.60796E-14
 -1       804 2.59712E-13 9.23792E-13-5.61005E-13-1.08578E-12 7.05221E-15-8.71350E-14
 -1       805 1.07828E-12 1.54176E-12-1.29044E-12-2.73561E-12 1.58760E-13-6.95370E-14
 -1       806 4.96707E-12 7.89531E-13-3.10806E-12-5.84926E-12 2.69385E-13-2.17646E-13
 -1       807 1.54313E-11-3.35972E-12-5.97118E-12-1.02191E-11-6.24934E-13-6.85192E-13
 -1       808 4.21367E-11-1.61137E-11-1.28794E-11-1.07630E-11-2.06606E-12-1.28813E-12
 -1       809 8.87240E-11-2.68893E-11-2.98891E-11 9.50176E-12-3.57684E-12-4.25087E-12
 -1       810 2.02985E-10-5.85482E-11-7.21126E-11 5.22834E-11 2.42773E-13-1.07811E-11
 -1       811 3.66153E-10-9.10700E-11-1.35438E-10 2.14088E-10-2.04505E-11-3.15810E-12
 -1       812 5.45391E-10 7.21922E-11-3.00262E-10 6.84891E-10-4.73723E-11 1.76880E-11
 -1       813 4.26625E-10 9.50797E-10-6.15781E-10 1.45117E-09 9.72592E-13 9.71674E-11
 -1       814-1.67113E-11 2.43250E-09-1.03695E-09 1.86500E-09 9.10691E-11 1.58760E-10
 -1       815-8.00004E-10 3.50361E-09-9.79919E-10 2.01158E-09 1.78353E-10 4.65455E-11
 -1       816-7.99349E-10 5.51033E-09-2.04940E-09 4.01145E-09-2.67166E-10-2.64899E-10
 -1       817 9.52447E-09 8.02869E-09-7.17257E-09-1.51990E-08 1.75054E-09-1.29771E-09
 -1       818 3.84516E-08-7.31820E-09-1.26196E-08-1.51928E-08 2.19502E-10-9.88727E-10
 -1       819 9.47750E-09 8.60208E-09-7.50168E-09 1.55650E-08-1.53496E-09-1.74376E-09
 -1       820 3.80688E-08-7.39089E-09-1.22719E-08 1.44072E-08 5.92703E-11 1.00708E-10
 -1       821 9.60297E-09 8.36987E-09-7.31750E-09 1.55583E-08 1.65324E-09 1.00351E-09
 -1       822 3.81725E-08-7.06072E-09-1.25952E-08 1.46585E-08 1.60296E-10 7.72950E-10
 -1       823-2.96324E-10 9.10874E-09-4.41180E-09 7.50034E-09 3.10624E-09 1.26352E-09
 -1       824 1.84166E-09 7.62990E-09-5.13082E-09 8.57709E-09 2.71009E-09 6.76502E-10
 -1       825 1.51391E-09 9.03545E-09-6.49301E-09 8.93938E-09 1.51056E-09 1.12725E-09
 -1       826-5.27102E-10 9.53275E-09-5.95178E-09 7.73279E-09 9.65324E-10 4.01553E-10
 -1       827-5.62429E-10 1.01367E-08-6.29017E-09 7.91372E-09 6.18377E-10 4.15628E-10
 -1       828-1.48702E-11 9.86418E-09-6.28314E-09 8.24051E-09-3.56373E-10-7.07008E-10
 -1       829 4.91360E-10 8.89645E-09-6.11144E-09 8.66862E-09-7.07676E-10 3.16956E-11
 -1       830 1.26102E-09 8.62682E-09-5.74555E-09 9.58075E-09-1.79709E-09-1.36150E-09
 -1       831-8.33144E-11 9.54279E-09-5.74672E-09 9.10301E-09-2.70003E-09-9.92217E-10
 -1       832 1.40024E-10 8.93401E-09-4.54338E-09 8.00274E-09-2.81191E-09-7.20470E-10
 -1       833 1.07441E-08 7.51010E-09-7.38986E-09-1.56998E-08-1.74022E-09 1.02069E-09
 -1       834 3.83090E-08-7.28835E-09-1.25023E-08-1.44145E-08-6.67229E-11 8.30453E-10
 -1       835 6.58436E-10 8.14084E-09-4.35526E-09-7.89902E-09-2.60347E-09 9.16007E-10
 -1       836 1.64476E-09 8.16692E-09-5.60233E-09-9.96486E-09-2.28741E-09 1.06966E-09
 -1       837 1.83037E-09 8.89204E-09-6.48250E-09-9.01817E-09-1.88264E-09 1.13028E-09
 -1       838 3.18612E-10 9.08938E-09-5.93876E-09-8.25539E-09-9.05041E-10 5.55090E-10
 -1       839 5.32580E-10 8.97419E-09-5.88922E-09-8.10080E-09-1.09897E-09 1.98064E-10
 -1       840 2.43113E-09 7.97254E-09-6.74543E-09-8.15065E-09 4.03120E-10-4.31911E-10
 -1       841 1.09026E-09 8.14503E-09-5.63649E-09-9.40119E-09 8.58037E-10-2.45306E-10
 -1       842 1.26557E-09 8.71409E-09-6.07529E-09-7.58831E-09 1.95895E-09-9.80658E-10
 -1       843 1.02230E-09 8.59612E-09-5.80507E-09-7.61635E-09 2.83205E-09-1.05440E-09
 -1       844-6.69673E-11 8.96185E-09-4.30978E-09-7.91659E-09 2.86819E-09-1.10357E-09
 -1       845-3.30578E-10 5.06983E-09-2.11846E-09-3.80303E-09-2.58631E-10 6.34492E-11
 -1       846-9.20221E-10 3.69268E-09-1.23119E-09-2.10410E-09 1.62501E-10-2.29380E-10
 -1       847-2.41648E-10 2.41332E-09-1.06876E-09-1.87253E-09 1.72419E-10-1.73213E-10
 -1       848 3.62956E-10 1.19185E-09-7.12144E-10-1.67435E-09-1.11936E-10-3.75888E-11
 -1       849 6.47060E-10 1.28356E-10-3.63202E-10-7.27460E-10-4.79378E-11 1.42182E-11
 -1       850 3.41192E-10 5.96955E-12-1.64535E-10-2.92754E-10-1.18129E-11-3.29864E-12
 -1       851 2.12007E-10-7.39702E-11-6.88503E-11-8.23417E-11-1.31668E-11 1.49416E-12
 -1       852 9.99261E-11-4.05000E-11-2.96529E-11-2.85824E-12-5.29223E-12 2.20364E-12
 -1       853 4.27842E-11-1.39281E-11-1.35002E-11 1.21632E-11-7.56917E-13 9.98400E-13
 -1       854 1.77213E-11-3.74673E-12-6.54501E-12 6.62369E-12-8.70891E-13 7.01925E-13
 -1       855 5.94982E-12-9.30771E-13-2.55201E-12 5.24519E-12-1.56356E-13-9.95831E-15
 -1       856 1.24211E-12 1.18737E-12-1.21627E-12 2.94600E-12-1.01684E-13 2.15522E-13
 -1       857 4.25830E-14 1.19930E-12-5.74108E-13 1.17101E-12 5.97296E-15 4.55583E-14
 -1       858-1.95822E-14 6.32749E-13-2.90277E-13 4.64530E-13 4.90537E-15 4.14634E-14
 -1       859-1.61406E-13 4.38214E-13-1.38783E-13 1.50350E-13-1.40079E-15 2.83329E-14
 -1       860-1.42375E-13 3.36786E-13-9.75106E-14-1.29011E-14-3.01939E-15 1.86930E-14
 -1       861-1.01956E-13 4.21842E-13-1.67824E-13-1.33300E-13 1.26548E-14-2.66889E-15
 -1       862-1.75514E-13 7.27060E-13-2.63031E-13-3.49029E-13-3.90538E-15 2.50394E-14
 -1       863 3.21592E-15 1.07052E-12-5.38868E-13-1.15549E-12 1.21804E-14 1.13475E-13
 -1       864 1.31399E-12 1.03005E-12-1.17048E-12-2.81694E-12 9.21300E-14 2.14629E-13
 -1       865 5.78953E-12-2.26655E-14-2.75818E-12-4.73264E-12 2.09850E-13 2.94610E-13
 -1       866 1.50535E-11-2.11899E-12-5.92707E-12-9.99164E-12 1.06434E-13 4.77610E-13
 -1       867 4.07276E-11-1.46058E-11-1.28037E-11-1.23909E-11 1.80962E-12 1.29968E-12
 -1       868 9.45054E-11-3.95571E-11-2.78013E-11 3.87249E-12 5.46838E-12 2.02235E-12
 -1       869 1.72593E-10-3.97695E-11-6.36058E-11 6.93572E-11 8.89848E-12 1.77062E-12
 -1       870 3.67148E-10-7.62878E-11-1.34339E-10 2.00930E-10 9.75341E-12 6.67858E-12
 -1       871 5.62732E-10 5.10201E-11-2.95162E-10 6.64759E-10 4.13253E-11-1.52973E-11
 -1       872 5.43505E-10 8.86142E-10-7.22681E-10 1.57207E-09 2.11984E-11-8.60293E-11
 -1       873-6.44896E-11 2.33598E-09-1.03631E-09 1.71148E-09-7.91935E-11-2.12561E-10
 -1       874-9.27513E-10 3.84198E-09-1.33710E-09 2.09778E-09-9.10926E-11-2.58842E-10
 -1       875-8.18247E-10 5.36915E-09-2.07181E-09 3.75641E-09 1.63294E-10-2.97458E-11
 -1       876 1.08536E-08-7.36734E-08 2.11126E-08 1.68599E-08 5.27330E-09-2.79216E-09
 -1       877 1.12385E-08-7.38141E-08 2.09946E-08 1.65804E-08-5.22967E-09 2.71710E-09
 -1       878 1.52051E-08-8.28850E-08 2.20271E-08-1.53593E-08-3.71005E-09-1.44022E-09
 -1       879 1.54144E-08-8.28196E-08 2.19698E-08-1.52114E-08 3.62140E-09 1.37763E-09
 -1       880 1.59428E-09-3.13823E-08 1.12943E-08 1.11098E-08-4.09814E-09 4.20323E-12
 -1       881 1.00343E-08-6.47986E-08 1.43737E-08 2.33627E-08-4.12675E-11-1.74882E-10
 -1       882 1.70074E-09-3.09742E-08 1.12387E-08 1.09769E-08 4.22396E-09-7.40967E-11
 -1       883 1.99378E-08-9.86136E-09-4.59354E-09-1.05058E-08-2.58446E-09 5.87218E-09
 -1       884 1.96905E-08-9.95438E-09-4.58058E-09-1.03579E-08 2.68464E-09-5.95259E-09
 -1       885 6.44111E-08-1.38520E-08-1.88572E-08-2.43553E-08 4.51789E-09-5.75273E-09
 -1       886 1.15151E-07-2.77742E-08-3.20352E-08-1.76276E-08-2.87611E-09-1.85618E-09
 -1       887 3.98635E-08-8.79794E-09-1.07515E-08-2.59980E-08 8.54597E-11-1.54048E-10
 -1       888 1.38376E-07-3.43423E-08-3.75959E-08 1.28612E-08-1.70833E-09-3.03013E-09
 -1       889 1.23612E-07-2.65836E-08-3.34172E-08 3.39026E-08 2.11440E-09 5.88545E-09
 -1       890 1.37734E-07-3.77748E-08-3.17375E-08-3.65510E-09 1.23826E-10 2.22430E-10
 -1       891 7.79418E-08-1.59021E-08-2.21460E-08 3.04787E-08-2.14552E-10 9.53176E-09
 -1       892 4.22378E-08-4.68032E-08-1.20707E-09-5.65129E-09 1.22460E-08 3.73747E-09
 -1       893 1.02322E-07-1.94543E-08-2.72239E-08 3.78157E-08-6.78168E-10-3.76961E-10
 -1       894 2.90121E-08-9.33135E-08 1.39228E-08-4.18011E-08 1.08478E-08 1.56822E-09
 -1       895 1.91077E-08-8.84183E-08 2.32589E-08-1.42919E-08-5.41805E-10-4.70601E-09
 -1       896 3.09805E-08-7.39738E-08 5.49244E-09-1.91196E-08 1.14239E-09 7.75086E-10
 -1       897 1.84357E-08-9.01155E-08 2.40507E-08 1.49009E-08 1.10528E-09-4.18997E-09
 -1       898 2.99939E-08-9.34308E-08 1.16305E-08 3.36154E-08-1.16499E-08 9.78916E-10
 -1       899 2.78207E-08-1.00027E-07 1.32480E-08 7.04613E-10-2.03848E-10 8.49828E-10
 -1       900 4.43862E-08-4.73284E-08-1.72447E-09 3.07738E-09-1.02926E-08 2.05566E-09
 -1       901 7.51795E-08-1.84984E-08-2.05707E-08-3.35858E-08-1.96856E-09 9.12731E-09
 -1       902 2.78364E-08-7.33288E-08 3.22095E-09 1.59887E-08-6.42734E-10 2.78465E-10
 -1       903 1.16968E-07-2.28009E-08-3.31366E-08-3.36730E-08-2.89845E-09 6.37664E-09
 -1       904 1.37191E-07-3.37832E-08-3.68501E-08-1.19369E-08 1.70624E-09-2.90139E-09
 -1       905 9.88373E-08-1.91151E-08-2.43818E-08-4.56032E-08-1.34682E-10 3.49853E-10
 -1       906 1.13719E-07-2.74811E-08-3.18271E-08 1.86452E-08 2.66916E-09-1.89796E-09
 -1       907 6.34737E-08-1.38442E-08-1.85275E-08 2.45898E-08-4.49808E-09-5.61486E-09
 -1       908 1.35575E-07-3.69575E-08-3.11463E-08 4.63064E-09-4.85215E-11 7.90003E-11
 -1       909 8.78404E-09-6.83974E-08 1.67606E-08-1.32478E-08-6.61331E-11-9.12850E-11
 -1       910 2.68504E-09-3.74016E-08 1.21129E-08-1.34131E-08 4.09430E-09-8.02413E-10
 -1       911 1.88311E-08-1.01524E-08-3.75803E-09 8.88370E-09 2.51755E-09 6.19738E-09
 -1       912 2.91662E-09-3.70342E-08 1.19434E-08-1.33826E-08-4.30505E-09 6.94472E-10
 -1       913 1.15001E-07-2.73535E-08-3.22342E-08-1.78332E-08 2.86382E-09 1.93814E-09
 -1       914 6.45571E-08-1.39981E-08-1.88579E-08-2.46349E-08-4.44550E-09 5.49923E-09
 -1       915 1.17384E-07-2.13225E-08-3.29812E-08 3.81229E-08-2.69516E-09-7.93828E-09
 -1       916 1.37935E-07-3.37595E-08-3.61807E-08 1.33589E-08 1.90675E-09 3.06723E-09
 -1       917 4.08816E-08-4.83195E-08 1.89342E-11-7.80262E-09-1.09928E-08-3.57045E-09
 -1       918 7.13174E-08-1.58361E-08-1.94635E-08 3.23052E-08-9.66500E-10-1.19892E-08
 -1       919 1.76558E-08-8.41011E-08 2.17372E-08-1.22281E-08 1.75160E-09 5.93063E-09
 -1       920 2.82460E-08-9.31016E-08 1.32295E-08-4.50397E-08-9.10667E-09 6.13200E-10
 -1       921 2.99136E-08-9.41902E-08 1.19382E-08 3.39864E-08 1.07187E-08-5.95334E-10
 -1       922 1.67775E-08-8.87797E-08 2.42686E-08 1.46399E-08-2.15247E-09 4.60265E-09
 -1       923 7.54357E-08-1.84243E-08-2.04868E-08-3.35223E-08 1.68409E-09-8.75871E-09
 -1       924 4.46624E-08-4.78927E-08-1.68991E-09 3.28135E-09 9.73129E-09-1.40968E-09
 -1       925 1.37233E-07-3.36705E-08-3.67462E-08-1.20434E-08-1.65769E-09 3.03544E-09
 -1       926 1.16849E-07-2.31952E-08-3.28668E-08-3.35760E-08 2.78016E-09-5.88382E-09
 -1       927 6.30574E-08-1.42791E-08-1.81751E-08 2.44333E-08 4.44627E-09 5.48188E-09
 -1       928 1.13817E-07-2.73537E-08-3.17900E-08 1.85095E-08-2.58597E-09 2.02292E-09
 -1       929 1.88796E-08-1.01445E-08-3.84391E-09 9.15418E-09-2.54756E-09-6.20045E-09
 -1       930 3.81746E-08-8.42702E-09-9.98719E-09 2.46764E-08-1.29823E-11-1.34712E-10
 -1       931 2.21756E-08-1.19043E-09-4.85413E-12-3.50851E-09 7.13023E-10 4.94741E-09
 -1       932 2.28429E-08-6.94916E-10-3.90109E-12-2.51360E-09-3.68286E-10-5.98400E-09
 -1       933 2.16807E-08-8.07569E-10-3.78956E-10-2.54547E-09 8.05569E-11-6.76205E-10
 -1       934 2.15515E-08-2.55550E-09-1.20048E-12-4.72016E-09 7.75109E-10 3.86884E-09
 -1       935 2.24145E-08-3.21600E-09-1.18892E-10-4.20558E-09-6.23317E-10-5.27614E-09
 -1       936 2.21927E-08-9.65469E-10-4.14754E-12 3.05949E-09-6.46864E-10 4.90368E-09
 -1       937 2.20173E-08-7.97879E-10-3.92759E-10 2.06037E-09-3.84059E-10-4.63371E-10
 -1       938 2.33822E-08-6.88812E-10-7.35461E-10 1.47819E-09 9.22415E-10-6.15568E-09
 -1       939 2.36563E-08-2.48154E-09-2.27934E-11 3.85861E-09 1.12548E-09-7.25735E-09
 -1       940 2.17294E-08-2.07222E-09-1.04832E-12 4.26548E-09-7.30332E-10 4.04571E-09
 -1       941 1.25921E-08-6.80761E-09-1.32541E-10-5.18219E-09 1.15365E-09 2.58260E-09
 -1       942 7.74416E-09-5.32567E-09-1.04152E-10-3.21110E-09 6.25386E-10 1.04870E-09
 -1       943 5.38382E-09-4.53421E-09-9.02735E-13-1.47597E-09 4.00528E-10 5.93855E-10
 -1       944 2.74377E-09-2.29143E-09-2.18536E-11-5.49444E-10 3.01166E-10 1.35379E-10
 -1       945 5.04909E-09-4.64740E-09 1.74304E-11-2.20948E-09 2.27894E-10 3.13769E-10
 -1       946 1.60510E-09-1.52625E-09-1.20590E-13 1.15626E-10 9.90200E-11 9.55716E-11
 -1       947 1.06686E-09-1.07770E-09 2.77448E-13 3.20822E-10 7.88770E-11 5.56117E-11
 -1       948 5.82805E-10-4.86574E-10 2.55451E-12 2.94601E-10 3.99918E-11 4.72167E-11
 -1       949 2.49352E-10-2.12533E-10-7.34466E-12 2.49383E-10 2.75600E-11 5.55361E-12
 -1       950 9.22484E-10-9.42491E-10-2.07600E-13 3.26813E-10 2.53580E-11 1.83476E-11
 -1       951 1.04457E-10-8.09637E-11-2.29027E-12 1.82525E-10 1.79645E-11 4.18653E-12
 -1       952 3.60133E-11-2.14118E-11-2.77535E-12 1.25510E-10 1.03261E-11-6.94681E-13
 -1       953 1.73733E-10-1.65717E-10-3.91887E-14 2.20560E-10-3.14206E-13-1.43787E-14
 -1       954 8.75683E-13 7.34562E-12-7.79987E-13 7.91381E-11 8.19364E-12-8.37445E-14
 -1       955-1.10432E-11 1.53099E-11-9.52508E-13 4.82420E-11 3.38759E-12-1.30676E-12
 -1       956 1.55863E-11-1.45973E-11-1.49435E-14 1.04882E-10 2.57415E-13 7.92594E-14
 -1       957-1.15629E-11 1.58840E-11 1.32952E-13 2.46397E-11 2.73631E-12 2.47236E-13
 -1       958-1.32309E-11 1.32637E-11 3.06240E-15 1.18348E-11 1.34276E-12-6.54049E-13
 -1       959-1.46063E-11 1.41450E-11-5.91589E-15 3.79101E-11 2.54576E-13-2.16038E-14
 -1       960-7.79475E-12 9.35684E-12 4.69576E-14 5.06408E-12 9.89192E-13-1.84419E-13
 -1       961-5.15084E-12 5.72039E-12-1.22088E-13 1.17072E-12 2.75906E-13-3.26601E-13
 -1       962-1.23688E-11 1.19791E-11-1.85070E-15 1.00431E-11 3.39556E-13-1.41140E-13
 -1       963-3.14920E-12 3.49867E-12-3.93991E-14-2.55446E-13 2.19281E-13-2.37401E-13
 -1       964-1.85474E-12 2.03366E-12-3.87116E-14-6.51426E-13 4.89199E-14-1.32214E-13
 -1       965-4.48975E-12 4.57185E-12-7.17126E-16 5.66451E-13-8.45624E-15 1.31533E-14
 -1       966-7.46752E-13 9.15014E-13 4.87407E-16-5.63607E-13 8.20563E-14-7.14057E-14
 -1       967-2.89342E-13 3.68300E-13-1.26950E-14-4.30742E-13 1.78273E-14-5.27570E-14
 -1       968-1.43196E-12 1.42414E-12-3.41020E-16-6.66383E-13 1.23272E-15 2.61967E-15
 -1       969-6.22436E-14 1.13539E-13-8.53605E-15-2.36151E-13 1.31710E-14-3.82803E-14
 -1       970 7.95836E-15 3.06425E-14-5.64682E-15-5.41345E-14 2.36667E-15-2.63042E-14
 -1       971-1.72221E-13 1.85362E-13-1.15763E-16-3.24487E-13-1.31672E-15 3.98390E-15
 -1       972-1.47268E-14 5.70792E-14-9.17414E-15 1.21693E-13 2.93818E-15-3.61398E-14
 -1       973-1.90740E-13 2.75948E-13-6.18227E-16 3.53304E-13-2.98458E-14-5.48592E-14
 -1       974-5.66429E-13 6.38557E-13-1.38278E-14 5.79896E-13-9.44396E-15-6.69342E-14
 -1       975-1.14503E-12 1.29916E-12-1.55218E-14 6.86478E-13-7.61947E-14-1.28039E-13
 -1       976-4.59037E-13 4.46186E-13-1.15111E-16 5.04033E-13-2.00209E-15-3.39983E-15
 -1       977-2.12035E-12 2.38017E-12-4.95989E-14 5.53102E-13-8.90224E-14-1.66794E-13
 -1       978-3.47384E-12 3.88779E-12-5.24696E-14-6.01883E-14-2.04685E-13-2.17987E-13
 -1       979-1.78710E-12 1.80683E-12-2.80340E-16 6.06091E-13-2.26777E-15-1.42700E-16
 -1       980-5.36927E-12 6.06866E-12-1.44507E-13-1.59832E-12-3.62312E-13-3.66864E-13
 -1       981-7.86690E-12 9.45791E-12 2.16637E-14-5.89939E-12-1.03738E-12-1.76246E-13
 -1       982-5.02753E-12 4.90179E-12 1.88393E-14-1.04836E-12-5.78524E-14 1.49956E-13
 -1       983-1.28354E-11 1.41114E-11-2.50551E-13-1.41619E-11-1.07682E-12-8.66109E-13
 -1       984-1.42279E-11 1.71929E-11-2.56567E-13-2.71740E-11-3.39667E-12-7.69639E-13
 -1       985-1.22099E-11 1.17610E-11-2.52438E-15-1.06568E-11-1.53485E-13-6.12758E-14
 -1       986-1.01502E-11 1.54298E-11-9.99322E-13-4.91865E-11-3.84513E-12-1.24891E-12
 -1       987 3.95259E-12 5.23415E-12-1.02902E-12-8.13507E-11-7.90929E-12 3.07732E-15
 -1       988-1.38964E-11 1.36739E-11-6.40496E-15-3.92443E-11-2.42595E-13-2.16261E-14
 -1       989 4.25790E-11-2.80579E-11-3.06854E-12-1.28573E-10-1.16275E-11 6.99755E-14
 -1       990 1.55452E-10-1.19755E-10 5.17547E-13-1.96996E-10-1.99817E-11 1.55080E-11
 -1       991 3.48930E-10-3.20019E-10-5.50503E-12-3.02376E-10-3.05440E-11 4.49927E-12
 -1       992 6.73018E-10-6.08531E-10-5.04046E-12-3.45118E-10-6.50169E-11 4.53806E-11
 -1       993 2.37931E-10-2.48818E-10-6.69644E-14-2.68912E-10-2.87088E-12 1.20610E-12
 -1       994 1.18253E-09-1.09271E-09-2.19907E-11-2.56553E-10-7.65547E-11 4.60252E-11
 -1       995 1.89820E-09-1.76886E-09-1.45326E-11 4.85850E-11-1.12378E-10 1.28677E-10
 -1       996 8.85212E-10-9.13221E-10-1.47658E-13-2.96403E-10-2.75915E-12 2.25066E-12
 -1       997 3.29364E-09-2.99288E-09-3.06096E-11 8.77451E-10-1.80965E-10 1.19115E-10
 -1       998 6.21511E-09-5.07808E-09-8.28125E-13 2.19694E-09-4.28981E-10 7.02756E-10
 -1       999 2.44523E-09-2.52551E-09-3.18108E-13 5.01987E-10-9.59425E-12 1.17365E-11
 -1      1000 1.14409E-08-6.82906E-09 3.61707E-12-4.30582E-09-9.62168E-10-1.95273E-09
 -1      1001 1.53739E-08-6.69205E-09 4.12398E-12-5.68331E-09-1.20964E-09-3.32769E-09
 -1      1002 1.28479E-09-1.19456E-09-2.84251E-11 2.60978E-10-5.24875E-11-4.27472E-11
 -1      1003 2.08948E-09-1.97713E-09-1.87414E-11-1.45213E-10-1.09585E-10-1.44394E-10
 -1      1004 3.46097E-10-2.77702E-10-2.77147E-12 2.62663E-10-3.30913E-11-1.31108E-12
 -1      1005 6.99519E-10-6.44395E-10-8.06651E-12 3.52878E-10-5.88634E-11-4.67997E-11
 -1      1006 5.16179E-11-3.33915E-11-2.25988E-12 1.35197E-10-1.22501E-11-2.57660E-12
 -1      1007 1.29886E-10-1.03378E-10-3.11963E-12 1.93310E-10-1.80801E-11-7.38554E-12
 -1      1008-6.98097E-12 1.36089E-11-7.61356E-13 5.45791E-11-4.47014E-12 1.06246E-13
 -1      1009 8.79670E-12 1.50835E-12-1.33913E-12 8.85972E-11-8.04457E-12-1.14646E-12
 -1      1010-1.28605E-11 1.49652E-11-2.54616E-13 1.66122E-11-1.25566E-12 2.95776E-13
 -1      1011-1.36872E-11 1.70992E-11-4.51554E-13 3.11106E-11-3.32046E-12 3.18454E-13
 -1      1012-5.93930E-12 7.19568E-12-4.15578E-14 2.64616E-12-3.97071E-13 4.26092E-13
 -1      1013-1.04764E-11 1.14585E-11-1.67533E-13 7.67930E-12-1.26004E-12 4.00621E-13
 -1      1014-2.14856E-12 2.49316E-12-2.52725E-14-4.87737E-13-1.61639E-13 1.51207E-13
 -1      1015-3.68429E-12 4.14116E-12-6.24946E-14 1.69465E-13-3.03546E-13 2.04823E-13
 -1      1016-5.16028E-13 6.84038E-13 4.96013E-18-5.34209E-13-3.19865E-14 4.86618E-14
 -1      1017-1.23121E-12 1.30862E-12 3.76378E-16-7.52446E-13-7.61170E-14 1.16665E-13
 -1      1018-1.87063E-13 2.15760E-13 1.52433E-16-3.64360E-13-8.87606E-15 3.85309E-14
 -1      1019 1.70292E-14 1.03572E-14 2.59991E-17 8.13021E-14 2.68083E-15 2.87850E-14
 -1      1020-1.75981E-14 8.50002E-14-7.66545E-17-1.42636E-13-1.14221E-14 3.77300E-14
 -1      1021-3.13188E-13 3.78846E-13-9.98242E-15 4.52700E-13 3.19062E-14 5.67353E-14
 -1      1022-5.13115E-14 1.38528E-13-1.52409E-15 2.42167E-13 3.12961E-15 3.88111E-14
 -1      1023-1.40244E-12 1.57245E-12-2.59110E-14 6.33009E-13 1.02120E-13 1.13944E-13
 -1      1024-7.13644E-13 8.34529E-13-1.27867E-14 5.91491E-13 4.51597E-14 7.15129E-14
 -1      1025-5.00218E-12 5.27748E-12 2.56344E-17-3.83958E-13 3.15946E-13 2.60179E-13
 -1      1026-2.61026E-12 3.11647E-12-1.10463E-14 2.53170E-13 1.00142E-13 1.94593E-13
 -1      1027-1.04630E-11 1.14279E-11-1.38584E-13-7.88357E-12 1.30377E-12 4.72825E-13
 -1      1028-6.57830E-12 7.95589E-12-1.49882E-14-2.85697E-12 4.41953E-13 4.80192E-13
 -1      1029-1.33679E-11 1.68019E-11-4.95159E-13-3.10787E-11 3.24968E-12 4.14770E-13
 -1      1030-1.25695E-11 1.46975E-11-2.60121E-13-1.66790E-11 1.40608E-12 5.36936E-13
 -1      1031 1.09046E-11-1.11242E-12-1.44611E-12-8.96448E-11 7.70183E-12-1.05466E-12
 -1      1032-7.07791E-12 1.34193E-11-8.75227E-13-5.41895E-11 4.35174E-12 3.21764E-13
 -1      1033 1.81603E-10-1.62032E-10-2.23671E-12-2.43576E-10 2.83048E-11-1.33470E-11
 -1      1034 7.56894E-11-4.89119E-11-1.08297E-12-1.48012E-10 1.23803E-11 2.07301E-12
 -1      1035 7.25133E-10-6.57378E-10-8.21984E-12-3.35049E-10 5.97048E-11-4.64216E-11
 -1      1036 3.96002E-10-3.54062E-10-6.06208E-12-3.04269E-10 3.11729E-11-1.18573E-11
 -1      1037 1.98822E-09-1.86363E-09-2.64928E-11 1.25819E-10 9.54811E-11-1.19924E-10
 -1      1038 1.25499E-09-1.15250E-09-2.08613E-11-2.21662E-10 7.17235E-11-5.59578E-11
 -1      1039 6.82231E-09-5.40927E-09-9.58556E-13 2.45619E-09 4.55610E-10-7.71370E-10
 -1      1040 3.54806E-09-3.21942E-09-2.09078E-11 1.35304E-09 2.47396E-10-7.57013E-11
 -1      1041 2.10251E-08-5.00605E-09-3.10502E-10-5.76283E-09 1.88375E-09 6.06476E-09
 -1      1042 1.72025E-08-6.61121E-09-1.82000E-10-6.23282E-09 1.41721E-09 4.21495E-09
 -1      1043 2.13582E-09-1.87450E-09-5.73900E-11-3.88769E-10-2.31444E-10 1.76055E-10
 -1      1044-2.92697E-14 2.15193E-14 9.55583E-16 6.76819E-14-1.16514E-14 3.10402E-15
 -1      1045 2.01540E-11-1.77620E-11-1.62921E-14-1.07109E-10-4.39904E-13 1.00278E-13
 -1      1046 9.77510E-09-5.89853E-09-2.50299E-10 4.08535E-09-8.80745E-10 1.63849E-09
 -1      1047 1.45129E-08-7.13271E-09-1.07600E-10 5.58811E-09-1.40959E-09 3.22724E-09
 -1      1048 1.84003E-08-6.30476E-09-1.73546E-10 6.45554E-09-1.36505E-09 4.28593E-09
 -1      1049 2.11862E-08-4.46919E-09-8.32406E-11 5.58752E-09-1.54055E-09 5.81987E-09
 -1      1050 1.99887E-08-3.77888E-09-3.16495E-11 5.20473E-09-1.00138E-10 7.49043E-10
 -1      1051 1.49814E-08-6.55042E-09-2.01031E-10 5.67673E-09-7.80924E-10 2.08244E-09
 -1      1052 1.97860E-08-3.60894E-09-1.55048E-10 5.30765E-09 3.76147E-10-2.06353E-09
 -1      1053 2.24651E-08-4.01259E-09-3.61837E-12 5.76033E-09 1.56934E-09-7.07023E-09
 -1      1054 1.97669E-08-6.19041E-09-2.88275E-10 6.55397E-09 1.25167E-09-4.80529E-09
 -1      1055 1.83938E-08-5.47167E-09 1.59027E-12 6.17246E-09-4.16766E-12-4.45422E-11
 -1      1056 2.45453E-09-2.61989E-09-2.22088E-13-5.11211E-10-3.49048E-11-4.58805E-11
 -1      1057 3.43470E-09-3.19259E-09-6.46407E-11-1.10140E-09-2.88086E-10-2.35181E-10
 -1      1058 6.53733E-09-5.06690E-09-9.81675E-11-2.51423E-09-5.52045E-10-8.89492E-10
 -1      1059 3.54218E-09-3.10590E-09-2.48816E-11-1.73266E-09 9.19951E-11-1.27915E-11
 -1      1060 1.30588E-08-6.50853E-09-1.89866E-10-5.05508E-09 4.93798E-10 1.28516E-09
 -1      1061 1.55260E-08-7.16181E-09-2.42494E-10 5.70435E-09 1.56494E-09-3.43800E-09
 -1      1062 1.04840E-08-6.32166E-09-1.74080E-10 4.28538E-09 9.49619E-10-1.88205E-09
 -1      1063 7.32692E-09-5.57922E-09-6.42017E-11 3.41314E-09-1.65702E-10 5.88964E-10
 -1      1064 1.51783E-08-6.57950E-09-1.55959E-10 5.99467E-09 8.00431E-10-2.04533E-09
 -1      1065 8.62351E-09-6.30266E-09 1.53564E-10-3.92559E-09-3.97526E-11-7.15223E-10
 -1      1066 1.94242E-08-5.40835E-09-2.90352E-10-5.87560E-09-1.55610E-09-4.90733E-09
 -1      1067 1.81234E-08-4.87324E-09-7.34986E-11-5.78999E-09-4.75409E-10-1.67244E-09
 -1      1068 5.74114E-09-4.57534E-09-6.21679E-11-3.50034E-09-3.18139E-10 2.71037E-10
 -1      1069 1.93641E-08-4.27735E-09-9.83758E-11-5.45196E-09 5.51112E-11 4.70080E-10
 -1      1070 1.11752E-08-6.76927E-09 1.54097E-13-4.80096E-09-6.00540E-11-1.69972E-10
 -1      1071 1.51419E-08-6.34276E-09-8.32936E-11 5.87030E-09-2.50226E-10 7.86327E-10
 -1      1072 1.51928E-08-6.39042E-09-7.97262E-11 6.02525E-09 3.02724E-10-8.99080E-10
 -1      1073 1.11782E-08-6.45827E-09-6.79507E-12 5.29676E-09 3.56827E-10-7.77291E-10
 -1      1074 1.09667E-08-6.31427E-09-2.96029E-11 5.12270E-09-2.51624E-10 5.88629E-10
 -1      1075 8.35760E-09-6.20908E-09-3.28391E-12 3.65338E-09 9.20138E-12-2.71663E-11
 -1      1076 7.84563E-09-5.82276E-09-5.00999E-11 3.59746E-09 1.66723E-10-6.54755E-10
 -1      1077 1.53791E-08-6.03479E-09-2.24510E-11-5.93024E-09-6.71162E-11-7.13636E-11
 -1      1078 4.34722E-08 1.73156E-08-1.98577E-08-6.41108E-08 6.52097E-09-5.63106E-09
 -1      1079 4.30923E-08 1.77835E-08-1.98889E-08-6.40132E-08-5.93404E-09 4.72284E-09
 -1      1080 2.71869E-08 3.03939E-08-2.07357E-08 5.94412E-08-1.15646E-09 1.19569E-09
 -1      1081 2.60481E-08 2.91379E-08-2.17250E-08 5.63565E-08-5.78002E-10-2.43966E-09
 -1      1082 2.07151E-08-2.69396E-09-9.23288E-09 1.39061E-08-6.46122E-10-2.18344E-09
 -1      1083 2.14486E-08-2.68799E-09-9.56687E-09 1.53524E-08 6.30030E-10 2.31002E-09
 -1      1084 3.57110E-08 1.57948E-08-1.92490E-08-5.17301E-08 4.08148E-10-4.81307E-10
 -1      1085 1.71450E-08-9.98287E-09-4.87682E-09 8.43725E-11-4.47534E-10 5.85388E-09
 -1      1086-1.43668E-08-4.79343E-09 6.19815E-09 2.16782E-08-2.30440E-09 2.30853E-09
 -1      1087 1.78194E-08-1.01688E-08-5.10955E-09 3.46215E-11 9.75323E-10-6.23819E-09
 -1      1088-1.40916E-08-5.18082E-09 6.28169E-09 2.18094E-08 2.81787E-09-2.82212E-09
 -1      1089-6.05357E-08 2.30176E-08 1.54869E-08-1.79507E-08-1.97335E-09 2.49908E-10
 -1      1090-7.26070E-08 3.09320E-08 1.67425E-08 6.12472E-09-2.88872E-10 2.40020E-09
 -1      1091 1.43566E-08-2.23010E-09-3.59039E-09 1.01375E-08-1.76351E-10 3.75875E-09
 -1      1092 3.01855E-09-5.99051E-09 1.59340E-09-6.90266E-09 2.61019E-09 2.64549E-09
 -1      1093-2.25312E-08 7.08727E-08-1.91401E-08 5.57692E-09 1.75840E-09-2.98724E-10
 -1      1094-1.66078E-08 6.39970E-08-1.85412E-08 2.70562E-08 7.53864E-10 4.01553E-10
 -1      1095 1.02365E-08 1.37229E-08-1.04714E-08-2.75904E-08-2.23882E-09-1.80037E-09
 -1      1096-4.52628E-09 4.07287E-08-1.50031E-08-3.26743E-08-1.98304E-09 1.92834E-09
 -1      1097-7.31459E-08 3.14394E-08 1.66177E-08-7.48915E-09 4.21851E-10 2.56796E-09
 -1      1098-6.11901E-08 2.34983E-08 1.54637E-08 1.75524E-08 1.97699E-09 3.16012E-10
 -1      1099-7.82898E-09-7.42502E-09 4.56088E-09-1.38078E-08-3.27080E-09-1.45936E-09
 -1      1100-7.26713E-08 3.07333E-08 1.67657E-08 6.23722E-09 4.12933E-10-2.31358E-09
 -1      1101-6.06168E-08 2.27669E-08 1.55210E-08-1.77806E-08 1.94740E-09-3.53888E-10
 -1      1102 2.80461E-09-5.75410E-09 1.72708E-09-6.93232E-09-2.24364E-09-2.42011E-09
 -1      1103 1.38677E-08-2.14346E-09-3.41533E-09 1.01162E-08 3.68052E-10-3.60985E-09
 -1      1104-1.66827E-08 6.36575E-08-1.81671E-08 2.68144E-08-6.27440E-10-3.93034E-10
 -1      1105-2.25603E-08 7.07264E-08-1.88517E-08 5.53820E-09-1.39835E-09 2.93760E-10
 -1      1106-4.67939E-09 4.07934E-08-1.49868E-08-3.23957E-08 1.86003E-09-1.82065E-09
 -1      1107 1.01537E-08 1.40688E-08-1.05035E-08-2.75585E-08 2.15869E-09 1.79831E-09
 -1      1108-6.10525E-08 2.31502E-08 1.55888E-08 1.74504E-08-1.87879E-09-4.26154E-10
 -1      1109-7.24548E-08 3.06897E-08 1.64678E-08-7.69189E-09-5.89566E-10-2.97027E-09
 -1      1110-7.75541E-09-7.29842E-09 4.71104E-09-1.41995E-08 3.59930E-09 8.24331E-10
 -1      1111-6.18842E-08 1.89297E-08 1.46397E-08-2.64823E-08-2.94537E-09-1.80147E-09
 -1      1112-5.82758E-08 2.03870E-08 1.39174E-08-1.55834E-08-1.32973E-09 5.75089E-10
 -1      1113-3.22616E-08-2.29749E-09 1.22145E-08-3.27492E-08 5.16248E-10-1.71537E-09
 -1      1114 1.43360E-08-1.35859E-09-3.81559E-09-1.02926E-08 2.59759E-10 3.72542E-09
 -1      1115 1.11132E-08 6.73400E-09-6.62694E-09-1.87570E-08-2.22759E-10 1.13812E-10
 -1      1116 3.10362E-09-5.74889E-09 1.62628E-09 6.02671E-09-2.28434E-09 2.55460E-09
 -1      1117-2.23580E-08 7.02721E-08-1.91660E-08-4.87152E-09-1.62138E-09-6.73021E-10
 -1      1118-2.38033E-08 6.47656E-08-1.82090E-08-3.12379E-12 1.22438E-10 1.86140E-11
 -1      1119-1.75535E-08 6.49906E-08-1.85008E-08-2.52658E-08-7.63510E-10 2.48343E-10
 -1      1120-3.61787E-08 5.29741E-09 1.10704E-08-2.57149E-08 3.19066E-09 2.64469E-09
 -1      1121-4.31298E-08 1.14400E-08 1.24178E-08-2.07815E-08 5.88206E-11 1.72652E-10
 -1      1122-1.39283E-08-5.34599E-09 7.15452E-09-1.81863E-08 6.55037E-10 3.48925E-09
 -1      1123-6.27549E-08 1.86422E-08 1.53330E-08 2.55089E-08 2.31290E-09-2.10143E-09
 -1      1124-3.99015E-08 2.33428E-09 1.35970E-08 3.07343E-08 4.17077E-10-2.64691E-09
 -1      1125-7.09406E-09-3.81284E-09 4.55848E-09-1.17574E-08 2.38635E-10 2.51022E-10
 -1      1126-2.82947E-08 2.04610E-10 9.39026E-09 2.29574E-08 3.15448E-10-3.33187E-10
 -1      1127-7.88319E-09 4.46978E-08-1.29125E-08 3.03557E-08 2.53137E-10 1.57758E-10
 -1      1128-3.35002E-09 3.89651E-08-1.48941E-08 3.12381E-08 2.54005E-09 2.71599E-09
 -1      1129 1.14439E-08 1.24109E-08-1.00851E-08 2.85782E-08 2.54882E-09-4.60363E-10
 -1      1130-3.56925E-09 3.90710E-08-1.48252E-08 3.10075E-08-2.19970E-09-2.41381E-09
 -1      1131-1.41837E-08 5.16586E-08-1.32751E-08-2.65581E-08-6.62343E-11 1.53964E-10
 -1      1132-4.33512E-08 1.14666E-08 1.25760E-08 2.06415E-08-1.77178E-11 8.51380E-11
 -1      1133-3.62257E-08 5.45843E-09 1.10533E-08 2.56808E-08-3.22193E-09 2.56510E-09
 -1      1134-1.31815E-08-5.74547E-09 7.13498E-09 1.76217E-08-5.69205E-10 3.41281E-09
 -1      1135-3.60243E-08 5.52990E-09 1.10520E-08 2.53915E-08 3.21446E-09-2.44820E-09
 -1      1136-1.71181E-08-1.73140E-09 4.29990E-09-1.92266E-08 2.47666E-10-9.27396E-11
 -1      1137-6.26401E-08 1.87033E-08 1.52015E-08 2.52195E-08-2.17297E-09 1.76192E-09
 -1      1138-5.81327E-08 1.94721E-08 1.47426E-08 1.54236E-08 1.49784E-10-6.62916E-11
 -1      1139-3.60105E-08 5.47053E-09 1.08982E-08-2.52948E-08-3.18220E-09-2.41379E-09
 -1      1140 1.29970E-08 5.25105E-09-6.75755E-09 1.98839E-08 2.38901E-10 2.07055E-10
 -1      1141-3.98090E-08 2.50284E-09 1.32122E-08 3.04497E-08-3.78169E-10 2.28978E-09
 -1      1142 1.11850E-08 1.28359E-08-1.00369E-08 2.84891E-08-2.36127E-09 6.66104E-10
 -1      1143-1.40423E-08-5.05820E-09 6.90134E-09-1.78672E-08-6.84532E-10-3.17402E-09
 -1      1144-2.23082E-08 7.00600E-08-1.89676E-08-4.84833E-09 1.58780E-09 6.19957E-10
 -1      1145 1.39718E-08-1.31551E-09-3.59167E-09-1.03007E-08-4.50664E-10-3.65430E-09
 -1      1146-1.75604E-08 6.48013E-08-1.82734E-08-2.51206E-08 8.44291E-10-2.68700E-10
 -1      1147-5.89063E-08 1.79962E-08 1.43306E-08-2.35461E-08 7.13912E-10 2.46411E-10
 -1      1148 2.98329E-09-5.76726E-09 1.71745E-09 6.01517E-09 2.07262E-09-2.40213E-09
 -1      1149-1.32568E-08-5.62206E-09 6.95512E-09 1.74778E-08 6.02819E-10-3.20695E-09
 -1      1150-4.07657E-08 3.23161E-09 1.28184E-08-3.29836E-08-1.24949E-09 9.11985E-11
 -1      1151-7.39919E-09-4.03980E-09 5.09808E-09 1.12836E-08-1.47836E-10 1.88327E-10
 -1      1152 3.62596E-08-1.04783E-08-1.08400E-08 3.05831E-09-2.93790E-10-1.25461E-09
 -1      1153 3.15311E-08-9.42258E-09-9.59639E-09 1.35395E-09 1.41126E-11-4.60345E-10
 -1      1154 3.16668E-08-9.41240E-09-9.78320E-09 1.31396E-09 2.09124E-11-7.31528E-10
 -1      1155 3.22753E-08-9.65592E-09-9.75205E-09 1.26595E-09 3.31876E-12-2.19504E-11
 -1      1156 3.18759E-08-9.56355E-09-9.64974E-09 1.23472E-09 3.73855E-12-9.32488E-11
 -1      1157 3.40443E-08-1.01992E-08-1.02142E-08 1.38420E-09-9.99851E-12 1.38474E-11
 -1      1158 3.35706E-08-1.00495E-08-1.00732E-08 1.33021E-09 3.23521E-12 2.06092E-11
 -1      1159 3.53488E-08-1.06294E-08-1.05424E-08 1.56021E-09 6.31584E-11-3.69718E-11
 -1      1160 3.49421E-08-1.04770E-08-1.04146E-08 1.44340E-09 3.46091E-11 9.66424E-12
 -1      1161 3.54811E-08-1.06247E-08-1.06708E-08 1.64632E-09 6.96966E-11-1.62765E-10
 -1      1162 8.96590E-08-2.13822E-08-2.06072E-08-3.09913E-08-1.47602E-09 1.72899E-09
 -1      1163 3.85933E-08-1.09085E-08-1.12012E-08 4.31458E-09 7.58706E-11-5.79404E-10
 -1      1164 3.76596E-08-1.15021E-08-1.07457E-08 3.26233E-09 5.54290E-11-1.09915E-10
 -1      1165 3.67867E-08-1.11981E-08-1.06184E-08 3.11918E-09-2.83929E-11-6.08807E-10
 -1      1166 3.74381E-08-1.12972E-08-1.04930E-08 3.59381E-09-1.91652E-10-5.18739E-10
 -1      1167 3.45466E-08-1.06051E-08-1.06063E-08 1.98072E-09-4.86076E-11-8.27531E-10
 -1      1168 3.80083E-08-1.13284E-08-1.04692E-08 3.96413E-09 4.27201E-11-5.65454E-11
 -1      1169 3.80377E-08-1.15419E-08-1.03682E-08 3.48583E-09-1.04285E-10-2.76889E-10
 -1      1170 3.48390E-08-1.07638E-08-1.05796E-08 1.91820E-09 3.72697E-12-4.52888E-10
 -1      1171 3.81311E-08-1.15429E-08-1.03520E-08 3.90344E-09 3.14795E-11 4.97235E-11
 -1      1172 3.75881E-08-1.18421E-08-1.01418E-08 3.24419E-09-3.28104E-11 5.10229E-11
 -1      1173 3.44418E-08-1.07930E-08-1.03480E-08 1.33272E-09-2.86965E-11-1.60477E-10
 -1      1174 3.74392E-08-1.18481E-08-1.01986E-08 3.40018E-09 3.25766E-11 3.65261E-11
 -1      1175 3.80732E-08-1.16055E-08-1.04305E-08 3.50158E-09-9.10916E-11 1.88027E-10
 -1      1176 3.55721E-08-1.11707E-08-1.04873E-08 2.07066E-09 1.00514E-11-5.18099E-11
 -1      1177 3.81528E-08-1.15585E-08-1.03917E-08 3.39647E-09 9.70543E-13 1.65972E-10
 -1      1178 3.79141E-08-1.14134E-08-1.04209E-08 3.71498E-09 2.68666E-11 3.77495E-11
 -1      1179 3.50862E-08-1.09995E-08-1.05399E-08 1.75817E-09-4.19753E-11 2.97474E-10
 -1      1180 3.80486E-08-1.12288E-08-1.05590E-08 3.51661E-09 4.97188E-11 2.99527E-10
 -1      1181 3.80990E-08-1.11682E-08-1.07803E-08 3.74475E-09 8.28563E-11 5.49480E-10
 -1      1182 3.46048E-08-1.07154E-08-1.04730E-08 1.29570E-09-6.41146E-11 4.13198E-10
 -1      1183 3.86760E-08-1.13249E-08-1.08415E-08 3.68675E-09 8.77023E-11 7.16824E-10
 -1      1184 3.83999E-08-1.11217E-08-1.12093E-08 3.35285E-09-2.61572E-10 4.51208E-10
 -1      1185 3.49502E-08-1.05067E-08-1.07662E-08 1.46280E-09-1.77722E-12 7.91008E-10
 -1      1186 3.77444E-08-1.20357E-08-1.10977E-08 4.07615E-09-2.65204E-10 4.82778E-10
 -1      1187 3.66653E-08-1.08055E-08-1.13212E-08 4.46444E-09 4.61465E-10 1.21576E-09
 -1      1188 3.33028E-08-1.03189E-08-1.00980E-08 1.95853E-09-9.74131E-11 6.39631E-10
 -1      1189 3.46781E-08-1.02664E-08-1.07791E-08 1.88778E-09 2.61908E-10 9.78585E-10
 -1      1190 9.11031E-08-2.16186E-08-2.36241E-08-2.23153E-08 2.45844E-09-3.60490E-09
 -1      1191 3.13421E-08-9.35423E-09-9.56849E-09 1.30811E-09-2.87314E-13 3.58001E-10
 -1      1192 3.16396E-08-9.44510E-09-9.63942E-09 1.21228E-09 1.96831E-11 2.30730E-10
 -1      1193 3.18949E-08-9.52589E-09-9.68045E-09 1.26736E-09-1.34171E-11 9.47482E-11
 -1      1194 3.23117E-08-9.65383E-09-9.76422E-09 1.27665E-09 2.77097E-12 2.07988E-11
 -1      1195 3.18926E-08-9.43873E-09-9.85030E-09 1.24759E-09-3.81503E-12 2.73304E-10
 -1      1196 3.27499E-08-9.79675E-09-9.84207E-09 1.28981E-09-8.15203E-12-3.28280E-11
 -1      1197 3.31785E-08-9.91560E-09-9.97188E-09 1.31421E-09-1.78391E-13-3.11978E-11
 -1      1198 3.25267E-08-9.70157E-09-9.84234E-09 1.29751E-09-1.37614E-11 1.18999E-11
 -1      1199 3.35635E-08-1.00403E-08-1.00756E-08 1.32745E-09-9.11354E-12-2.11552E-11
 -1      1200 3.40470E-08-1.01851E-08-1.02137E-08 1.36576E-09-9.39831E-13-3.73070E-12
 -1      1201 3.53882E-08-1.09541E-08-1.09802E-08 2.69585E-09 3.39858E-10-4.84222E-10
 -1      1202 4.95922E-08-1.59281E-08-1.70972E-08-3.12875E-09-2.39283E-10-7.83608E-10
 -1      1203 3.16733E-08-9.48021E-09-9.61794E-09 1.12929E-09-8.16907E-12-2.09593E-10
 -1      1204 3.13832E-08-9.37907E-09-9.55948E-09 1.19692E-09 3.00917E-11-3.18832E-10
 -1      1205 3.31151E-08-9.89944E-09-9.95473E-09 1.30697E-09 2.64816E-12 3.04423E-11
 -1      1206 3.26810E-08-9.76683E-09-9.83485E-09 1.27561E-09 1.50866E-11 3.67069E-11
 -1      1207 3.43672E-08-1.02631E-08-1.03017E-08 1.38259E-09-2.15474E-12 5.67681E-12
 -1      1208 3.17073E-08-9.36096E-09-9.83141E-09 1.36236E-09 5.37899E-11-5.96026E-10
 -1      1209 3.26070E-08-1.00435E-08-9.83162E-09 1.71414E-09 2.21743E-11 8.57358E-10
 -1      1210 3.15901E-08-9.58681E-09-9.60384E-09 1.43321E-09-4.76219E-11 4.64092E-10
 -1      1211 3.32606E-08-9.93760E-09-9.99186E-09 1.32503E-09-3.03918E-12 1.48553E-11
 -1      1212-9.63873E-11 2.35904E-09-2.39989E-09 7.83923E-10-3.90571E-11-2.68394E-11
 -1      1213-4.99411E-10 2.74126E-09-2.38773E-09 7.62796E-10-2.91041E-10-1.44689E-10
 -1      1214-2.17175E-10 2.37030E-09-1.98921E-09 9.82906E-10-1.34776E-10-9.63901E-11
 -1      1215 3.24393E-08-9.69655E-09-9.81205E-09 1.26478E-09 9.48040E-12-3.24656E-11
 -1      1216 3.18271E-08-9.46755E-09-9.76040E-09 1.16943E-09 8.00939E-12-2.69763E-10
 -1      1217 3.17998E-08-9.38273E-09-9.92726E-09 1.34966E-09-3.31386E-11 6.96316E-10
 -1      1218 3.20518E-08-9.47144E-09-9.97343E-09 1.27806E-09 1.18294E-11-9.86099E-11
 -1      1219 3.18127E-08-9.35292E-09-1.00339E-08 1.19072E-09-2.27806E-12-3.21488E-10
 -1      1220 3.86929E-08-1.35336E-08-1.29976E-08-1.18456E-09-2.35377E-10 8.02719E-10
 -1      1221 3.31490E-08-1.00554E-08-1.04005E-08 1.56490E-09 2.00909E-11-6.30286E-10
 -1      1222 3.32600E-08-1.00333E-08-1.04222E-08 1.52511E-09 4.03275E-11-4.49232E-10
 -1      1223 3.39497E-08-1.03723E-08-1.04998E-08 1.36926E-09-6.91260E-11-5.34750E-10
 -1      1224 3.39883E-08-1.04409E-08-1.05346E-08 1.39424E-09 1.15480E-11-5.02545E-11
 -1      1225 3.28044E-08-9.84429E-09-1.03785E-08 1.36718E-09 5.76363E-11-4.19535E-10
 -1      1226 3.37950E-08-1.02911E-08-1.04627E-08 1.60578E-09-1.38943E-11-9.15212E-11
 -1      1227 3.37946E-08-1.04075E-08-1.04871E-08 1.64799E-09 1.73182E-11 5.30416E-11
 -1      1228 3.31580E-08-9.95655E-09-1.04907E-08 1.44924E-09-2.62281E-11-1.66398E-10
 -1      1229 3.34580E-08-1.00403E-08-1.05225E-08 1.45872E-09 1.29001E-11 2.88840E-10
 -1      1230 3.33060E-08-9.99566E-09-1.05135E-08 1.40954E-09 5.71723E-11 3.82013E-10
 -1      1231 3.29798E-08-9.70884E-09-1.04902E-08 1.35219E-09-4.99731E-11 1.44938E-10
 -1      1232 3.38093E-08-1.03707E-08-1.05054E-08 1.36350E-09-8.67502E-11 3.16276E-10
 -1      1233 3.35622E-08-1.01593E-08-1.05038E-08 9.76757E-10 2.56963E-11 7.39281E-10
 -1      1234 3.27794E-08-9.72388E-09-1.03771E-08 1.35408E-09 6.71403E-11 5.23693E-10
 -1      1235 3.20051E-08-9.40549E-09-1.01387E-08 1.26036E-09 3.42838E-12 2.44528E-10
 -1      1236 3.20849E-08-9.45761E-09-1.00157E-08 1.29847E-09-2.71331E-12 1.24809E-11
 -1      1237 3.24846E-08-9.69408E-09-9.85297E-09 1.27558E-09-2.10267E-12 2.30607E-11
 -1      1238 3.28683E-08-9.82905E-09-9.89254E-09 1.30412E-09 2.01022E-12-1.30377E-11
 -1      1239 3.33251E-08-9.96266E-09-1.00026E-08 1.33241E-09-1.50347E-12-1.50200E-11
 -1      1240 3.29148E-08-9.99392E-09-1.02057E-08 1.38438E-09 2.26677E-11 9.31210E-10
 -1      1241 3.19966E-08-9.45572E-09-1.01027E-08 1.33022E-09 1.00343E-11 6.14543E-10
 -1      1242 3.29215E-08-9.85618E-09-1.02687E-08 1.64178E-09-4.53592E-11-8.04000E-10
 -1      1243 3.23126E-08-9.64832E-09-1.01399E-08 1.43566E-09 1.79934E-11-7.16811E-10
 -1      1244 3.36232E-08-1.02740E-08-1.03723E-08 1.35398E-09 2.56483E-11-1.02774E-09
 -1      1245 3.28619E-08-9.79027E-09-1.03315E-08 1.66914E-09-9.75840E-11-1.00393E-09
 -1      1246 3.20389E-08-9.44340E-09-1.01873E-08 1.21641E-09 6.13522E-12 4.48748E-10
 -1      1247 3.33243E-08-1.00829E-08-1.04442E-08 1.08798E-09 6.29279E-11 8.95783E-10
 -1      1248 3.34050E-08-1.01772E-08-1.04795E-08 1.08441E-09 2.46055E-11 9.91475E-10
 -1      1249 3.31547E-08-1.05434E-08-1.04314E-08 1.17256E-09-9.82965E-11 9.38198E-10
 -1      1250 3.18418E-08-9.34794E-09-1.00413E-08 1.31783E-09 1.95001E-11-5.21178E-10
 -1      1251 3.21023E-08-9.52272E-09-9.87509E-09 1.24054E-09-7.53420E-13-2.02588E-11
 -1      1252 3.21452E-08-9.45541E-09-1.02379E-08 1.32276E-09-1.18880E-11-3.52995E-10
 -1      1253-3.20103E-10 2.24722E-09-1.32379E-09 9.08574E-10-1.84591E-10-1.84399E-11
 -1      1254-8.47749E-11 2.27039E-09-1.31993E-09 1.32592E-09 2.95301E-11 5.87932E-11
 -1      1255-1.16579E-10 2.19858E-09-1.08913E-09 1.36004E-09-2.18923E-11 1.45927E-10
 -1      1256 3.22704E-08-9.49878E-09-1.03511E-08 1.33188E-09-1.47797E-12-2.20087E-10
 -1      1257 3.23402E-08-9.53281E-09-1.03653E-08 1.34562E-09-1.14511E-11-5.09974E-11
 -1      1258 3.22435E-08-9.45429E-09-1.03590E-08 1.20197E-09-1.16002E-11 1.17276E-10
 -1      1259 3.56281E-08-1.04241E-08-1.07707E-08-3.46681E-09 3.04750E-10-1.09355E-09
 -1      1260 3.19631E-08-9.69955E-09-9.75762E-09-1.70955E-09-2.85642E-11-6.93996E-10
 -1      1261 3.17075E-08-9.53830E-09-9.62731E-09-1.48227E-09-8.32168E-11-3.41326E-10
 -1      1262 3.12805E-08-9.34742E-09-9.53306E-09-1.25696E-09-4.46453E-11-2.96878E-10
 -1      1263 3.15375E-08-9.48411E-09-9.57113E-09-1.22992E-09 2.86639E-12-1.79283E-10
 -1      1264 3.17006E-08-9.44355E-09-9.80114E-09-1.20562E-09 3.88975E-11-6.60535E-10
 -1      1265 3.29902E-08-9.86180E-09-9.92135E-09-1.30056E-09-1.82248E-11 5.86893E-11
 -1      1266 3.35474E-08-1.00386E-08-1.00691E-08-1.35035E-09-1.16658E-11 3.22119E-11
 -1      1267 3.40858E-08-1.01907E-08-1.02425E-08-1.38357E-09-9.48897E-12 1.56227E-11
 -1      1268 3.46589E-08-1.03555E-08-1.03994E-08-1.40872E-09 2.79413E-12-4.30601E-12
 -1      1269 3.38030E-08-1.01116E-08-1.01496E-08-1.36018E-09 6.58812E-12 2.49084E-12
 -1      1270 3.53436E-08-1.06149E-08-1.05608E-08-1.54833E-09 9.05115E-12 2.65497E-11
 -1      1271 3.56802E-08-1.08498E-08-1.06467E-08-1.97812E-09-8.82644E-11-1.23983E-10
 -1      1272 3.51777E-08-1.05675E-08-1.08599E-08-1.81515E-09 1.49801E-10-5.52949E-10
 -1      1273 4.08652E-08-1.16943E-08-1.47489E-08 1.67868E-09 8.09664E-11 6.31478E-10
 -1      1274 3.85988E-08-1.21849E-08-1.08707E-08-4.88232E-09 5.83150E-11-8.07372E-10
 -1      1275 3.77122E-08-1.11751E-08-1.12189E-08-4.62580E-09 3.67346E-10-7.86818E-10
 -1      1276 3.82472E-08-1.11238E-08-1.03708E-08-4.21559E-09 5.58636E-11 1.28840E-11
 -1      1277 3.76554E-08-1.09963E-08-1.06048E-08-3.57916E-09-2.63044E-10-4.39448E-10
 -1      1278 3.79094E-08-1.12306E-08-1.02495E-08-3.76193E-09 2.82496E-10 1.08140E-10
 -1      1279 3.93536E-08-1.16583E-08-1.03163E-08-4.42796E-09 3.24460E-11 2.80058E-12
 -1      1280 3.81177E-08-1.29170E-08-1.05694E-08-4.75132E-09-1.20056E-11 3.59404E-10
 -1      1281 3.82260E-08-1.20567E-08-1.04457E-08-4.83206E-09-1.78836E-10 4.89804E-10
 -1      1282 3.52521E-08-1.03908E-08-1.06449E-08-3.14664E-09-3.63943E-10 1.18420E-09
 -1      1283 3.14461E-08-9.55407E-09-9.53898E-09-1.27944E-09-3.38370E-11 3.76376E-10
 -1      1284 3.15681E-08-9.51486E-09-9.65940E-09-1.40784E-09 4.38120E-11 5.85007E-10
 -1      1285 3.29519E-08-9.86931E-09-9.90734E-09-1.27887E-09 1.94454E-11-4.18388E-11
 -1      1286 3.24319E-08-9.71006E-09-9.76281E-09-1.23404E-09 2.32203E-11-2.24549E-11
 -1      1287 3.44179E-08-1.02906E-08-1.03326E-08-1.42264E-09-7.84523E-12-2.75734E-11
 -1      1288 3.38692E-08-1.01293E-08-1.01759E-08-1.36198E-09 4.59124E-12-2.64379E-11
 -1      1289 3.35998E-08-1.02451E-08-1.01845E-08-2.33053E-09-1.06824E-10-8.52948E-10
 -1      1290 3.36237E-08-1.00918E-08-1.03078E-08-2.16540E-09-9.00799E-12 8.64374E-10
 -1      1291 3.26828E-08-9.50076E-09-1.02479E-08-1.88246E-09 7.87817E-12 8.11768E-10
 -1      1292 3.27510E-08-9.94590E-09-1.01781E-08-1.67107E-09-8.82817E-14-1.06605E-09
 -1      1293 3.20364E-08-9.57244E-09-9.70470E-09-1.24330E-09-2.17286E-11-6.27719E-11
 -1      1294 3.24615E-08-9.71677E-09-9.79882E-09-1.26499E-09-1.96941E-12 1.43026E-11
 -1      1295 3.51981E-08-1.05262E-08-1.05253E-08-1.46037E-09 2.64625E-11-2.91475E-11
 -1      1296 3.81777E-08-1.21064E-08-1.02306E-08-4.56524E-09 3.65050E-10 1.34118E-10
 -1      1297 3.54299E-08-1.06013E-08-1.05624E-08-2.34876E-09-3.40011E-12 2.68991E-10
 -1      1298 3.93517E-08-1.27115E-08-1.04227E-08-5.85018E-09-1.08425E-10-9.81075E-11
 -1      1299 3.79732E-08-1.22173E-08-1.04687E-08-4.32437E-09-6.06236E-10-2.40915E-11
 -1      1300 3.86241E-08-1.28861E-08-1.07221E-08-5.09112E-09-1.51658E-10-5.90659E-10
 -1      1301 3.89512E-08-1.14722E-08-1.03297E-08-4.14781E-09 7.83969E-11-3.52514E-10
 -1      1302 3.81767E-08-1.12449E-08-1.02099E-08-3.75101E-09-6.88455E-11 3.13221E-10
 -1      1303 3.55676E-08-1.10548E-08-1.04648E-08-2.69493E-09 1.26633E-10 4.95106E-10
 -1      1304 3.52618E-08-1.09156E-08-1.05428E-08-2.63949E-09-5.36525E-11-8.35750E-10
 -1      1305 3.45516E-08-1.06676E-08-1.02667E-08-1.28346E-09 5.08580E-11 1.05137E-10
 -1      1306 3.19965E-08-9.61698E-09-9.68696E-09-1.20301E-09-6.56281E-12 8.61127E-11
 -1      1307 3.16056E-08-9.48252E-09-9.61039E-09-1.28077E-09 1.04998E-11 2.32894E-10
 -1      1308 3.45651E-08-1.03673E-08-1.06358E-08-2.10829E-09 1.25106E-10-6.55221E-10
 -1      1309 3.48349E-08-1.05787E-08-1.05284E-08-1.44928E-09 4.02802E-11-1.14899E-10
 -1      1310 3.16732E-08-9.45670E-09-9.77198E-09-1.14215E-09-2.12544E-11 4.77637E-10
 -1      1311 3.22716E-08-9.70428E-09-9.81621E-09-1.20694E-09 1.47113E-11 9.18209E-11
 -1      1312 3.27244E-08-9.79761E-09-9.88032E-09-1.24561E-09-9.63217E-12 4.99916E-12
 -1      1313 3.38457E-08-9.88605E-09-1.05643E-08-1.70492E-09 4.08437E-11 3.72423E-10
 -1      1314 3.38415E-08-1.00537E-08-1.05320E-08-1.72931E-09-6.39462E-13 2.39525E-10
 -1      1315 3.28973E-08-1.01230E-08-1.02376E-08-1.49676E-09-5.04817E-11-7.84357E-10
 -1      1316 8.06236E-08-2.22267E-08-2.14937E-08 2.51083E-08-1.64272E-10-8.28662E-10
 -1      1317 3.74011E-08-1.10946E-08-1.10526E-08-4.54018E-09-1.74076E-10 8.01402E-10
 -1      1318 3.28606E-08-9.79804E-09-1.04428E-08-1.46326E-09 6.60236E-11-6.88629E-10
 -1      1319 3.18883E-08-9.50527E-09-9.97391E-09-1.20264E-09 5.61138E-11-7.41784E-10
 -1      1320 3.36984E-08-1.03709E-08-1.04575E-08-1.51395E-09 3.65567E-12 1.72410E-10
 -1      1321 3.35655E-08-1.02125E-08-1.05283E-08-1.09094E-09-4.70814E-11 1.71596E-11
 -1      1322 3.27143E-08-9.60215E-09-1.04671E-08-1.15826E-09 6.60451E-11 1.37452E-10
 -1      1323 3.19180E-08-9.46494E-09-1.00064E-08-1.12206E-09 2.07102E-12-4.50294E-10
 -1      1324 3.32242E-08-1.00329E-08-1.04116E-08-1.65634E-09-1.29560E-10-5.08861E-10
 -1      1325 3.19292E-08-9.53480E-09-9.78601E-09-1.12727E-09-2.27140E-12-2.26081E-10
 -1      1326 3.36366E-08-9.88829E-09-1.04411E-08-1.75629E-09 3.22039E-11 5.15928E-10
 -1      1327 3.25738E-08-9.56057E-09-1.03708E-08-1.26319E-09-5.23435E-11 4.93854E-10
 -1      1328 3.33520E-08-9.72930E-09-1.03795E-08-2.04130E-09-7.78323E-12 6.39421E-10
 -1      1329 3.21294E-08-9.45912E-09-1.01673E-08-1.45825E-09 1.71039E-12 6.91720E-10
 -1      1330 3.37066E-08-1.02106E-08-1.05142E-08-1.15526E-09 4.28750E-11-1.20993E-10
 -1      1331 3.37853E-08-1.03872E-08-1.05404E-08-1.60696E-09 2.59859E-11-3.27419E-10
 -1      1332 3.25541E-08-9.68307E-09-1.03438E-08-1.31936E-09-7.10808E-11-4.01755E-10
 -1      1333 3.29383E-08-9.83815E-09-1.05742E-08-1.23301E-09 3.55918E-11-1.61973E-10
 -1      1334 3.17931E-08-9.36510E-09-1.00123E-08-1.19072E-09 9.90653E-12-3.11834E-10
 -1      1335 3.20770E-08-9.42573E-09-1.00085E-08-1.18297E-09 5.29772E-12-1.27955E-10
 -1      1336 3.33049E-08-9.96960E-09-1.00033E-08-1.31553E-09 6.09977E-12-4.07861E-11
 -1      1337 3.20155E-08-9.37434E-09-1.01990E-08-1.29039E-09-1.01490E-11-3.47342E-10
 -1      1338 3.19260E-08-9.37135E-09-1.00395E-08-1.19161E-09-2.00207E-11 9.48448E-11
 -1      1339 3.21364E-08-9.58535E-09-9.88427E-09-1.18297E-09 1.15783E-11 6.27343E-11
 -1      1340 3.28883E-08-9.86970E-09-9.89746E-09-1.24994E-09-5.05672E-12 5.32842E-12
 -1      1341 3.25059E-08-9.73875E-09-9.84071E-09-1.24067E-09 1.54074E-12-3.57988E-11
 -1      1342 3.18774E-08-9.46769E-09-1.00067E-08-1.14105E-09 9.68583E-12 2.93528E-10
 -1      1343 3.17972E-08-9.40094E-09-1.00331E-08-1.21826E-09-6.69679E-12 5.84019E-10
 -1      1344 3.24102E-08-9.55233E-09-1.03750E-08-1.20698E-09 5.12088E-11 1.61919E-10
 -1      1345 3.23642E-08-9.49592E-09-1.03651E-08-1.07504E-09-2.97984E-11 3.46766E-10
 -1      1346 3.21591E-08-9.40327E-09-1.03312E-08-1.29496E-09-1.12543E-11-2.60722E-10
 -1      1347 3.22009E-08-9.42045E-09-1.03570E-08-1.27352E-09-1.15907E-11-1.25679E-11
 -1      1348 3.23044E-08-9.54844E-09-1.02744E-08-1.25699E-09-1.98224E-11 5.49356E-10
 -1      1349 3.20258E-08-9.38628E-09-1.02384E-08-1.21489E-09 1.47530E-12 1.15771E-10
 -1      1350 2.74549E-09 4.04143E-09-2.58943E-09-6.45118E-09-1.33302E-10 2.20476E-10
 -1      1351 4.79616E-09 5.31648E-09-4.27126E-09-9.80829E-09 6.41930E-12 4.56625E-10
 -1      1352 1.19458E-09 1.72603E-09-1.23727E-09-3.07262E-09-5.92709E-11 7.35098E-11
 -1      1353 9.73204E-10 2.34205E-09-1.37501E-09-3.29353E-09-4.10758E-11 3.49176E-11
 -1      1354 1.71422E-09-5.93634E-10-3.84924E-10-1.01108E-09-8.89385E-11-1.11789E-10
 -1      1355 1.73004E-09-2.05121E-11-6.36416E-10-1.69320E-09-1.07943E-10-8.82289E-11
 -1      1356 8.03069E-10-3.71345E-10-1.56715E-10-9.18409E-11-3.07909E-11-4.46397E-11
 -1      1357 1.01384E-09-1.46337E-10-3.22084E-10-5.08104E-10-3.89275E-11-5.15314E-11
 -1      1358 3.14324E-10-1.24180E-10-7.23419E-11 4.98519E-11-1.83588E-11-1.68822E-11
 -1      1359 4.80302E-10-1.29719E-10-1.27271E-10-6.56207E-11-1.05234E-11-2.88287E-11
 -1      1360 2.02260E-10-9.18841E-11-3.74082E-11 8.48369E-11-1.48506E-11-6.37618E-12
 -1      1361 6.07058E-11-1.25046E-11-1.64353E-11 5.74047E-11-6.12695E-12-2.51125E-12
 -1      1362 1.16566E-10-3.27808E-11-3.11311E-11 4.91782E-11-8.27381E-12-4.21833E-12
 -1      1363 1.36357E-11 6.43558E-12-7.00163E-12 2.72942E-11-2.63852E-12-5.28059E-13
 -1      1364 3.84568E-11-1.85936E-12-1.36504E-11 3.05612E-11-3.59639E-12-1.40363E-12
 -1      1365 3.84425E-13 7.47383E-12-2.76888E-12 1.03198E-11-9.91554E-13 2.87974E-14
 -1      1366 1.03786E-11 5.39263E-12-5.99543E-12 1.44954E-11-1.51748E-12-3.57090E-13
 -1      1367-9.09535E-13 4.35709E-12-1.19446E-12 3.11467E-12-5.01469E-13 1.53904E-13
 -1      1368 1.48344E-12 4.63498E-12-2.23189E-12 5.48156E-12-5.52219E-13-1.45003E-13
 -1      1369-1.60082E-12 3.63081E-12-6.88856E-13 1.78265E-12-2.63076E-13 1.49006E-13
 -1      1370-7.59377E-13 1.68231E-12-3.57736E-13 8.75840E-14-8.75152E-14 4.73115E-14
 -1      1371-5.78554E-13 2.17347E-12-5.84137E-13 8.48082E-13-1.60072E-13 8.78088E-14
 -1      1372-2.75542E-13 6.81361E-13-1.51499E-13-9.63724E-14-6.41516E-15 4.49897E-14
 -1      1373-3.38153E-13 9.82540E-13-2.41930E-13 8.75695E-14-1.82132E-14 6.14979E-14
 -1      1374-7.17264E-14 2.91363E-13-6.67954E-14-6.84173E-14-6.10227E-15 3.44989E-14
 -1      1375-9.29234E-14 4.18444E-13-1.18869E-13-2.02362E-14 4.90885E-16 2.15637E-14
 -1      1376-6.01496E-14 2.71149E-13-7.43021E-14-5.94012E-14-9.14600E-16 3.50842E-14
 -1      1377-9.43015E-14 4.12425E-13-1.10000E-13 2.70452E-14 2.53220E-14 1.90653E-14
 -1      1378-7.29710E-14 2.78930E-13-6.53412E-14 8.35714E-14 6.24865E-15 3.04597E-14
 -1      1379-3.21912E-13 1.00878E-12-2.55736E-13-1.12864E-13 5.73107E-14 4.30413E-14
 -1      1380-2.85552E-13 6.71115E-13-1.33020E-13 1.45075E-13 3.33786E-14 3.32380E-14
 -1      1381-7.73020E-13 2.25038E-12-4.95711E-13-7.80725E-13 1.60440E-13 1.13346E-13
 -1      1382-8.44845E-13 1.71679E-12-2.98020E-13-2.40762E-13 9.04585E-14 8.38211E-14
 -1      1383-1.29597E-13 2.82379E-12-9.31361E-13-1.91734E-12 2.66108E-13 2.40065E-13
 -1      1384 1.77413E-12 4.83457E-12-2.31981E-12-5.64894E-12 6.16932E-13-1.45539E-13
 -1      1385-1.42387E-12 4.53898E-12-1.00030E-12-3.16013E-12 4.33219E-13 2.69303E-13
 -1      1386 1.01010E-11 5.18418E-12-5.72737E-12-1.42099E-11 1.38258E-12-2.79214E-13
 -1      1387 6.12157E-13 7.30725E-12-2.73690E-12-1.03164E-11 1.02519E-12 7.67500E-14
 -1      1388 3.68420E-11-1.72555E-12-1.31631E-11-2.96531E-11 3.22303E-12-9.74568E-13
 -1      1389 1.32408E-11 6.38251E-12-6.81414E-12-2.67673E-11 2.52574E-12-3.79797E-13
 -1      1390 1.09741E-10-3.20653E-11-2.89786E-11-5.62931E-11 8.71856E-12-5.15993E-12
 -1      1391 6.33526E-11-1.73344E-11-1.58047E-11-5.67412E-11 6.31199E-12-1.23048E-12
 -1      1392 1.90399E-10-5.16915E-11-5.08071E-11-3.16384E-11 6.64960E-12-1.04799E-11
 -1      1393 4.80267E-10-1.37450E-10-1.28971E-10 6.00769E-11 1.76419E-11-2.49686E-11
 -1      1394 3.11021E-10-1.39825E-10-5.95541E-11-7.26870E-11 1.73738E-11-1.46638E-11
 -1      1395 1.01543E-09-2.18852E-10-2.94397E-10 4.62396E-10 3.87440E-11-5.31168E-11
 -1      1396 7.91179E-10-3.65585E-10-1.51200E-10 8.20125E-11 3.23813E-11-4.47965E-11
 -1      1397 7.84648E-10 2.33833E-09-1.23566E-09 3.24911E-09 3.37353E-11 4.04834E-11
 -1      1398 1.16186E-09 1.62913E-09-1.17007E-09 3.04087E-09 6.03502E-11-6.17649E-12
 -1      1399 4.65940E-09 5.49957E-09-4.25815E-09 9.62746E-09-4.09750E-11 5.90217E-10
 -1      1400 2.34993E-09 3.96738E-09-2.29134E-09 6.18011E-09-4.08648E-11-7.44597E-11
 -1      1401 8.83848E-09 2.60500E-09-5.09104E-09-9.75515E-09 5.32812E-10-5.82504E-10
 -1      1402 1.84697E-08 1.32838E-09-8.40257E-09-1.41712E-08 1.20228E-09-9.59770E-10
 -1      1403 2.66420E-08-1.44499E-09-1.12925E-08-1.18276E-08 8.52382E-12-7.45550E-10
 -1      1404 3.12243E-08-5.99054E-09-1.09917E-08-5.94019E-09-5.48868E-10-2.32241E-10
 -1      1405 1.86515E-08 9.36543E-10-8.63626E-09 1.37757E-08-6.54708E-10-1.12552E-09
 -1      1406 8.34412E-09 2.85249E-09-4.95491E-09 9.94683E-09-4.94680E-10-3.57510E-10
 -1      1407 3.10806E-08-5.88559E-09-1.06382E-08 6.30868E-09 4.29049E-10 4.01890E-10
 -1      1408 2.70242E-08-1.93935E-09-1.09265E-08 1.07985E-08-1.96067E-10-9.65634E-10
 -1      1409 3.26839E-08-7.44140E-09-1.08448E-08-5.96282E-09 1.17735E-10 2.41278E-10
 -1      1410 3.05205E-08-8.07077E-09-9.88536E-09-3.46213E-09-1.23408E-10 2.79778E-10
 -1      1411 3.17857E-08-8.81072E-09-9.66327E-09-2.68607E-09 1.29868E-10 9.56188E-11
 -1      1412 3.17219E-08-9.08194E-09-9.67572E-09-2.13352E-09 4.12782E-11 1.26277E-10
 -1      1413 2.96340E-08-6.94727E-09-9.86211E-09-3.84417E-09-1.55316E-10 1.80291E-10
 -1      1414 3.29216E-08-9.84923E-09-9.88333E-09-7.91059E-10 5.04383E-12-5.37827E-12
 -1      1415 3.34086E-08-1.00300E-08-1.00064E-08-8.26824E-10-6.11761E-12-9.19211E-12
 -1      1416 3.38513E-08-1.01761E-08-1.01443E-08-5.95012E-10-7.36537E-12-9.58236E-13
 -1      1417 3.43975E-08-1.03336E-08-1.03060E-08-6.97887E-10-4.02718E-12 9.77836E-12
 -1      1418 3.38224E-08-1.02161E-08-1.01042E-08-1.41258E-10 3.32290E-12-5.71146E-12
 -1      1419 3.52865E-08-1.06256E-08-1.04871E-08 9.49163E-11-1.17997E-11 5.69013E-11
 -1      1420 3.63589E-08-1.11019E-08-1.07279E-08 5.43084E-12 7.13025E-11 1.59596E-10
 -1      1421 3.71733E-08-1.17462E-08-1.08378E-08-2.41784E-10-2.50273E-11 3.25783E-10
 -1      1422 4.09345E-08-9.74487E-09-1.26844E-08 1.21153E-09-3.64753E-10-5.11696E-12
 -1      1423 3.12487E-08-7.95088E-09-9.90185E-09 4.08513E-09 2.08910E-10 2.08482E-10
 -1      1424 3.25805E-08-7.35428E-09-1.10426E-08 6.14135E-09 8.68801E-11 5.01319E-10
 -1      1425 3.20908E-08-9.53459E-09-9.64683E-09 1.28617E-09-3.10423E-11 2.19477E-11
 -1      1426 3.21414E-08-9.41025E-09-9.69898E-09 1.50803E-09-3.74821E-11 5.95475E-11
 -1      1427 3.34260E-08-1.00324E-08-1.00251E-08 8.75907E-10-6.74050E-13-1.74737E-11
 -1      1428 3.30429E-08-9.92021E-09-9.90349E-09 8.51630E-10-1.59628E-12-2.02520E-11
 -1      1429 1.57428E-08 3.27848E-08-2.12586E-08-2.96824E-08 2.70011E-09-4.57664E-09
 -1      1430 1.77888E-08 5.94366E-09-1.66265E-08-9.96589E-09-9.50173E-10-4.52841E-09
 -1      1431 3.39634E-08-3.99907E-08-3.69335E-09-4.24967E-09 2.30596E-09-1.16793E-10
 -1      1432 4.90344E-08-1.38338E-08-1.29909E-08-2.41485E-08 2.42464E-09 4.90672E-09
 -1      1433 3.21876E-08-1.59462E-08-6.40910E-09 7.49771E-09-1.85516E-09-2.68388E-09
 -1      1434 5.88138E-08-2.43949E-08-1.46616E-08-1.64557E-08 3.63231E-10-2.75792E-09
 -1      1435 1.53282E-08 5.38681E-10-7.35706E-09-3.16202E-09-1.21703E-09-2.42256E-09
 -1      1436 2.08295E-08-4.11099E-09-8.31050E-09-1.22508E-08-1.99817E-09 3.84561E-10
 -1      1437 1.05789E-08 1.92538E-09-7.34804E-09 7.31359E-09-1.87687E-09 1.13779E-09
 -1      1438 2.32961E-08-1.64485E-08-3.18426E-09-4.01858E-09-3.09960E-10 1.84498E-09
 -1      1439 6.81953E-09-3.72242E-09-2.13633E-09-5.50512E-09 3.43925E-10 1.88396E-09
 -1      1440 2.58397E-08-1.33684E-08-5.47853E-09 1.19327E-08 1.05233E-09 1.89191E-09
 -1      1441-1.36691E-09 3.66638E-09-1.25523E-10 1.47927E-08 3.64929E-09-2.19985E-10
 -1      1442 1.16982E-08-1.72766E-08 2.13146E-09 9.39681E-09 2.01790E-09-4.05371E-10
 -1      1443-1.18186E-08 1.34504E-08-1.96508E-10 5.99156E-11-2.23357E-10-3.01429E-09
 -1      1444-4.24209E-09 6.30720E-10 1.35138E-10 1.38584E-08-9.98275E-10-1.63247E-09
 -1      1445-4.72473E-09 1.12229E-09 2.73336E-10-1.38892E-08 7.78601E-10-1.57996E-09
 -1      1446 1.24708E-08-1.79536E-08 2.77186E-09-9.34853E-09-2.04997E-09-6.81785E-10
 -1      1447-1.11591E-09 3.29982E-09 5.86117E-11-1.45361E-08-3.11018E-09-1.22172E-09
 -1      1448 2.39509E-08-1.66528E-08-3.53115E-09 3.56881E-09 3.62310E-10 1.97773E-09
 -1      1449 2.63336E-08-1.32778E-08-6.00012E-09-1.20336E-08-6.92551E-10 2.01633E-09
 -1      1450 6.62178E-09-3.30528E-09-2.29990E-09 5.29188E-09-2.63918E-10 1.71256E-09
 -1      1451 1.01977E-08 2.80067E-09-8.00248E-09-8.89654E-09 2.11335E-09 1.24610E-09
 -1      1452 2.04098E-08-3.81159E-09-8.42132E-09 1.23417E-08 2.07231E-09 3.56742E-10
 -1      1453 3.67438E-08-1.48440E-08-1.10091E-08-7.19335E-09 3.09392E-09 9.02676E-10
 -1      1454 1.30599E-08 3.50158E-09-9.95843E-09 3.28958E-09-1.12251E-09-1.05318E-09
 -1      1455 6.15680E-08-2.74924E-08-1.56986E-08 1.88982E-08 7.62893E-10-3.55121E-09
 -1      1456 4.85858E-08-2.48155E-08-3.26310E-09 2.53162E-08-1.39219E-09 2.32252E-09
 -1      1457 4.56207E-08-4.55830E-08-3.91292E-09 1.10079E-08-2.94157E-09 3.88248E-09
 -1      1458 2.98505E-08-3.99236E-09-1.02641E-08 4.83499E-12-2.18343E-10-3.18953E-09
 -1      1459 2.91699E-08-5.02548E-09-1.00949E-08-1.44999E-09-2.83112E-10-1.85599E-09
 -1      1460 1.24403E-08-2.67610E-09-3.45499E-09-6.54687E-09-2.99770E-10-1.95256E-09
 -1      1461 7.86222E-09-2.19309E-09-1.78628E-09-5.16842E-09-2.44756E-10-1.27171E-09
 -1      1462 1.60619E-09-6.05014E-10-3.72643E-10 9.15236E-10 7.55205E-11-1.04451E-10
 -1      1463 2.92949E-09-8.71522E-10-8.33494E-10 2.51858E-09 1.52911E-10-1.88637E-10
 -1      1464 5.93837E-09-2.04515E-09-1.07550E-09 4.02127E-09 4.02859E-10-9.68828E-10
 -1      1465 1.02521E-08-3.34106E-09-2.86932E-09 5.77744E-09 1.57397E-10-1.04849E-09
 -1      1466 1.57846E-08-4.20889E-09-3.78565E-09 6.45144E-09 9.56916E-10-2.28488E-09
 -1      1467 2.54363E-08-6.14363E-09-7.17406E-09 3.52458E-09 5.78213E-10-3.27733E-09
 -1      1468 2.88312E-08-4.73412E-09-6.23774E-09 2.43526E-09 5.25543E-10-6.41811E-09
 -1      1469 3.04070E-08-4.57038E-09-7.42101E-09 1.65958E-09 9.71703E-10-6.83190E-09
 -1      1470 3.06292E-08-3.58003E-09-8.97643E-09-1.54846E-10 5.88332E-10-5.82159E-09
 -1      1471 1.43671E-08-1.29376E-08 4.19632E-09 1.38384E-08-4.65137E-09 6.12467E-10
 -1      1472 1.79575E-08-9.74474E-09 6.35216E-10-1.66920E-08 1.25574E-09 4.47544E-10
 -1      1473-1.37386E-09-4.04102E-09 4.63165E-09 1.94798E-09-2.51677E-10 6.74828E-10
 -1      1474 3.52027E-09 1.14146E-09-1.90043E-09-5.35788E-09 1.67324E-10-1.70959E-10
 -1      1475 1.63433E-09 3.29816E-09-1.91228E-09-4.73812E-09 4.54895E-11-1.40342E-10
 -1      1476 2.98471E-09-1.03182E-09-7.74794E-10-2.33683E-09-1.59430E-10-8.72719E-11
 -1      1477 5.47306E-09 6.28703E-10-2.92316E-09 5.93241E-09-1.49752E-10-7.75341E-11
 -1      1478 1.77878E-09-1.74768E-10-6.09654E-10 1.55251E-09 1.57018E-10-1.82610E-10
 -1      1479 7.33471E-10 4.47293E-09-2.07852E-09 4.62323E-09 2.52743E-11 2.78281E-10
 -1      1480 6.08491E-10 3.63668E-09-1.60233E-09 3.99615E-09-2.32436E-11 1.65462E-10
 -1      1481 2.63930E-08-2.78080E-09-1.01603E-08-5.29505E-09-4.15882E-10 9.38233E-11
 -1      1482 1.21156E-08-7.63874E-11-5.32583E-09 9.99434E-09-3.53752E-10 9.54147E-11
 -1      1483 3.24966E-08-9.62071E-09-9.76851E-09-1.06520E-09-3.27645E-11 2.61349E-11
 -1      1484 3.29679E-08-9.78088E-09-9.91583E-09-5.70599E-10 1.66416E-11 1.31768E-11
 -1      1485 3.22070E-08-9.42673E-09-9.69322E-09-1.32185E-09 3.74723E-11 5.39360E-11
 -1      1486 3.48931E-08-1.05910E-08-1.03855E-08 8.34994E-10 6.72415E-12 4.44412E-11
 -1      1487 2.65246E-08-3.00643E-09-1.00811E-08 5.22302E-09 8.70045E-11 1.21198E-10
 -1      1488 2.51846E-08 2.35199E-09-1.36284E-08 5.19596E-09 6.96182E-10-1.56022E-09
 -1      1489 2.37984E-08 2.34944E-08-2.05851E-08 2.24985E-08-5.31062E-09-1.73128E-10
 -1      1490 3.16726E-08-9.08858E-09-9.60055E-09 2.23153E-09-8.31648E-12 1.05643E-10
 -1      1491 3.20224E-08-8.88800E-09-9.79535E-09 2.88958E-09-5.09364E-11 7.56985E-11
 -1      1492 3.27456E-08-9.79619E-09-9.81381E-09 1.01655E-09 3.76145E-13-3.05509E-11
 -1      1493 3.23869E-08-9.67797E-09-9.69857E-09 1.05513E-09-1.67970E-11 1.03422E-12
 -1      1494 3.42589E-08-1.03018E-08-1.02698E-08 7.29842E-10 3.18276E-12-2.69312E-12
 -1      1495 3.38281E-08-1.01644E-08-1.01414E-08 6.81941E-10 1.31665E-11-1.49902E-11
 -1      1496 5.51142E-09-2.11324E-09-8.49538E-10-3.68117E-09-4.46962E-10-7.81423E-10
 -1      1497 4.04796E-09 3.12663E-09-3.06077E-09 7.22233E-09-4.42964E-10 1.84972E-10
 -1      1498 2.85489E-08-5.55922E-09-1.10382E-08 6.29142E-11 1.48779E-12-7.33004E-10
 -1      1499 2.79366E-08-5.82549E-09-9.28072E-09 6.77735E-11-9.75470E-11 2.92584E-10
 -1      1500 1.25195E-08-4.06229E-10-5.43855E-09-1.00520E-08 3.06087E-10-4.25557E-12
 -1      1501 2.42571E-08-2.89682E-09-9.32751E-09-8.66157E-09 1.90490E-10-1.42708E-10
 -1      1502 2.48321E-08-4.02997E-09-9.61746E-09-2.58506E-09-1.60775E-10-5.79659E-11
 -1      1503 2.16576E-08-4.05500E-09-7.28442E-09-6.09933E-09 2.54391E-10 2.29141E-10
 -1      1504 2.43864E-08-3.12952E-09-9.23097E-09 8.81162E-09-4.48225E-10-8.08099E-10
 -1      1505 2.09248E-08-3.83467E-09-7.37846E-09 6.49047E-09-3.22111E-10-1.34278E-10
 -1      1506 2.49559E-08-4.08654E-09-8.90262E-09 2.81371E-09 9.42658E-11-4.49508E-13
 -1      1507 3.00437E-08-7.14328E-09-9.92081E-09 4.07190E-09 1.62434E-11 1.97155E-11
 -1      1508 3.25175E-08-9.57590E-09-9.80470E-09 1.05738E-09-1.52588E-11 2.87619E-11
 -1      1509 3.38628E-08-1.02321E-08-1.01229E-08 2.63387E-10 6.42189E-13-7.77759E-12
 -1      1510 1.96834E-08-6.04196E-09-5.66375E-09-6.29841E-09-1.67273E-10-1.37568E-09
 -1      1511 1.18697E-08-1.32897E-09-4.31981E-09-7.79875E-09 8.85151E-11-1.01825E-10
 -1      1512 3.31869E-08-9.98857E-09-9.93627E-09 6.01194E-10-1.98665E-11-9.54291E-12
 -1      1513 3.16929E-08-8.88262E-09-9.77780E-09 2.09033E-09 2.75309E-11 5.75377E-11
 -1      1514 2.59526E-08-5.09083E-09-8.90911E-09-4.44245E-09-3.57039E-10-1.86218E-09
 -1      1515 2.26102E-09 3.71128E-09-2.22438E-09-5.36135E-09-1.22966E-10-1.59931E-10
 -1      1516 2.62118E-08-5.76129E-09-8.87568E-09 1.73817E-10-1.69138E-10-5.69011E-11
 -1      1517 2.71376E-08-5.65730E-09-9.24214E-09-3.45565E-11-1.71122E-11 1.70511E-10
 -1      1518 2.57288E-08-3.39799E-09-9.68553E-09-2.83266E-09-1.31599E-10-1.70726E-10
 -1      1519 2.62905E-08-4.09428E-09-9.57226E-09-2.96545E-09-1.65820E-10 2.16711E-10
 -1      1520 2.93739E-08-7.02241E-09-9.64071E-09 2.32087E-09 3.22438E-12 6.85216E-11
 -1      1521 2.82597E-08-5.44825E-09-9.82128E-09 3.13483E-09 8.20254E-11 2.67177E-10
 -1      1522 3.16179E-08-5.46538E-10-1.22100E-08-3.10973E-09 3.52759E-10-2.40765E-11
 -1      1523 3.28270E-08-9.69389E-09-9.89097E-09 5.27029E-10-3.35844E-12 1.11276E-11
 -1      1524 3.25633E-08-9.41974E-09-9.88773E-09 8.05420E-10-5.08662E-12 3.45489E-11
 -1      1525 2.79111E-08-5.75846E-09-8.70731E-09-1.69221E-09-4.42911E-10-2.88383E-09
 -1      1526 2.24626E-08-6.05074E-09-7.27318E-09-3.33301E-09 4.86477E-10 8.17153E-10
 -1      1527 3.34485E-08-1.00674E-08-1.00027E-08 2.27225E-11 4.51150E-12-2.17155E-11
 -1      1528 3.16749E-08-8.72086E-09-9.83195E-09 1.29933E-09 1.55041E-11 7.95914E-11
 -1      1529 3.09423E-08-8.02789E-09-9.77563E-09 1.97294E-09-4.52852E-11 7.18790E-11
 -1      1530 3.20569E-08-8.90617E-09-9.88763E-09 6.61365E-10 1.33613E-11 5.12136E-11
 -1      1531 2.60947E-08-4.07763E-09-9.54935E-09 2.75666E-09 1.46494E-10 4.64493E-11
 -1      1532 2.52232E-08-3.55339E-09-9.34443E-09 2.42104E-09-1.19342E-10-2.37481E-11
 -1      1533 2.41583E-08-4.12710E-09-8.66235E-09 1.75222E-09 1.95781E-10 3.83823E-11
 -1      1534 2.66146E-08-4.59294E-09-9.46824E-09 1.43096E-09 2.99515E-11 2.23552E-10
 -1      1535 2.56927E-08-5.66856E-09-8.88147E-09 3.70654E-10 2.11536E-10 1.15893E-09
 -1      1536 2.61211E-08-5.44104E-09-8.97740E-09-1.58202E-10 8.29517E-11 3.04502E-10
 -1      1537 2.75431E-08-5.74337E-09-9.56755E-09-1.03784E-10-1.21514E-10 9.03251E-10
 -1      1538 5.97989E-09 2.17472E-09-3.46063E-09-8.64049E-09 2.20742E-10 2.32263E-11
 -1      1539 2.81545E-08-6.27314E-09-9.52465E-09-1.62168E-10-1.67773E-10 3.37286E-10
 -1      1540 2.88151E-08-6.62063E-09-9.68012E-09 6.69608E-11 1.24290E-10 6.69926E-10
 -1      1541 1.79283E-08-3.54211E-09-6.23994E-09 8.47077E-09-5.69649E-10 2.19306E-11
 -1      1542 1.28758E-08-1.19700E-09-5.02804E-09 8.43297E-09-3.87393E-10 3.98440E-10
 -1      1543 2.75632E-08-4.99038E-09-9.74924E-09-2.70181E-09-7.16798E-11 3.46252E-10
 -1      1544 2.87592E-08-6.57683E-09-9.59894E-09-1.83266E-09 3.46444E-11 1.39478E-10
 -1      1545 1.40244E-08-1.79380E-09-5.21637E-09-8.22150E-09 1.66339E-10-1.30646E-10
 -1      1546 1.84479E-08-3.58158E-09-6.53227E-09-8.21465E-09 6.23488E-10 1.05110E-10
 -1      1547 8.24991E-09 6.58981E-10-3.75138E-09 8.23403E-09-5.71668E-10 3.56931E-11
 -1      1548 4.97821E-09 1.70036E-09-2.94836E-09 6.74733E-09-2.55438E-10 7.86292E-11
 -1      1549 2.50834E-08-5.10599E-09-8.71200E-09 3.17210E-10 1.33722E-10 7.71622E-11
 -1      1550 2.62496E-08-4.94510E-09-9.21954E-09 2.55524E-10 5.91754E-11 2.43499E-10
 -1      1551 2.60315E-08-4.40034E-09-9.26156E-09-9.24233E-10-3.78883E-11 1.85468E-10
 -1      1552 2.13690E-08-5.26131E-09-7.09760E-09 4.94602E-09-7.56522E-11 1.73907E-10
 -1      1553 3.16370E-08-8.85201E-09-9.73526E-09-1.75823E-09-4.39597E-11 6.23587E-11
 -1      1554 3.08631E-08-7.88662E-09-9.86415E-09-2.58544E-10-2.76750E-11 2.52680E-10
 -1      1555 3.19360E-08-8.82997E-09-9.88453E-09-5.34487E-10-1.24552E-11 1.54732E-10
 -1      1556 3.12279E-08-8.36531E-09-9.83509E-09-9.06668E-10 4.86470E-11 2.22469E-10
 -1      1557 1.33208E-08-2.22846E-09-4.58922E-09 7.50880E-09-2.69629E-10 1.49853E-10
 -1      1558 2.98959E-08-7.21436E-09-9.86729E-09-1.20390E-10-6.44663E-11 4.52696E-10
 -1      1559 3.05451E-08-7.69172E-09-9.81623E-09 1.76130E-11-2.98152E-11 2.25822E-10
 -1      1560 3.31328E-08-9.86324E-09-9.96867E-09-5.29105E-11-6.86339E-12 2.39392E-11
 -1      1561 3.31946E-08-9.85225E-09-1.00102E-08 3.75381E-10-1.04409E-11 1.74430E-11
 -1      1562 2.81990E-08-6.22807E-09-9.51267E-09-6.41744E-11-7.48838E-11 3.30712E-10
 -1      1563 2.03917E-08-5.36085E-09-6.35987E-09 6.49112E-09 3.99633E-10-1.30936E-09
 -1      1564 2.20809E-08-5.50829E-09-7.13071E-09 3.57615E-09 6.56808E-11 1.40319E-10
 -1      1565 2.88621E-08-6.69391E-09-9.86160E-09-1.01397E-10 4.81090E-11 9.30899E-10
 -1      1566 1.81392E-09 2.75581E-09-1.82133E-09 5.29118E-09-1.25308E-10 2.77197E-10
 -1      1567 3.26345E-08-9.39338E-09-9.93499E-09-3.31736E-10 8.33044E-12 7.08219E-11
 -1      1568 2.50224E-08-5.84532E-09-8.40936E-09 2.04536E-09-5.98911E-11-3.09557E-11
 -1      1569 2.73841E-08-5.60256E-09-9.43723E-09 5.87248E-10-7.13674E-11 1.19280E-10
 -1      1570 2.44499E-08-3.99383E-09-8.80716E-09-2.01712E-09 1.71653E-10-1.72812E-10
 -1      1571 2.49933E-08-5.57705E-09-8.42984E-09-1.25449E-09-5.75493E-11 6.84213E-11
 -1      1572 2.49266E-08-4.95206E-09-8.61669E-09-4.95754E-10-1.96715E-12 1.24698E-10
 -1      1573 2.97436E-08-6.93611E-09-9.71156E-09 1.36657E-09 1.13850E-11 9.12079E-11
 -1      1574 2.15075E-08-5.42963E-09-7.17952E-09-4.20572E-09 1.07487E-10-3.55499E-11
 -1      1575 3.01362E-08-7.45913E-09-9.74578E-09 5.64313E-10 5.89915E-12 1.61199E-10
 -1      1576 3.12371E-08-8.22125E-09-9.84288E-09 5.04792E-10-2.30842E-11 1.37952E-10
 -1      1577 3.22123E-08-8.97647E-09-9.95420E-09 1.46301E-10 7.66611E-12 1.03917E-10
 -1      1578 2.87981E-08-6.48103E-09-9.58008E-09 6.11726E-10-2.33326E-11 1.73197E-10
 -1      1579 2.87512E-08-6.25877E-09-9.79841E-09-7.48986E-10 5.75490E-11 3.11052E-10
 -1      1580 3.04215E-08-7.34221E-09-9.88922E-09-1.75663E-09 5.18687E-11 1.57451E-10
 -1      1581-9.80745E-10 2.82730E-09-1.48953E-09-1.66785E-09 1.44506E-10-1.04061E-10
 -1      1582-4.81235E-10 3.18474E-09-2.31213E-09-9.68839E-10-2.22711E-10 5.42921E-11
 -1      1583-3.14639E-10 2.53478E-09-1.64160E-09-1.13932E-09-1.90980E-10 7.47639E-11
 -1      1584-7.50912E-10 3.71285E-09-2.48632E-09-2.01568E-09 5.51812E-10-5.47292E-10
 -1      1585-2.51915E-10 2.26807E-09-1.63951E-09-1.38610E-09 1.63587E-10 3.25999E-11
 -1      1586-2.50707E-10 2.38410E-09-1.78748E-09-1.17485E-09 1.39007E-10-1.30873E-10
 -1      1587 8.14859E-09 1.00694E-08-7.69468E-09 1.57292E-08 3.11721E-09 1.49566E-09
 -1      1588 3.97364E-08-7.10354E-09-1.20664E-08 1.72531E-08 1.23050E-10 1.93721E-10
 -1      1589 3.90889E-08-5.23144E-09-1.11187E-08 1.91445E-08 1.01474E-09 1.41416E-09
 -1      1590 2.43026E-08 2.17883E-09-1.02310E-08 1.97075E-08 1.28895E-09 1.77020E-09
 -1      1591 1.03355E-08 8.70967E-09-7.69351E-09 1.52123E-08 2.65621E-09 1.88207E-09
 -1      1592 4.08351E-08-6.96164E-09-1.05017E-08 1.92001E-08 1.00627E-09 8.62428E-10
 -1      1593 1.03278E-08 7.28819E-09-7.61713E-09 1.63419E-08 1.35119E-09 2.15217E-09
 -1      1594 8.62303E-09 9.12752E-09-7.44868E-09 1.62658E-08 9.97307E-10 6.71838E-10
 -1      1595 8.38417E-09 1.00268E-08-7.37784E-09 1.61783E-08 7.91536E-10 8.20467E-10
 -1      1596 9.25707E-09 9.64423E-09-7.35729E-09 1.61491E-08 5.85519E-10 3.52156E-10
 -1      1597 8.54765E-09 9.43269E-09-7.31112E-09 1.57702E-08 2.71348E-11-2.44629E-10
 -1      1598 2.30723E-08 3.23908E-09-8.28277E-09 2.28548E-08 4.75327E-10 8.23093E-10
 -1      1599 7.91366E-09 9.60208E-09-7.08031E-09 1.57773E-08 8.71255E-11 2.02787E-10
 -1      1600 9.32801E-09 9.01273E-09-7.32780E-09 1.64422E-08-4.53480E-10-1.84511E-10
 -1      1601 2.31143E-08 3.39900E-09-8.20154E-09 2.30156E-08 1.55929E-11-1.17372E-10
 -1      1602 9.11689E-09 8.83599E-09-7.31475E-09 1.63199E-08-6.94106E-10-8.28274E-10
 -1      1603 8.95103E-09 8.21500E-09-7.27389E-09 1.56596E-08-8.89207E-10-8.07608E-10
 -1      1604 2.41464E-08 2.62605E-09-8.47752E-09 2.24102E-08-5.97249E-10-7.32346E-10
 -1      1605 9.83989E-09 8.12929E-09-7.83697E-09 1.56096E-08-1.13953E-09-7.27434E-10
 -1      1606 1.01178E-08 7.46818E-09-7.36820E-09 1.64746E-08-2.03314E-09-1.14233E-09
 -1      1607 2.41095E-08 2.97706E-09-8.78252E-09 2.27417E-08-5.42235E-10-7.09433E-10
 -1      1608 7.54098E-09 7.95871E-09-7.19035E-09 1.67857E-08-2.39034E-09-1.82327E-09
 -1      1609 7.24920E-09 7.57389E-09-6.94565E-09 1.64475E-08-2.17443E-09-2.27210E-09
 -1      1610 2.42461E-08 2.48617E-09-9.00597E-09 2.35082E-08-8.70893E-10-1.75693E-09
 -1      1611 9.57205E-09 8.25788E-09-8.05714E-09 1.55708E-08-2.16254E-09-1.65446E-09
 -1      1612-1.21401E-10 2.46999E-09-2.62200E-09 8.70681E-10 1.90318E-10 1.85211E-10
 -1      1613-4.81243E-11 2.54588E-09-2.85082E-09 9.99613E-10 4.70147E-10 2.18801E-10
 -1      1614 1.98034E-10 3.53961E-09-3.85487E-09 1.27042E-09 6.20188E-10 3.76148E-10
 -1      1615 2.43201E-08 2.61853E-09-1.01382E-08 2.30579E-08-1.77586E-09-1.82721E-09
 -1      1616 4.02445E-08-7.06624E-09-9.51907E-09 2.00454E-08 1.67087E-10 4.14895E-10
 -1      1617 4.01501E-08-6.81882E-09-9.54852E-09 2.00151E-08 4.84387E-10 7.41190E-10
 -1      1618 4.10280E-08-8.27452E-09-9.35263E-09 1.90521E-08-3.93930E-11-2.11746E-11
 -1      1619 4.03328E-08-6.93877E-09-9.28006E-09 1.87798E-08 2.22903E-11 3.99252E-10
 -1      1620 4.04854E-08-7.09125E-09-9.36332E-09 1.89884E-08-1.52023E-10-2.82664E-10
 -1      1621 4.12666E-08-8.57952E-09-9.16781E-09 1.91113E-08-1.01155E-10-1.12135E-11
 -1      1622 4.07212E-08-7.31984E-09-9.54702E-09 1.98203E-08-3.93272E-10-5.54742E-10
 -1      1623 4.06356E-08-7.39234E-09-9.47724E-09 1.99147E-08-2.56758E-10-3.90670E-10
 -1      1624 3.98396E-08-6.64745E-09-1.00021E-08 1.87692E-08-6.97794E-11-3.10115E-10
 -1      1625 4.05770E-08-7.38243E-09-9.72346E-09 1.82067E-08-5.51020E-10-8.56241E-10
 -1      1626 3.93729E-08-5.26790E-09-1.11570E-08 2.01683E-08-6.31067E-10-1.16804E-09
 -1      1627 3.94516E-08-5.56839E-09-1.05090E-08 2.03068E-08-6.39573E-10-8.79029E-10
 -1      1628 1.32933E-10 2.82745E-09-3.17556E-09 8.55434E-10-1.09968E-10-3.56793E-11
 -1      1629 4.11997E-08-7.39607E-09-1.01977E-08 1.89400E-08 8.02760E-11 9.03623E-10
 -1      1630 2.67749E-08 1.39668E-09-9.17380E-09 2.28802E-08 1.67630E-09 1.72118E-09
 -1      1631 9.16696E-09 7.25352E-09-7.00354E-09 1.71560E-08 1.37588E-09 1.12911E-09
 -1      1632 4.04159E-08-6.31901E-09-9.72264E-09 1.88181E-08 2.33543E-10 6.10438E-10
 -1      1633 9.30467E-09 9.38941E-09-7.64480E-09 1.63067E-08 1.32802E-09 4.96407E-10
 -1      1634 2.37086E-08 3.28163E-09-8.67676E-09 2.28763E-08 4.26338E-10 6.53750E-10
 -1      1635 3.88747E-08-6.43077E-09-1.18772E-08 1.67212E-08-3.50466E-10-9.70158E-10
 -1      1636 9.68821E-09 9.11414E-09-7.71443E-09-1.62166E-08-2.79020E-09 1.62249E-09
 -1      1637 4.03014E-08-7.82124E-09-1.20173E-08-1.68188E-08 4.35308E-12 6.25996E-10
 -1      1638 2.38145E-08 1.96265E-09-9.89093E-09-1.89143E-08-1.41872E-09 1.54314E-09
 -1      1639 4.13808E-08-7.32577E-09-1.13676E-08-1.69276E-08-3.55720E-10 4.29646E-10
 -1      1640 4.18445E-08-8.74610E-09-1.07564E-08-1.68577E-08-6.11574E-10 6.99787E-10
 -1      1641 1.08320E-08 8.14349E-09-7.74794E-09-1.59087E-08-1.62805E-09 2.14995E-09
 -1      1642 1.09889E-08 7.91967E-09-7.58661E-09-1.61852E-08-2.17811E-09 1.83284E-09
 -1      1643 1.09944E-08 9.07490E-09-7.56410E-09-1.65345E-08-7.06259E-10 5.72425E-10
 -1      1644 1.14897E-08 8.36525E-09-7.48225E-09-1.65063E-08-1.39359E-09 1.20827E-09
 -1      1645 9.67268E-09 8.70561E-09-7.32869E-09-1.51181E-08 1.15349E-09-1.22060E-09
 -1      1646 9.70669E-09 8.58914E-09-7.39368E-09-1.53324E-08-6.29175E-11 3.09332E-10
 -1      1647 7.22586E-09 1.15552E-08-7.51945E-09-1.60218E-08 2.20685E-09-1.59317E-09
 -1      1648 1.01585E-08 8.48246E-09-7.51096E-09-1.55475E-08 1.11398E-09-4.35115E-10
 -1      1649 8.06695E-09 9.75595E-09-7.69874E-09-1.56233E-08 2.92020E-09-1.60651E-09
 -1      1650 4.17455E-08-8.35916E-09-9.61639E-09-1.61779E-08-3.94386E-11 6.39759E-10
 -1      1651 3.97329E-08-6.22498E-09-9.39411E-09-1.70315E-08-2.06458E-10 5.87133E-10
 -1      1652 3.96255E-08-5.96881E-09-9.33191E-09-1.75754E-08 4.51523E-10-1.34622E-10
 -1      1653 4.20861E-08-8.24090E-09-9.36028E-09-1.66710E-08-2.23145E-10-2.05992E-10
 -1      1654 4.00696E-08-7.54064E-09-9.62232E-09-1.63023E-08 3.99070E-10-6.03564E-10
 -1      1655 4.13018E-08-8.73703E-09-9.99192E-09-1.60601E-08 3.48501E-10-1.01387E-09
 -1      1656 3.99871E-08-7.64403E-09-1.21007E-08-1.72666E-08 3.69856E-10-5.94669E-10
 -1      1657 2.40377E-08 2.43811E-09-1.03796E-08-2.02853E-08 1.39580E-09-2.39191E-09
 -1      1658 8.21877E-09 9.78540E-09-7.46889E-09-1.59460E-08 2.70827E-09-1.96277E-09
 -1      1659 7.32268E-09 1.15282E-08-7.77579E-09-1.60347E-08 2.25704E-09-1.32007E-09
 -1      1660 4.04254E-08-7.07128E-09-1.13652E-08-1.64822E-08 7.18528E-10-6.43486E-10
 -1      1661 3.94348E-08-5.81825E-09-9.33320E-09-1.94035E-08 1.30199E-10 2.21005E-10
 -1      1662 2.45612E-08 1.83091E-09-8.41623E-09-2.08520E-08 3.98123E-10 2.80419E-10
 -1      1663 2.59348E-08 1.18593E-09-8.18821E-09-2.11071E-08-7.61531E-10 1.39169E-09
 -1      1664 1.02171E-08 8.87988E-09-7.35361E-09-1.60978E-08-1.35925E-09 7.30375E-10
 -1      1665 1.17293E-08 7.76022E-09-7.39483E-09-1.63492E-08-1.81191E-09 1.20185E-09
 -1      1666 4.24392E-08-8.42255E-09-9.83722E-09-1.62226E-08-4.71533E-10 8.77022E-10
 -1      1667 2.27672E-08 2.53366E-09-8.60725E-09-1.88487E-08 1.45562E-09-1.76724E-09
 -1      1668 1.05130E-08 9.16106E-09-7.34351E-09-1.64356E-08-5.66608E-10 2.75290E-10
 -1      1669 2.52278E-08 1.94456E-09-8.93687E-09-2.10946E-08-5.19259E-10-2.89101E-12
 -1      1670 1.07731E-08 8.18871E-09-7.19266E-09-1.65942E-08-5.13684E-10 2.93312E-10
 -1      1671 2.58108E-08 1.67118E-09-8.91872E-09-2.11142E-08 7.67295E-10-1.74575E-11
 -1      1672 1.05368E-08 7.59237E-09-6.97509E-09-1.59930E-08 8.71411E-10-5.15150E-10
 -1      1673 1.03512E-08 7.94848E-09-7.18632E-09-1.62594E-08 7.39575E-10-7.98921E-10
 -1      1674 4.08090E-08-7.69973E-09-9.53705E-09-1.84234E-08 2.75697E-10-4.09862E-10
 -1      1675 4.13160E-08-7.91638E-09-1.00473E-08-1.68097E-08-7.20611E-10 1.01531E-09
 -1      1676 3.97366E-08-5.97137E-09-9.48895E-09-1.93675E-08-5.28308E-10-3.17565E-11
 -1      1677 2.77013E-08 6.29217E-10-9.63565E-09-2.06654E-08-1.13952E-09 2.03540E-09
 -1      1678 2.56494E-08 1.36065E-09-8.35923E-09-2.11692E-08 6.51351E-12-1.09623E-09
 -1      1679 4.23281E-08-7.56064E-09-9.82436E-09-1.72121E-08 1.33509E-10-9.13285E-10
 -1      1680 4.18049E-08-8.78725E-09-1.05993E-08-1.61396E-08 6.24749E-10-8.80540E-10
 -1      1681 3.87143E-09 5.45860E-09-3.97085E-09-9.08932E-09-5.38871E-13-3.50701E-10
 -1      1682 1.79800E-09 4.14216E-09-2.33623E-09-5.79760E-09 2.91393E-11-1.31509E-10
 -1      1683 1.78864E-09 3.79610E-09-2.11332E-09-5.15301E-09-3.88378E-12 6.63144E-12
 -1      1684 1.37566E-09 3.37064E-09-1.96880E-09-4.55536E-09-3.08947E-12-2.81677E-10
 -1      1685 4.41902E-09 2.65792E-09-3.07776E-09-8.07379E-09-2.21805E-10-2.01562E-10
 -1      1686 9.31432E-10-1.56052E-10-3.06719E-10-4.07292E-10 4.17592E-11 1.26830E-11
 -1      1687 7.26731E-10-3.08735E-10-1.46043E-10-1.02909E-10 5.67043E-11 3.31069E-11
 -1      1688 5.04359E-10-2.62030E-10-8.81966E-11 1.23221E-11 2.78745E-11 1.97729E-11
 -1      1689 2.85388E-10-9.43876E-11-7.26885E-11 2.31548E-11 1.13515E-11 7.13360E-12
 -1      1690 1.69903E-10-6.45807E-11-3.71701E-11 8.24545E-11 1.18454E-11 5.40498E-12
 -1      1691 1.00731E-10-2.21648E-11-3.01205E-11 3.94183E-11 5.38109E-12 2.28663E-12
 -1      1692 4.97694E-11-7.09247E-12-1.50596E-11 4.90345E-11 5.22615E-12 1.17335E-12
 -1      1693 3.33361E-11-3.68869E-13-1.28528E-11 2.50126E-11 1.95708E-12 5.80178E-13
 -1      1694 1.15496E-11 6.18666E-12-6.48081E-12 2.20688E-11 2.50919E-12-4.11577E-13
 -1      1695 2.24891E-12 7.83431E-12-4.15907E-12 1.60820E-11 1.26615E-12 3.42731E-13
 -1      1696 1.24205E-12 5.65624E-12-2.62459E-12 7.83178E-12 6.39738E-13-7.27619E-13
 -1      1697-1.25263E-12 5.57176E-12-1.54341E-12 5.38834E-12 3.92341E-13-2.57174E-13
 -1      1698-1.45847E-13 3.37639E-12-1.22001E-12 2.55763E-12 1.60386E-13-1.00293E-13
 -1      1699-1.23501E-12 3.05008E-12-6.43772E-13 1.13318E-12 1.79557E-13-1.22176E-13
 -1      1700-3.61916E-13 1.72764E-12-5.35096E-13 6.50988E-13 6.72568E-14-4.44045E-14
 -1      1701-5.45786E-13 1.27159E-12-2.62632E-13 6.41805E-14 6.21050E-14-7.31783E-14
 -1      1702-4.62444E-13 9.05663E-13-1.57630E-13-8.00398E-14 4.63136E-14-5.42189E-14
 -1      1703-1.58853E-13 5.27856E-13-1.39265E-13-4.19200E-14 1.88238E-14-3.12054E-14
 -1      1704-1.11460E-13 3.62438E-13-8.98500E-14-1.24598E-13 1.23824E-14-2.44016E-14
 -1      1705-4.38926E-14 2.63552E-13-8.21982E-14 1.38105E-14 6.17823E-15-1.97475E-14
 -1      1706-4.25997E-14 2.52819E-13-7.81608E-14-1.50915E-14 1.51805E-15-1.48303E-14
 -1      1707-1.31714E-13 3.72590E-13-8.09052E-14 1.18549E-13-6.48903E-15-3.35307E-14
 -1      1708-1.87794E-13 5.10750E-13-1.07137E-13 1.05225E-13-2.44723E-14-3.84155E-14
 -1      1709-2.01118E-13 7.98798E-13-2.24826E-13-9.05031E-14-2.86744E-14-2.73763E-14
 -1      1710-6.30040E-13 1.41119E-12-2.75297E-13-6.85699E-14-6.90541E-14-7.19071E-14
 -1      1711-4.24968E-13 1.84395E-12-5.40369E-13-6.70314E-13-8.61169E-14-5.43753E-14
 -1      1712-1.31524E-12 3.21155E-12-6.73539E-13-1.21590E-12-1.83384E-13-1.34725E-13
 -1      1713-3.36248E-13 3.59750E-12-1.26479E-12-2.67072E-12-2.20076E-13-8.73709E-14
 -1      1714-1.34965E-12 5.44413E-12-1.47270E-12-5.60695E-12-5.91975E-13-1.99737E-13
 -1      1715 6.10479E-13 6.29701E-12-2.56728E-12-8.36660E-12-8.12437E-13-2.15614E-13
 -1      1716 8.45077E-12 4.84611E-12-5.17882E-12-1.17848E-11-7.94497E-13 3.75521E-14
 -1      1717 1.03740E-11 6.73519E-12-6.07089E-12-2.27580E-11-2.18732E-12 1.90193E-14
 -1      1718 3.23620E-11 3.73730E-13-1.24609E-11-2.50067E-11-2.19089E-12 4.79000E-13
 -1      1719 5.09886E-11-7.44983E-12-1.52627E-11-5.09188E-11-5.18775E-12 1.07534E-12
 -1      1720 9.97627E-11-2.45472E-11-2.86730E-11-4.23965E-11-4.70070E-12 2.07340E-12
 -1      1721 1.82378E-10-8.69064E-11-3.41870E-11-7.64835E-11-1.28880E-11 7.13164E-12
 -1      1722 2.74186E-10-1.14922E-10-5.88800E-11-6.36396E-11-1.70053E-11 9.72709E-12
 -1      1723 4.26556E-10-1.18714E-10-1.19560E-10 4.77357E-11-1.31848E-11 1.54277E-11
 -1      1724 7.22668E-10-3.32193E-10-1.40438E-10 5.65033E-11-3.29687E-11 3.83896E-11
 -1      1725 9.44110E-10-1.78818E-10-2.79723E-10 4.14520E-10-3.93708E-11 3.97645E-11
 -1      1726 1.13910E-09 1.38685E-09-1.00627E-09 2.79231E-09-2.72378E-11 6.07867E-11
 -1      1727 8.30224E-10 2.29926E-09-1.23533E-09 3.08201E-09 7.31697E-12 8.40861E-11
 -1      1728 2.32882E-09 4.16751E-09-2.53576E-09 6.25772E-09-5.48797E-11 4.66109E-11
 -1      1729 4.28039E-09 5.80782E-09-4.30111E-09 9.49510E-09-1.48551E-12-4.54744E-10
 -1      1730 1.89774E-08-6.91852E-10-8.15326E-09-1.24107E-08-9.53235E-10 4.66566E-10
 -1      1731 9.83147E-09 1.44212E-09-4.99668E-09-9.14473E-09-9.55235E-11 3.33802E-10
 -1      1732 3.03249E-08-5.46943E-09-1.08746E-08-5.67394E-09 5.93864E-10 2.93066E-10
 -1      1733 2.55768E-08-1.60711E-09-1.06034E-08-1.00314E-08 8.52148E-11 7.79787E-10
 -1      1734 8.20029E-09 2.81925E-09-4.88014E-09 9.65366E-09 4.63729E-10 4.39352E-10
 -1      1735 1.82363E-08 9.01799E-10-8.19609E-09 1.37891E-08 8.45191E-10 8.25712E-10
 -1      1736 2.56941E-08-1.68034E-09-1.05548E-08 1.01997E-08-1.59182E-10 7.97685E-10
 -1      1737 3.04375E-08-5.52688E-09-1.08163E-08 5.55658E-09-5.20789E-10 5.64049E-10
 -1      1738 3.05242E-08-7.98507E-09-9.83462E-09-3.71860E-09-5.72897E-12-2.65526E-10
 -1      1739 3.24193E-08-7.20152E-09-1.08310E-08-6.05789E-09-5.02042E-11-3.06293E-10
 -1      1740 3.21942E-08-9.53466E-09-9.67050E-09-1.35322E-09 1.41330E-11-8.42893E-11
 -1      1741 3.19483E-08-9.40807E-09-9.58591E-09-1.54758E-09-3.00989E-11-1.35635E-11
 -1      1742 3.37166E-08-1.01286E-08-1.01076E-08-9.13555E-10 8.66608E-13-1.28548E-12
 -1      1743 3.32341E-08-9.98020E-09-9.96605E-09-8.64406E-10 1.57992E-12 1.33334E-11
 -1      1744 3.60822E-08-1.07096E-08-1.08081E-08-7.84096E-10-9.86121E-11-2.97599E-10
 -1      1745 3.54042E-08-1.06762E-08-1.05910E-08-7.46797E-10 1.99288E-11-2.36875E-11
 -1      1746 3.31703E-08-7.81983E-09-1.10015E-08 5.99030E-09-1.07755E-10-4.89807E-10
 -1      1747 3.06419E-08-8.46466E-09-9.87636E-09 3.26559E-09-1.00505E-10-2.98737E-10
 -1      1748 3.21785E-08-9.29122E-09-9.61176E-09 2.60598E-09 1.68618E-10-7.18131E-11
 -1      1749 3.19030E-08-9.29575E-09-9.60075E-09 2.23524E-09 5.67961E-11-3.48476E-11
 -1      1750 3.08974E-08-7.78745E-09-9.90966E-09 4.39031E-09-1.50091E-10-2.05559E-10
 -1      1751 3.24617E-08-9.71799E-09-9.71175E-09 1.04011E-09 3.33535E-11 2.50886E-11
 -1      1752 3.27660E-08-9.79895E-09-9.82164E-09 9.75271E-10-5.64708E-12 8.26947E-12
 -1      1753 3.31138E-08-9.93654E-09-9.93668E-09 7.49187E-10-9.67940E-13 7.40812E-12
 -1      1754 3.34818E-08-1.00579E-08-1.00372E-08 7.81769E-10 2.72017E-13 1.38729E-11
 -1      1755 3.32342E-08-9.98797E-09-9.94583E-09 4.87728E-10 5.21558E-12-2.30947E-12
 -1      1756 3.39011E-08-1.01891E-08-1.01643E-08 6.59689E-10-6.58641E-12 1.35740E-11
 -1      1757 3.43509E-08-1.03308E-08-1.03052E-08 7.07340E-10-2.16401E-11 1.49822E-11
 -1      1758 3.39151E-08-1.02371E-08-1.01471E-08 1.61208E-10-5.20454E-12 6.67202E-12
 -1      1759 3.50708E-08-1.05471E-08-1.05207E-08 7.45891E-10-3.93104E-11-1.37086E-11
 -1      1760 3.58807E-08-1.08219E-08-1.06963E-08 9.26790E-10-8.67988E-11-7.14596E-11
 -1      1761 3.61818E-08-1.10828E-08-1.07996E-08 8.59319E-10-8.54167E-11-3.32997E-10
 -1      1762 3.74291E-08-1.08982E-08-1.12309E-08 1.83832E-09 1.86325E-10 3.21996E-11
 -1      1763 4.12762E-08-9.86945E-09-1.45136E-08-4.09860E-09-3.75845E-11 8.53243E-10
 -1      1764 1.34273E-08 6.14715E-09-1.36444E-08-8.09879E-09-9.37451E-10 4.37391E-09
 -1      1765 1.39639E-08 3.39770E-08-2.10520E-08-2.73852E-08-1.81016E-09 3.29007E-09
 -1      1766 2.63401E-08 8.69650E-09-1.24546E-08 1.37395E-09-9.63178E-10-2.77249E-10
 -1      1767 4.88883E-08-1.37581E-08-1.32400E-08-2.46494E-08-1.94115E-09-4.48551E-09
 -1      1768 3.44490E-08-4.01518E-08-3.88120E-09-4.37821E-09-2.16391E-09 1.58554E-10
 -1      1769 5.93516E-08-2.47822E-08-1.47550E-08-1.63343E-08-3.59895E-10 2.67020E-09
 -1      1770 3.27095E-08-1.63701E-08-6.40434E-09 7.57976E-09 1.61795E-09 2.87484E-09
 -1      1771 1.56450E-08 6.50711E-10-7.54831E-09-3.08976E-09 1.15513E-09 2.30172E-09
 -1      1772 1.06774E-08 2.02404E-09-7.43022E-09 7.43380E-09 1.71205E-09-1.10315E-09
 -1      1773 2.08330E-08-4.13360E-09-8.34649E-09-1.22896E-08 1.86060E-09-3.23168E-10
 -1      1774 7.08124E-09-3.55145E-09-2.33924E-09-5.53437E-09-3.07379E-10-1.76906E-09
 -1      1775 2.36668E-08-1.67849E-08-3.20152E-09-4.10013E-09 2.64371E-10-2.05113E-09
 -1      1776 2.61744E-08-1.36359E-08-5.47748E-09 1.19447E-08-1.01784E-09-1.80838E-09
 -1      1777 1.18727E-08-1.72786E-08 2.08755E-09 9.42946E-09-1.95427E-09 4.03231E-10
 -1      1778-1.36404E-09 3.79191E-09-1.41609E-10 1.50021E-08-3.86876E-09 1.09724E-10
 -1      1779-4.20479E-09 5.80007E-10 8.83487E-11 1.40163E-08 1.18794E-09 1.48270E-09
 -1      1780-1.18056E-08 1.34225E-08-1.45284E-10 2.24896E-10 1.96545E-10 2.97531E-09
 -1      1781-4.71880E-09 9.46061E-10 2.73372E-10-1.37812E-08-9.38636E-10 1.49490E-09
 -1      1782-1.04293E-09 3.23997E-09 4.45112E-11-1.45064E-08 3.27030E-09 1.15873E-09
 -1      1783 1.26394E-08-1.80079E-08 2.79451E-09-9.21253E-09 1.99709E-09 6.78886E-10
 -1      1784 2.63171E-08-1.36188E-08-5.84158E-09-1.17882E-08 6.80339E-10-1.99414E-09
 -1      1785 2.39027E-08-1.69806E-08-3.31428E-09 3.77370E-09-2.84455E-10-2.09120E-09
 -1      1786 6.43456E-09-3.23470E-09-2.29693E-09 5.57080E-09 2.75108E-10-1.72032E-09
 -1      1787 2.05893E-08-3.97961E-09-8.29072E-09 1.26446E-08-1.92160E-09-2.33951E-10
 -1      1788 1.01330E-08 2.59020E-09-7.30756E-09-7.46555E-09-2.24258E-09-1.21975E-09
 -1      1789 1.27964E-08 2.85604E-09-6.95983E-09 3.80862E-09-1.69863E-11 1.30137E-09
 -1      1790 3.61558E-08-1.51009E-08-9.62237E-09-7.49599E-09-3.29662E-09 8.77595E-10
 -1      1791 6.09298E-08-2.67238E-08-1.47895E-08 1.69248E-08-1.62968E-09 4.22278E-09
 -1      1792 4.49127E-08-4.44925E-08-4.48614E-09 1.08691E-08 2.88800E-09-3.44600E-09
 -1      1793 4.62472E-08-2.16592E-08-4.35147E-09 2.68244E-08 9.05276E-10-2.91179E-09
 -1      1794 2.95786E-08-3.59071E-09-1.01018E-08-3.01259E-10 4.28336E-10 3.45191E-09
 -1      1795 2.89069E-08-5.44968E-09-9.55318E-09-2.26594E-09 5.36200E-10 2.92737E-09
 -1      1796 2.14164E-08-6.13955E-09-5.18333E-09-5.64711E-09 4.34668E-10 3.38554E-09
 -1      1797 2.72833E-08-5.47052E-09-6.40407E-09-3.88450E-09 9.58416E-10 5.19568E-09
 -1      1798 6.52705E-09-1.25088E-09-2.19861E-09-5.06197E-09-7.21276E-11 4.83658E-10
 -1      1799 1.13189E-08-2.33820E-09-2.32023E-09-6.48254E-09 4.86780E-10 1.97088E-09
 -1      1800 1.50194E-09-5.37563E-10-3.85553E-10-7.53975E-10 9.32695E-11 6.35980E-11
 -1      1801 1.54878E-09-5.91233E-10-3.28828E-10 7.74151E-10-7.89754E-11 7.66179E-11
 -1      1802 1.25885E-08-2.58530E-09-3.36458E-09 6.66848E-09-5.45670E-10 1.50033E-09
 -1      1803 7.61998E-09-1.68040E-09-2.63509E-09 5.62640E-09 3.51999E-11 6.07581E-10
 -1      1804 3.02092E-08-4.13620E-09-9.77988E-09-3.81631E-11-3.92591E-10 3.71705E-09
 -1      1805 2.99185E-08-4.93141E-09-1.04017E-08 9.68312E-10-5.16814E-10 2.50104E-09
 -1      1806 1.83864E-08-1.13861E-08 1.67742E-09 1.62546E-08 2.55522E-09-1.50490E-09
 -1      1807 1.76807E-08-1.12334E-08 1.72697E-09-1.56814E-08-9.99687E-10-8.58325E-10
 -1      1808-2.59311E-09-8.41858E-09 7.32357E-09 5.77222E-10 3.41585E-10 1.57140E-10
 -1      1809 1.64567E-08 3.21355E-08-1.99324E-08 2.44243E-08 5.78411E-09 2.69460E-09
 -1      1810 7.71732E-10 2.19663E-09-1.17614E-09-3.12280E-09 1.95241E-10-1.30947E-10
 -1      1811 1.17941E-09 1.59200E-09-1.17801E-09-2.97980E-09-3.75320E-11-5.80782E-11
 -1      1812 2.93069E-09 1.57289E-09-2.24627E-09-4.98812E-09-8.82512E-11-2.74184E-11
 -1      1813 3.04636E-09 1.68709E-09-2.20899E-09 5.18250E-09 2.92227E-10 8.66680E-11
 -1      1814 5.15679E-09-1.86659E-09-8.79704E-10 3.62054E-09-4.17943E-10 7.48026E-10
 -1      1815 1.69393E-09-2.12966E-10-6.23996E-10 1.42718E-09-1.35689E-10 8.43253E-11
 -1      1816 2.96133E-08-4.42676E-09-9.94567E-09 1.00326E-10 3.52407E-10 2.50847E-09
 -1      1817 2.81372E-08-6.26466E-09-9.79210E-09 3.13331E-11 2.04480E-10-1.20546E-09
 -1      1818 1.46288E-09 3.44814E-09-1.90806E-09 4.74407E-09 2.72948E-11 3.05786E-11
 -1      1819 1.18100E-08 3.12369E-10-5.32077E-09 1.01523E-08 1.79558E-10-6.32574E-11
 -1      1820 1.19739E-08 2.19438E-10-4.90285E-09-9.68573E-09-1.01689E-10 3.03363E-11
 -1      1821 2.73879E-08-3.31273E-09-9.92807E-09 5.32260E-09-3.94056E-10 2.40066E-11
 -1      1822 2.60721E-08-2.40782E-09-1.00272E-08-4.85624E-09 2.96403E-10-9.06084E-11
 -1      1823 3.17145E-08-9.13612E-09-9.63542E-09-2.16058E-09 2.31808E-11-8.98589E-11
 -1      1824 3.21753E-08-8.97745E-09-9.89820E-09-2.82871E-09-6.21649E-11-1.85661E-10
 -1      1825 3.29638E-08-9.87230E-09-9.87417E-09-8.70116E-10 1.25934E-11-9.12554E-12
 -1      1826 3.25736E-08-9.69438E-09-9.78365E-09-9.23243E-10-1.83228E-11-2.02820E-11
 -1      1827 3.50141E-08-1.05486E-08-1.04841E-08 4.88654E-11-8.98242E-12-1.33096E-11
 -1      1828 4.17705E-08-1.01717E-08-1.47663E-08 1.86502E-09-5.65749E-10 7.92246E-10
 -1      1829 3.71909E-08-1.17771E-08-1.07281E-08-2.03949E-09-5.75783E-11-1.52108E-10
 -1      1830 1.46424E-08 3.70296E-09-1.32319E-08 3.16905E-09-1.02938E-09 3.23316E-09
 -1      1831 3.21862E-08-9.43594E-09-9.74701E-09 1.19158E-09 2.10691E-11 9.22288E-12
 -1      1832 3.25086E-08-9.39636E-09-9.88950E-09 8.86034E-10-1.84783E-12-5.54044E-11
 -1      1833 3.20191E-08-9.38173E-09-9.67252E-09 1.60660E-09 9.42362E-12-3.80839E-11
 -1      1834 3.16805E-08-9.24476E-09-9.57137E-09 1.84485E-09-2.88981E-11-7.05447E-11
 -1      1835 3.76311E-08-1.13550E-08-1.11818E-08-3.86783E-11-8.53769E-11-7.55619E-11
 -1      1836 2.51180E-09-7.86747E-10-7.01848E-10-1.82228E-09 2.12389E-10 1.43812E-10
 -1      1837 4.66112E-09-1.81137E-09-8.26126E-10-3.14832E-09 4.19753E-10 6.09983E-10
 -1      1838 2.60241E-09-7.70653E-10-6.82576E-10 2.00635E-09-1.87183E-10 1.76206E-10
 -1      1839 2.48313E-08-5.76605E-09-8.58835E-09 9.30826E-10 3.91618E-10-1.66444E-09
 -1      1840 2.89128E-08-5.10653E-09-9.86306E-09 3.00475E-09-2.89991E-10 2.49222E-09
 -1      1841 2.38109E-08-6.38452E-09-7.15087E-09 4.83769E-09-1.10056E-10 1.25222E-09
 -1      1842 2.42651E-08-3.38349E-09-8.80592E-09-7.35412E-09-2.64483E-10 8.86674E-10
 -1      1843 2.19110E-08-4.87663E-09-7.17250E-09-4.97291E-09-4.24332E-10-4.89484E-10
 -1      1844 2.44805E-08-4.20073E-09-9.01351E-09-1.69209E-09 6.20097E-10-3.48086E-10
 -1      1845 2.99303E-08-6.97928E-09-9.84494E-09-4.11225E-09 6.18258E-11-1.25691E-10
 -1      1846 2.39797E-08-3.19616E-09-8.87431E-09 8.49629E-09 4.28163E-10 7.38434E-10
 -1      1847 2.46987E-08-4.31738E-09-8.74663E-09 2.17644E-09-4.42136E-10-9.21704E-11
 -1      1848 2.09227E-08-4.24418E-09-7.16841E-09 6.54470E-09 3.28045E-10 1.12382E-10
 -1      1849 3.26323E-08-9.61416E-09-9.86987E-09-8.85502E-10-3.96732E-11-7.41664E-11
 -1      1850 3.33564E-08-1.00183E-08-9.99477E-09-4.75269E-10-8.00023E-12-1.10712E-11
 -1      1851 3.16779E-08-8.88090E-09-9.76265E-09-2.19568E-09 3.78534E-11 3.82784E-12
 -1      1852 1.19816E-08-8.34669E-10-4.74790E-09 8.71800E-09 2.45536E-10-1.77010E-10
 -1      1853 1.66736E-08-2.95575E-09-6.01163E-09 9.31092E-09 5.51101E-10-1.45906E-10
 -1      1854 1.63020E-09-8.18203E-11-5.83485E-10-1.43486E-09-9.59387E-11 7.71827E-11
 -1      1855 2.95579E-08-7.11395E-09-9.65199E-09 8.54965E-11-6.27238E-11-3.17268E-10
 -1      1856 2.89084E-08-6.75881E-09-9.43504E-09-7.20034E-11 7.03041E-11-1.77293E-10
 -1      1857 2.18214E-09 3.89207E-09-2.20480E-09 5.47187E-09 3.32601E-12 1.78737E-10
 -1      1858 2.95101E-08-6.95810E-09-9.72740E-09-2.41372E-09 4.62090E-11-2.96469E-11
 -1      1859 2.81506E-08-5.46168E-09-9.74825E-09-3.11115E-09 8.23580E-11-1.59848E-10
 -1      1860 3.26791E-08-9.47893E-09-9.91157E-09-5.46296E-10-5.71466E-12-5.13395E-11
 -1      1861 3.21143E-08-9.04177E-09-9.84537E-09-1.00017E-09-2.43039E-11-1.64252E-10
 -1      1862 3.46273E-08-1.04003E-08-1.03879E-08-6.80732E-10-4.30097E-12-1.14457E-12
 -1      1863 3.40931E-08-1.02530E-08-1.02250E-08-6.41960E-10 3.30555E-12 9.02947E-12
 -1      1864 3.23799E-08-9.26473E-09-9.89541E-09 6.29574E-10 2.11447E-11-7.92905E-11
 -1      1865 3.28503E-08-9.65635E-09-9.93277E-09 4.50134E-10-1.21802E-12-2.28214E-11
 -1      1866 3.36029E-08-1.01352E-08-1.00574E-08-5.74728E-11-8.02998E-12 2.01119E-11
 -1      1867 3.33592E-08-1.00122E-08-9.98751E-09-1.12190E-10-1.75229E-12-2.49471E-12
 -1      1868 8.66593E-09 2.67679E-10-4.21219E-09-7.21903E-09-7.94759E-11 1.13911E-10
 -1      1869 1.62433E-08-4.18284E-09-3.13416E-09-6.71611E-09 5.63992E-10 3.14845E-09
 -1      1870 1.90611E-08-5.19256E-09-5.93506E-09 7.36467E-09-1.49398E-10 7.71216E-10
 -1      1871 1.02277E-08-4.63387E-10-4.11880E-09 7.90573E-09-4.38855E-11-3.92828E-10
 -1      1872 2.55607E-08-3.46263E-09-9.56521E-09 2.77811E-09-3.43834E-10 1.30921E-10
 -1      1873 2.76284E-08-4.72632E-09-9.78571E-09 4.06896E-09-2.39019E-10-4.98322E-10
 -1      1874 2.60846E-08-4.22094E-09-9.57339E-09-2.52272E-09 1.45985E-10-2.15522E-10
 -1      1875 2.57794E-08-3.88605E-09-9.73147E-09-1.90176E-09 2.59855E-10-2.14027E-10
 -1      1876 2.67956E-08-4.87530E-09-9.36798E-09-1.18408E-09-1.71934E-11-1.18053E-10
 -1      1877 2.96457E-08-6.52079E-09-1.00426E-08 4.18310E-09-1.24563E-10-3.26693E-10
 -1      1878 3.03174E-08-7.65408E-09-9.73761E-09 3.24305E-09-3.94880E-11-1.82039E-10
 -1      1879 2.07064E-08-5.20681E-09-6.58534E-09 5.66194E-09-4.54005E-11-1.02072E-10
 -1      1880 2.49234E-08-4.60427E-09-8.70475E-09-1.41531E-09-5.63000E-11-2.52358E-10
 -1      1881 5.38513E-09 2.54974E-09-3.39226E-09 8.40849E-09 9.00904E-11 9.23014E-11
 -1      1882 3.39897E-08-1.02482E-08-1.01739E-08-2.16620E-10-9.83837E-12 1.26724E-12
 -1      1883 2.55103E-08-4.16764E-09-9.44028E-09 1.73636E-09-2.54997E-11-6.26373E-11
 -1      1884 2.56697E-08-4.23727E-09-9.20525E-09 1.11911E-09 4.38608E-11-4.42543E-11
 -1      1885 2.43255E-08-4.98929E-09-8.30423E-09 1.17488E-09-7.93930E-11-2.50345E-10
 -1      1886 3.12951E-08-8.53320E-09-9.78002E-09-1.28870E-09-4.96092E-11-1.32237E-10
 -1      1887 3.07380E-08-7.71934E-09-9.86797E-09-2.07825E-09-8.00102E-11-2.18908E-11
 -1      1888 3.29448E-08-9.71011E-09-9.93610E-09-1.76401E-10-1.85555E-12-4.75409E-11
 -1      1889 3.24471E-08-9.26208E-09-9.91333E-09-1.72617E-10-8.71831E-12-7.69676E-11
 -1      1890 3.31929E-08-9.83550E-09-1.00109E-08 2.60126E-10-3.03787E-12-7.25620E-12
 -1      1891 1.88525E-08-3.95379E-09-6.79460E-09-6.16067E-09-3.69574E-10 7.73953E-10
 -1      1892 2.29760E-08-6.10315E-09-7.20179E-09-2.75813E-09 4.28405E-11 3.97045E-10
 -1      1893 2.03911E-08-4.73427E-09-6.47862E-09-6.42221E-09-1.98654E-10 1.72851E-10
 -1      1894 2.80427E-08-5.40081E-09-9.72956E-09 2.95811E-09 7.16149E-11-1.38941E-10
 -1      1895 2.69705E-08-5.56434E-09-9.61288E-09-4.09278E-11-2.85602E-11-6.19439E-10
 -1      1896 2.77503E-08-6.02523E-09-9.21003E-09 2.25003E-10 8.24109E-12-2.37345E-10
 -1      1897 2.70272E-08-5.48048E-09-9.28514E-09 7.91559E-10 5.49127E-11-2.28296E-10
 -1      1898 2.03561E-08-5.30041E-09-6.57533E-09 4.75802E-09-5.06049E-11-1.46687E-10
 -1      1899 2.39833E-08-6.14978E-09-7.70820E-09 2.55576E-09 7.08360E-11-5.63577E-11
 -1      1900 1.49290E-08-2.67998E-09-5.22894E-09-8.88795E-09-2.21671E-10 2.54453E-10
 -1      1901 3.13887E-08-8.29992E-09-9.87463E-09-7.73962E-10-2.54281E-12-1.36999E-10
 -1      1902 2.97529E-08-7.15534E-09-9.78089E-09 5.52415E-10-9.47806E-12-2.69549E-10
 -1      1903 9.86105E-09 1.10404E-10-4.26909E-09-8.23080E-09-1.40938E-10-3.93022E-11
 -1      1904 2.94538E-08-6.70062E-09-9.70639E-09-1.39716E-09 3.33136E-11-7.65741E-11
 -1      1905 2.75724E-08-6.25284E-09-9.51162E-09 4.10238E-11-3.27760E-10-1.08355E-09
 -1      1906 2.49824E-08-5.93673E-09-8.15014E-09-2.10877E-09-4.87987E-10-2.01444E-10
 -1      1907 2.56522E-08-5.24940E-09-8.88613E-09-9.77596E-11-4.73006E-11 1.68994E-11
 -1      1908 2.67995E-08-5.65014E-09-9.09228E-09-6.13662E-12-2.26296E-11-2.66175E-10
 -1      1909 2.50443E-08-5.68582E-09-8.33113E-09-8.14028E-10-5.01521E-12-9.30757E-11
 -1      1910 2.90956E-08-6.94152E-09-9.63382E-09-4.14302E-10-2.36917E-11-5.03237E-10
 -1      1911 3.04121E-08-7.69261E-09-9.74820E-09-3.67988E-10 1.98333E-11-2.68295E-10
 -1      1912 3.12834E-08-8.27611E-09-9.84111E-09 6.08357E-10-1.57625E-11-1.23960E-10
 -1      1913 3.18143E-08-8.65722E-09-9.85964E-09 1.90279E-10 6.12314E-12-1.02271E-10
 -1      1914 3.06324E-08-7.68386E-09-9.81060E-09 1.29263E-09 3.45202E-12-7.18961E-11
 -1      1915 3.18453E-08-8.88882E-09-9.83210E-09 1.62417E-09 4.16424E-11-5.41087E-11
 -1      1916 2.81756E-08-6.11211E-09-9.48985E-09-6.91450E-10-3.12798E-11-3.93385E-10
 -1      1917 2.52270E-08-5.79556E-09-8.46691E-09 4.38911E-10-2.47427E-11-2.44247E-10
 -1      1918 2.73961E-08-5.30336E-09-9.46602E-09 1.63929E-09 1.05263E-11-1.10419E-10
 -1      1919 3.06980E-08-7.81088E-09-9.71951E-09 2.72507E-09 1.06879E-11-1.35360E-10
 -1      1920 3.16642E-08-8.94075E-09-9.72401E-09 2.64947E-09 8.84721E-11-6.29108E-11
 -1      1921 2.90504E-08-6.40255E-09-9.69978E-09 2.21048E-09 6.54980E-12-1.49399E-10
 -1      1922 3.14273E-08-8.38622E-09-9.81009E-09-2.10481E-10 9.70400E-12-1.54785E-10
 -1      1923 3.01531E-08-7.47771E-09-9.71221E-09 1.90447E-09-3.50289E-11-1.19001E-10
 -1      1924-1.61142E-10 4.30137E-09-2.51096E-09-2.92185E-09-1.71735E-09 5.99073E-10
 -1      1925-6.44293E-10 2.82510E-09-1.29810E-09-1.44183E-09-1.43045E-10-5.91608E-12
 -1      1926-5.00811E-10 3.06177E-09-1.48828E-09-1.51687E-09-4.05698E-10-1.22017E-10
 -1      1927 2.21520E-10 9.60708E-10-4.78273E-10-1.15885E-09 3.33877E-11-4.49904E-11
 -1      1928 4.53172E-11 1.39179E-09-5.99307E-10-1.53388E-09 9.05284E-11-1.49456E-10
 -1      1929 2.96259E-10-1.76023E-11-1.19742E-10-2.24093E-10-2.28030E-12-9.84139E-12
 -1      1930 3.60603E-10 3.58671E-11-1.63370E-10-3.34876E-10-7.30126E-12-5.52617E-12
 -1      1931 8.07502E-11-3.27739E-11-2.19323E-11 1.12555E-12-2.41689E-12-4.85121E-13
 -1      1932 1.19494E-10-4.46425E-11-3.28065E-11-1.80810E-11 2.92259E-13 1.77139E-12
 -1      1933 1.40279E-11-3.30051E-12-4.67355E-12 7.95812E-12-9.03739E-13-1.30050E-13
 -1      1934 2.03689E-11-5.27088E-12-6.71995E-12 7.03260E-12-6.62632E-13 5.36650E-13
 -1      1935 8.51190E-13 1.12830E-12-9.05731E-13 2.38319E-12-8.30069E-14 5.54049E-14
 -1      1936 2.26296E-12 7.17636E-13-1.31503E-12 3.49595E-12-2.82519E-15 4.70394E-14
 -1      1937-6.58677E-14 5.73253E-13-2.25548E-13 3.77422E-13-1.73347E-14 2.06795E-15
 -1      1938 8.44428E-15 6.55712E-13-2.95358E-13 5.46102E-13-4.78976E-15 2.53254E-14
 -1      1939-1.29601E-13 3.34665E-13-8.43797E-14-4.90206E-14-6.98803E-15 5.80348E-15
 -1      1940-1.36549E-13 3.44896E-13-9.39551E-14 2.03071E-14-2.65103E-15-1.69914E-15
 -1      1941-1.60064E-13 7.85200E-13-2.70284E-13-5.12513E-13-2.34407E-14-2.05123E-15
 -1      1942-1.58213E-13 5.94299E-13-1.92245E-13-2.62726E-13 1.84869E-14 8.86319E-15
 -1      1943 2.31562E-12 6.02016E-13-1.27821E-12-3.30262E-12 1.53159E-14 6.37200E-14
 -1      1944 9.41820E-13 1.02262E-12-8.66961E-13-2.21354E-12 2.01780E-14 4.72116E-14
 -1      1945 1.93156E-11-4.55808E-12-6.34024E-12-1.05713E-11-5.13392E-13 4.78623E-13
 -1      1946 1.08879E-11-1.36193E-12-4.09844E-12-7.37552E-12 2.87221E-13 2.33995E-13
 -1      1947 1.12972E-10-4.45550E-11-3.05241E-11 2.13384E-11 1.59587E-12 1.15362E-12
 -1      1948 7.71932E-11-3.16817E-11-2.09380E-11-3.52140E-13 2.11593E-12-5.20090E-13
 -1      1949 4.09688E-10-6.85356E-11-1.46924E-10 2.82775E-10-6.59065E-13 1.68749E-11
 -1      1950 2.76636E-10-5.76235E-11-9.38308E-11 1.44954E-10 8.46385E-12-9.69464E-14
 -1      1951 3.16221E-10 1.20327E-09-6.68320E-10 1.52253E-09-7.03956E-11-1.92418E-10
 -1      1952 4.40012E-10 5.69622E-10-4.31603E-10 1.28222E-09-1.40056E-11-1.01394E-10
 -1      1953-7.51969E-10 3.11764E-09-1.50738E-09 1.45409E-09 3.18516E-10-3.40991E-10
 -1      1954-5.76779E-10 2.89761E-09-1.24013E-09 1.78329E-09-1.11943E-12-2.90215E-10
 -1      1955-3.49047E-10 4.69592E-09-2.60231E-09 2.98253E-09 1.71642E-09 9.06992E-10
 -1      1956 1.08349E-09 4.88020E-09-4.83996E-09-3.15602E-09-1.79745E-09 6.43807E-10
 -1      1957 7.92327E-10 4.88291E-09-4.80455E-09-3.17594E-09-1.38621E-09 5.66143E-10
 -1      1958 1.23441E-09 5.27067E-09-5.20863E-09-3.54731E-09-1.11176E-09 3.51897E-10
 -1      1959 9.82623E-10 5.18854E-09-5.16805E-09-3.25095E-09-7.95136E-10 3.46954E-10
 -1      1960-3.45531E-10 3.93143E-09-4.09648E-09-9.32665E-10-1.05853E-09 4.14958E-10
 -1      1961 6.75761E-10 4.74719E-09-4.89919E-09-2.80078E-09-7.68520E-10 4.74797E-10
 -1      1962 9.53271E-10 5.02808E-09-5.04220E-09-2.97325E-09-6.67532E-10 4.93441E-10
 -1      1963-2.00272E-10 3.77104E-09-4.24135E-09-7.67554E-10-6.66304E-10 3.16793E-10
 -1      1964 5.27842E-10 5.29681E-09-5.08274E-09-3.32368E-09-3.61064E-11 1.78147E-10
 -1      1965-5.58007E-11 5.40938E-09-4.91939E-09-2.92965E-09 8.61160E-10-3.16199E-10
 -1      1966-3.36508E-10 3.88805E-09-3.92266E-09-7.84740E-10 2.68583E-11 7.65683E-11
 -1      1967 1.55486E-10 5.85699E-09-5.01692E-09-3.50590E-09 9.20163E-10-4.13307E-10
 -1      1968 4.17799E-10 6.04186E-09-5.14551E-09-3.81190E-09 9.91029E-10-1.57106E-10
 -1      1969-1.00564E-09 4.69818E-09-4.03017E-09-9.18866E-10 8.32576E-10-3.09564E-10
 -1      1970 1.10203E-10 5.53591E-09-4.75512E-09-3.35656E-09 1.41635E-09-6.51887E-10
 -1      1971-8.22721E-10 5.79989E-09-4.53741E-09-3.07613E-09 1.94908E-09-8.18242E-10
 -1      1972-9.94442E-10 4.85240E-09-4.17064E-09-1.24327E-09 8.96480E-10-4.56783E-10
 -1      1973-7.21666E-10 5.69655E-09-4.11764E-09-3.53976E-09 1.84490E-09-8.75271E-10
 -1      1974 8.73191E-11 4.98778E-09-3.90329E-09-3.76341E-09 2.14888E-09-9.64875E-10
 -1      1975-1.14617E-09 3.99346E-09-3.03225E-09-1.00739E-09 1.27577E-09-5.79782E-10
 -1      1976-4.97825E-10 4.58536E-09-2.59171E-09-2.72708E-09 1.75764E-09-6.25292E-10
 -1      1977-2.25508E-10 3.15223E-09-2.95185E-09-7.08784E-10-7.59909E-10 2.05491E-10
 -1      1978-4.98795E-10 3.47343E-09-3.40574E-09-8.20243E-10-6.86441E-10 3.08757E-10
 -1      1979-4.26242E-10 4.03995E-09-2.26270E-09-2.23958E-09 6.60376E-10 4.58857E-11
 -1      1980-8.51761E-10 5.73447E-09-3.94149E-09 4.62625E-09 1.86023E-09 1.74673E-10
 -1      1981-9.05157E-10 5.37550E-09-3.27309E-09 4.30999E-09 2.20886E-09 1.01862E-09
 -1      1982 1.20667E-10 5.65124E-09-5.11488E-09 2.61580E-09 6.52431E-10 2.94513E-10
 -1      1983 2.06363E-10 5.40208E-09-4.96742E-09 3.28251E-09 9.29505E-10 2.93551E-10
 -1      1984-3.90057E-10 5.60277E-09-5.17783E-09 2.91138E-09-6.73782E-10-2.29608E-10
 -1      1985 2.03006E-10 5.58491E-09-5.26292E-09 3.44664E-09-3.20150E-11 8.55325E-12
 -1      1986-2.75057E-09 5.96301E-09-3.78549E-09 3.52243E-09-1.74143E-09-3.87143E-10
 -1      1987-1.77933E-10 5.71966E-09-4.41778E-09 4.21843E-09-1.40122E-09-1.87214E-10
 -1      1988-1.96135E-10 4.91029E-09-2.82151E-09 3.16440E-09-1.58555E-09-8.94969E-10
 -1      1989-2.05070E-10 2.45819E-09-1.24766E-09-1.39528E-09-7.39837E-11 8.68045E-11
 -1      1990-1.55802E-10 2.09854E-09-9.66573E-10-1.42317E-09-1.16845E-10 5.93548E-11
 -1      1991-1.13831E-10 1.60460E-09-6.54301E-10-1.80995E-09 1.91978E-11 1.25365E-10
 -1      1992 3.89174E-10 7.37534E-10-4.96768E-10-1.45625E-09-1.89435E-11 8.97060E-11
 -1      1993 4.15540E-10-1.35850E-11-1.64241E-10-3.18352E-10-1.95130E-11-1.59515E-12
 -1      1994 2.74726E-10-1.63611E-11-1.10514E-10-1.93580E-10-4.54523E-12-3.00244E-12
 -1      1995 1.15064E-10-4.37855E-11-3.29655E-11-2.19562E-11 1.84977E-12 1.39137E-12
 -1      1996 8.05770E-11-3.20991E-11-2.15868E-11-1.43057E-12 2.53393E-12 1.24267E-12
 -1      1997 2.02523E-11-5.77425E-12-6.58448E-12 1.02514E-11-3.06794E-13 1.70184E-13
 -1      1998 1.11657E-11-1.67599E-12-4.00100E-12 8.63613E-12 5.05226E-13 1.25286E-13
 -1      1999 2.39904E-12 6.19190E-13-1.40606E-12 2.91852E-12 3.23121E-14-1.00460E-13
 -1      2000 1.05289E-12 9.58439E-13-9.11285E-13 2.38753E-12 1.00551E-13-2.81231E-14
 -1      2001-1.01352E-13 6.97128E-13-2.69652E-13 5.22314E-13-1.30323E-14 8.30755E-15
 -1      2002-1.29743E-13 5.21208E-13-1.72389E-13 2.93719E-13 1.19971E-14 6.15416E-15
 -1      2003-1.06569E-13 3.19496E-13-9.34298E-14 1.61676E-14 2.57468E-15-1.14484E-15
 -1      2004-1.23668E-13 3.63096E-13-9.62202E-14-1.91638E-14 1.54446E-14 2.01635E-15
 -1      2005-1.72290E-13 5.92459E-13-1.84122E-13-2.86693E-13-2.48332E-14-1.23881E-14
 -1      2006-1.44109E-13 7.39790E-13-2.80903E-13-5.55136E-13-1.45744E-14-6.79432E-16
 -1      2007 9.35077E-13 9.75198E-13-8.59497E-13-1.96162E-12-1.52155E-14-5.80586E-14
 -1      2008 2.16187E-12 1.17696E-12-1.39759E-12-3.36772E-12 1.54298E-13-1.30650E-13
 -1      2009 1.14367E-11-1.76938E-12-4.20085E-12-8.77792E-12-5.04709E-13 1.31846E-13
 -1      2010 1.97018E-11-5.58717E-12-6.50725E-12-1.03431E-11 1.29457E-13-3.30390E-14
 -1      2011 7.80287E-11-3.23158E-11-2.07320E-11 2.64401E-12-1.86950E-12 1.08548E-12
 -1      2012 1.04316E-10-3.31927E-11-3.34553E-11 2.28014E-11-2.03223E-12-1.74529E-12
 -1      2013 3.11103E-10-8.81430E-11-9.65828E-11 1.52940E-10-6.54745E-12 8.94467E-12
 -1      2014 4.02166E-10-7.06362E-11-1.49153E-10 2.93752E-10 1.28561E-12-7.02412E-12
 -1      2015 4.18888E-10 6.11159E-10-4.29459E-10 1.28721E-09 2.07433E-11 9.58952E-11
 -1      2016 2.77032E-10 1.13579E-09-5.85032E-10 1.53095E-09 1.68468E-11 1.59468E-10
 -1      2017-1.13318E-10 2.43245E-09-2.44689E-09 9.94958E-10 5.12390E-10 2.28905E-10
 -1      2018-5.66215E-10 3.88049E-09-3.56774E-09 1.50540E-09 8.04994E-10 1.99920E-10
 -1      2019-3.82570E-10 3.91369E-09-2.21002E-09 2.30749E-09 5.77577E-10-2.19260E-10
 -1      2020-4.79951E-10 1.60962E-09-6.79508E-10-1.47213E-09 1.26623E-11 5.72776E-11
 -1      2021-1.63931E-10 1.98088E-09-1.07700E-09-1.74304E-09 4.85327E-11-1.95212E-10
 -1      2022-2.31626E-10 2.53240E-09-1.28085E-09-1.76436E-09-1.56754E-11-1.97083E-10
 -1      2023 4.39369E-10 7.05970E-12-1.96512E-10-4.57167E-10-4.04283E-12-4.32401E-11
 -1      2024 4.91605E-10 7.81913E-11-2.60416E-10-5.54270E-10-1.28443E-11-1.49920E-11
 -1      2025 4.88928E-10 5.33671E-10-4.31121E-10-1.03757E-09-5.81868E-11 3.22024E-11
 -1      2026 5.50811E-10 6.12603E-12-2.24891E-10-5.80612E-10 8.89910E-12 3.21926E-11
 -1      2027 1.30280E-10-5.33507E-11-3.49414E-11-3.80803E-11 1.99434E-13-4.10623E-14
 -1      2028 1.70277E-10-5.98044E-11-5.05351E-11-5.62926E-11-4.18986E-12-2.20538E-12
 -1      2029 2.39363E-10-6.53569E-11-7.70029E-11-1.36174E-10-4.17611E-12 1.63033E-12
 -1      2030 1.66620E-10-5.70557E-11-4.94172E-11-6.35172E-11 3.52061E-12 3.11641E-12
 -1      2031 2.48821E-11-9.27108E-12-7.74594E-12 9.76509E-12-9.57285E-13-8.01293E-13
 -1      2032 3.08934E-11-9.33525E-12-9.39176E-12 8.85368E-12-8.42043E-13 4.52628E-13
 -1      2033 5.27436E-11-1.90513E-11-1.45866E-11 9.50634E-12 7.45538E-13 1.28220E-12
 -1      2034 3.36078E-11-1.18815E-11-9.61001E-12 1.12997E-11 1.17349E-12 2.75526E-13
 -1      2035 3.05255E-12 3.44480E-13-1.38282E-12 3.24667E-12 1.16187E-14-7.43443E-14
 -1      2036 4.24685E-12 3.58489E-13-1.97778E-12 4.11423E-12-1.37964E-13-2.75548E-14
 -1      2037 7.18910E-12-1.10309E-12-2.65291E-12 5.16272E-12-2.58369E-13 8.29540E-15
 -1      2038 3.77551E-12 5.24820E-13-1.86710E-12 3.76111E-12-4.40623E-14 3.93674E-14
 -1      2039-9.28538E-14 8.48141E-13-3.26780E-13 7.25612E-13-3.84751E-14 1.52805E-14
 -1      2040 2.19138E-14 9.00489E-13-3.98830E-13 8.31482E-13-5.90882E-15 4.72498E-14
 -1      2041 2.17445E-13 1.20939E-12-6.16076E-13 1.49888E-12 6.31296E-14 9.82157E-15
 -1      2042-1.16757E-14 1.02476E-12-4.30595E-13 9.80494E-13 4.12696E-14-6.22398E-14
 -1      2043-1.41279E-13 3.28117E-13-8.58678E-14 4.71469E-14 3.77344E-15-1.06114E-14
 -1      2044-1.51971E-13 3.90806E-13-1.06375E-13 9.96099E-14-8.30870E-15 8.23671E-15
 -1      2045-1.48570E-13 4.75967E-13-1.47264E-13 2.33412E-13-6.15803E-15 7.13566E-15
 -1      2046-1.36874E-13 3.78830E-13-1.15181E-13 8.16089E-14 1.34884E-14-1.20166E-14
 -1      2047-1.52943E-13 4.93395E-13-1.46890E-13-1.85639E-13 1.38269E-15 1.03963E-15
 -1      2048-1.07323E-13 4.31220E-13-1.42931E-13-1.24979E-13-3.22124E-15-8.17391E-15
 -1      2049-9.06108E-14 3.37684E-13-9.95523E-14-8.38410E-14-7.99945E-15-4.58258E-15
 -1      2050-1.12086E-13 4.35171E-13-1.35495E-13-1.29429E-13-4.03911E-15 1.21218E-14
 -1      2051 6.28272E-13 8.08542E-13-6.40130E-13-1.73568E-12-4.10966E-14-6.41176E-14
 -1      2052 3.01977E-13 1.03029E-12-5.99816E-13-1.49580E-12-2.77102E-14 1.70637E-14
 -1      2053-5.01474E-14 9.17148E-13-4.01701E-13-9.21302E-13 2.83016E-14 2.90344E-14
 -1      2054 4.18798E-13 9.02661E-13-6.02096E-13-1.30805E-12-4.43716E-15-2.14647E-14
 -1      2055 8.71510E-12-1.12305E-12-3.43007E-12-6.86335E-12 4.10170E-13-3.22988E-13
 -1      2056 6.90204E-12-4.34628E-13-2.88644E-12-5.07758E-12 1.98435E-13 1.35880E-13
 -1      2057 4.52249E-12 2.47271E-13-2.10638E-12-4.00787E-12 1.47970E-13-3.66480E-14
 -1      2058 6.62366E-12 3.34384E-13-2.84305E-12-5.75589E-12 1.75890E-13 2.83364E-13
 -1      2059 5.73219E-11-2.53993E-11-1.46864E-11-3.25185E-12-4.63373E-14 1.99284E-13
 -1      2060 5.09217E-11-1.89719E-11-1.39988E-11-9.10848E-12-4.19879E-13 7.11898E-13
 -1      2061 3.18486E-11-1.11268E-11-9.39373E-12-1.12229E-11 1.07381E-12-4.71301E-14
 -1      2062 5.09405E-11-2.01992E-11-1.41470E-11-7.42442E-12-4.37360E-13 3.17492E-13
 -1      2063 2.49858E-10-6.83693E-11-8.06709E-11 1.18667E-10 1.65666E-12-1.23846E-11
 -1      2064 1.87491E-10-3.78985E-11-6.67554E-11 8.79385E-11 5.84821E-12-7.84738E-13
 -1      2065 1.49299E-10-3.85368E-11-4.91938E-11 5.19813E-11 1.76294E-12-3.26787E-12
 -1      2066 2.10292E-10-5.21003E-11-6.43532E-11 7.34105E-11 7.34748E-12 3.32116E-13
 -1      2067 3.98158E-10 3.16141E-10-2.82235E-10 9.82719E-10 6.77884E-12-4.37930E-12
 -1      2068 5.80172E-10 1.87816E-10-3.17771E-10 8.57274E-10-4.76813E-12-4.04419E-14
 -1      2069 5.05705E-10-9.16166E-12-2.16793E-10 5.17018E-10 1.58589E-11-1.93644E-11
 -1      2070 5.50876E-10 2.06754E-10-3.20631E-10 8.69019E-10 5.55037E-12 1.60684E-11
 -1      2071-2.78963E-10 2.25502E-09-1.04035E-09 1.35940E-09-8.30677E-11-1.86764E-10
 -1      2072 7.21043E-11 1.65660E-09-8.59447E-10 1.53273E-09-1.50163E-10-1.74930E-10
 -1      2073 8.70976E-10 4.85487E-09-4.13183E-09-3.67629E-09-1.87311E-09 7.64207E-10
 -1      2074-6.77951E-10 3.55076E-09-3.02025E-09-9.79106E-10-1.36751E-09 4.50181E-10
 -1      2075 7.65770E-10 4.57209E-09-3.70371E-09-3.67048E-09-1.97693E-09 5.67776E-10
 -1      2076 5.85714E-10 6.00820E-09-5.51593E-09 3.05394E-09 6.25664E-10 1.99887E-10
 -1      2077-4.34440E-11 4.17811E-09-4.50293E-09 1.14747E-09 5.48125E-10 4.18805E-10
 -1      2078 7.21103E-10 6.18832E-09-5.46853E-09 3.46762E-09 3.19083E-10 1.77256E-10
 -1      2079 3.05081E-10 5.80973E-10-3.44231E-10-1.13145E-09 2.97501E-10-1.39914E-10
 -1      2080 1.49974E-10 4.79238E-09-4.49854E-09 3.07163E-09 1.31612E-09 3.24295E-10
 -1      2081 3.93097E-10 4.97168E-09-4.59641E-09 3.25567E-09 1.56615E-09 4.74920E-10
 -1      2082 9.98396E-12 4.34205E-09-4.67334E-09 1.27293E-09 1.69374E-10-1.39319E-10
 -1      2083 1.02557E-09 5.53797E-09-5.05536E-09 3.87988E-09-1.22221E-09-6.06314E-10
 -1      2084-5.06042E-10 5.81924E-09-5.10710E-09 2.68577E-09-6.94599E-10-3.14347E-10
 -1      2085-7.38775E-10 4.00859E-09-2.17474E-09 1.76741E-09-7.32085E-10 1.15590E-10
 -1      2086-2.33196E-10 2.52241E-09-1.62581E-09 1.18521E-09-3.67396E-10-9.30263E-13
 -1      2087-6.86281E-10 3.24296E-09-1.30397E-09-1.90427E-09 1.74277E-10 2.86389E-10
 -1      2088-2.76858E-10 2.45099E-09-1.48803E-09-1.14503E-09 2.10369E-10 4.03288E-11
 -1      2089-8.07924E-10 3.18333E-09-1.47951E-09-1.54363E-09 3.27676E-10 4.37256E-10
 -1      2090-1.06744E-09 3.54266E-09-2.63361E-09 1.17541E-09 1.34149E-09 6.49170E-10
 -1      2091 5.71013E-10 2.77393E-10-3.41663E-10-1.00059E-09-4.14325E-11 4.40647E-12
 -1      2092 2.23949E-10-2.12606E-11-8.13174E-11-1.61284E-10 1.95523E-12-3.83011E-12
 -1      2093 2.13338E-10-3.52827E-11-8.28125E-11-1.26194E-10 5.94494E-12-5.56042E-12
 -1      2094 5.96991E-11-2.58284E-11-1.56776E-11 4.31226E-12 1.75144E-13 3.27997E-13
 -1      2095 5.15683E-11-2.03219E-11-1.47908E-11 7.79497E-12 3.52807E-13 1.09521E-13
 -1      2096 8.58954E-12-1.24456E-12-3.29435E-12 7.05204E-12-4.67376E-13-2.33979E-13
 -1      2097 6.37771E-12 4.19989E-13-2.87452E-12 5.76014E-12-1.54274E-13 2.73477E-13
 -1      2098 4.15078E-13 9.36153E-13-6.32130E-13 1.77681E-12 8.20584E-15 2.26370E-15
 -1      2099 2.72841E-13 1.03101E-12-6.42212E-13 1.52999E-12 4.41728E-14-2.49213E-14
 -1      2100-1.03837E-13 4.53200E-13-1.52971E-13 2.71128E-13-1.24537E-15-1.84876E-15
 -1      2101-1.54348E-13 5.12190E-13-1.48300E-13 2.22666E-13-8.22595E-15-2.75080E-14
 -1      2102-9.13769E-14 3.18280E-13-9.04301E-14-7.10069E-14 5.38015E-15-5.93521E-16
 -1      2103-9.57443E-14 3.40649E-13-1.06413E-13-7.64504E-14-9.18859E-16 5.44226E-15
 -1      2104-1.13680E-13 7.39632E-13-2.88028E-13-6.74663E-13-6.07537E-15 2.50204E-15
 -1      2105 1.02568E-14 8.73723E-13-4.01634E-13-9.71045E-13-4.11465E-14-2.35262E-14
 -1      2106 3.21009E-12 2.87974E-13-1.45177E-12-3.06249E-12 7.86862E-14-8.04585E-14
 -1      2107 3.76733E-12 4.76182E-13-1.84505E-12-3.73078E-12 5.72981E-14 1.35722E-13
 -1      2108 2.31965E-11-8.11091E-12-6.90518E-12-1.01090E-11-6.39864E-14 1.72975E-13
 -1      2109 3.27298E-11-1.16688E-11-9.34206E-12-1.08299E-11-1.17971E-12 3.00847E-13
 -1      2110 1.12640E-10-3.34894E-11-3.28246E-11 3.48590E-11-3.96392E-13-1.42689E-12
 -1      2111 1.37252E-10-3.58380E-11-4.36556E-11 4.18575E-11 2.02649E-12-8.02752E-13
 -1      2112 4.31056E-10-5.48043E-11-1.64663E-10 3.85950E-10 1.30491E-12 3.55931E-12
 -1      2113 5.05539E-10-5.87050E-13-2.16907E-10 5.29091E-10-1.36253E-11 2.38830E-11
 -1      2114 1.66731E-10 1.70282E-09-8.49753E-10 1.74201E-09 6.03823E-11 1.23433E-10
 -1      2115-1.31939E-09 3.30626E-09-2.08294E-09 1.07311E-09 1.00727E-09 1.90790E-10
 -1      2116-4.48077E-10 3.86992E-09-2.16102E-09-2.17129E-09-7.05774E-10 2.72957E-11
 -1      2117-1.09674E-10 1.57410E-09-6.15780E-10 1.24327E-09-1.16742E-10 2.38958E-11
 -1      2118-6.02342E-10 3.25351E-09-2.14515E-09-1.31000E-09-1.06744E-09 2.34733E-10
 -1      2119-6.83661E-11 4.36706E-09-4.26275E-09 1.90419E-09-6.55212E-10-2.05221E-10
 -1      2120-5.79261E-10 4.15163E-09-2.58494E-09-1.65467E-09 4.62110E-10 8.16469E-12
 -1      2121-4.17710E-10 2.43060E-09-1.40583E-09-1.17368E-09-2.63553E-10 1.97805E-10
 -1      2122-3.75409E-10 2.41580E-09-1.32625E-09 1.12766E-09 1.76752E-10-3.79085E-11
 -1      2123-1.91608E-10 3.39401E-09-3.31260E-09 1.14735E-09-1.23124E-09-6.78532E-10
 -1      2124-2.01169E-10 1.52133E-09-5.57005E-10 1.52235E-09-3.83749E-11 7.89688E-11
 -1      2125-4.94256E-10 2.93413E-09-2.19925E-09-9.51902E-10-5.17322E-10 2.93641E-10
 -1      2126-3.81713E-10 3.15979E-09-2.62862E-09-7.78129E-10-1.08055E-09 4.38927E-10
 -1      2127-5.89419E-11 3.30044E-09-3.43000E-09 8.77773E-10-6.04174E-10-1.80310E-10
 -1      2128 1.35744E-10 3.45364E-09-3.66834E-09 1.51618E-09-2.48070E-10-2.43761E-11
 -1      2129-2.55500E-10 3.21310E-09-3.12877E-09-8.24525E-10-3.66091E-10 4.07976E-10
 -1      2130 5.09982E-11 3.46146E-09-3.15880E-09-9.90398E-10 7.21183E-11 3.60623E-11
 -1      2131-8.50656E-10 3.91366E-09-3.08918E-09-7.49189E-10 9.14569E-11 1.34503E-10
 -1      2132-1.10587E-09 4.03362E-09-3.07810E-09-7.79897E-10 5.56023E-10-7.35886E-10
 -1      2133-1.16703E-09 4.45336E-09-3.64053E-09-1.06462E-09 6.17956E-10-4.70535E-10
 -1      2134 3.47829E-10 3.72514E-09-4.00481E-09 1.61122E-09-4.71117E-11-5.77710E-11
 -1      2135 2.53584E-10 3.83381E-09-4.16669E-09 1.08416E-09 2.42833E-10 1.19616E-10
 -1      2136-4.30895E-10 2.12541E-09-9.15218E-10 1.29690E-09 5.88114E-11 1.06825E-11
 -1      2137-1.37979E-09 5.53709E-09-3.60627E-09 3.59708E-09-1.76322E-09-7.31102E-10
 -1      2138-4.57626E-10 3.22584E-09-2.39829E-09 1.00884E-09 7.10111E-10 3.10240E-10
 -1      2139-3.26412E-10 2.35103E-09-1.88279E-09 9.37427E-10 3.40937E-10 1.41497E-10
 -1      2140 5.31136E-11 2.13250E-09-1.33978E-09 1.15699E-09 1.14677E-10 1.31597E-10
 -1      2141-5.53839E-10 2.96903E-09-2.68897E-09 7.91003E-10-7.56175E-10-2.73519E-10
 -1      2142-8.25881E-10 2.64976E-09-2.00545E-09 7.13826E-10-6.37315E-10-4.59886E-10
 -1      2143-2.92043E-10 1.59046E-09-6.66345E-10-1.07242E-09-8.68120E-11 5.82246E-11
 -1      2144-4.06204E-10 2.10728E-09-1.06544E-09-1.15514E-09 1.34470E-10 1.00224E-10
 -1      2145-4.57098E-10 4.19742E-09-3.36353E-09-8.58591E-10 5.80924E-10-2.01052E-10
 -1      2146-7.65996E-10 3.75406E-09-2.58892E-09-8.50109E-10 7.92198E-10-3.38022E-10
 -1      2147-9.79439E-10 3.52700E-09-2.11204E-09-1.48308E-09 1.14234E-09-1.55853E-10
 -1      2148 1.59371E-11 1.92913E-09-1.27884E-09 1.09556E-09 7.32984E-11-1.01214E-10
 -1      2149 3.02475E-10-1.80247E-10-3.51470E-11 5.12265E-11-1.00811E-13 5.71769E-13
 -1      2150 3.91697E-10-2.07139E-10-6.98024E-11 6.83269E-12-1.34323E-12 4.25914E-12
 -1      2151 4.26861E-10-2.16148E-10-6.36936E-11-1.44377E-11-1.90192E-12-6.41679E-13
 -1      2152 3.28263E-08-9.44351E-09-1.02740E-08 1.62022E-09 2.64629E-11-3.49745E-10
 -1      2153 3.28039E-08-9.10874E-09-1.03540E-08 2.38250E-09-1.49701E-11-5.49514E-10
 -1      2154 3.25829E-08-9.46404E-09-1.01200E-08 1.51932E-09 3.48903E-11-4.87016E-10
 -1      2155 3.25369E-08-8.73591E-09-1.03705E-08 2.50206E-09 2.13495E-11-3.17464E-10
 -1      2156 3.25845E-08-9.28224E-09-1.01721E-08 1.63009E-09 2.42193E-11-2.89274E-10
 -1      2157 3.23135E-08-8.83457E-09-1.01970E-08 2.33737E-09 2.44687E-11-4.64510E-10
 -1      2158 1.85029E-08 2.70171E-09-8.87128E-09-1.58961E-09-5.49998E-10 3.18309E-10
 -1      2159 3.31061E-08-9.91559E-09-9.94954E-09-8.83767E-10-1.32307E-11 6.95388E-12
 -1      2160 3.31853E-08-9.88300E-09-1.00010E-08-3.17537E-10-1.68955E-11-2.58312E-11
 -1      2161 3.34202E-08-1.00367E-08-1.00263E-08-8.92797E-10-1.94098E-12 1.63323E-11
 -1      2162 3.33023E-08-9.96935E-09-1.00043E-08-6.55330E-10 2.52581E-13 5.39314E-12
 -1      2163 3.34464E-08-1.00419E-08-1.00383E-08-2.70909E-10-2.38643E-12-2.99967E-12
 -1      2164 2.63892E-08-2.66933E-09-9.83481E-09 3.80626E-09 1.83704E-10 4.14760E-10
 -1      2165 2.88505E-08-2.74105E-09-1.00584E-08 7.78875E-09 2.34251E-10-4.93515E-11
 -1      2166 2.66799E-08-2.10084E-09-9.49875E-09 6.18544E-09 5.73411E-10 3.95117E-10
 -1      2167 2.96155E-08-4.51472E-09-1.03870E-08 4.76574E-09-4.89420E-11-4.02003E-10
 -1      2168 2.75454E-08-3.08398E-09-9.89596E-09 3.68415E-09 1.04059E-10-4.15728E-11
 -1      2169 3.03239E-08-3.86992E-09-1.00441E-08 6.61975E-09 2.51181E-10-1.34586E-11
 -1      2170 3.25569E-08-9.63780E-09-9.93808E-09 1.01363E-09 6.60755E-12 9.84581E-12
 -1      2171 3.25752E-08-9.55075E-09-1.00724E-08 1.07463E-09 1.73529E-12-7.97689E-11
 -1      2172 3.24951E-08-9.62644E-09-9.89584E-09 9.99085E-10 1.04368E-11-8.59523E-11
 -1      2173 3.29094E-08-9.41386E-09-1.03680E-08 1.69324E-09-1.80118E-11 2.86259E-10
 -1      2174 3.29322E-08-9.48414E-09-1.03000E-08 1.85509E-09 1.13705E-11 4.77060E-10
 -1      2175 3.24136E-08-9.37437E-09-1.01301E-08 1.58750E-09-5.53045E-12 4.06936E-10
 -1      2176-8.26220E-09 4.71592E-09 3.07570E-09 4.37110E-09 7.34069E-10 3.01612E-10
 -1      2177-1.02710E-08 4.22313E-09 2.92013E-09 6.86843E-09-7.29128E-10-2.36874E-09
 -1      2178 2.57734E-08-4.23720E-09-6.08076E-09 1.38032E-09 3.49222E-10-1.73074E-09
 -1      2179 3.08494E-08-6.14428E-09-1.02082E-08-2.45996E-10-4.63718E-10-4.26752E-10
 -1      2180 2.71785E-08-4.99285E-09-5.34501E-09 1.16265E-09-2.82284E-12-1.26203E-09
 -1      2181 3.03708E-08-4.44876E-09-8.36531E-09-1.18659E-10 3.62496E-11-4.24964E-09
 -1      2182 3.28383E-08-9.74624E-09-9.92459E-09 7.28713E-10 3.51270E-11-4.89824E-11
 -1      2183 3.25868E-08-9.52165E-09-9.98481E-09 1.09957E-09 3.57941E-11-2.12019E-10
 -1      2184 3.25125E-08-9.54047E-09-9.89550E-09 1.05564E-09 3.49608E-11-1.49288E-10
 -1      2185 3.24792E-08-9.67060E-09-9.82179E-09 9.93201E-10 1.52438E-11-5.48946E-11
 -1      2186 3.22667E-08-9.48958E-09-9.86803E-09 1.31235E-09 3.96967E-11-2.19931E-10
 -1      2187 2.21802E-08-7.22212E-10-9.26812E-09 1.22208E-08 3.23311E-10 1.33235E-10
 -1      2188 1.74374E-08 1.51864E-09-8.34081E-09 1.37855E-09 7.63341E-10-4.26717E-10
 -1      2189 3.22314E-08-7.34643E-09-1.11318E-08-1.97428E-09-5.45620E-10 7.58538E-10
 -1      2190 3.19444E-08-9.21967E-09-9.79090E-09 1.94121E-09-9.85153E-12-4.21081E-10
 -1      2191 3.16087E-08-8.53629E-09-9.95084E-09 2.64666E-09 5.44746E-11-3.50973E-10
 -1      2192 3.20551E-08-9.14392E-09-9.85204E-09 1.82996E-09 4.18133E-11-2.90759E-10
 -1      2193 3.22358E-08-9.08038E-09-1.00565E-08 2.40251E-09-6.05677E-11-7.98958E-10
 -1      2194 3.23380E-08-9.40252E-09-9.92583E-09 1.64986E-09 3.63257E-11-5.83456E-10
 -1      2195 3.21170E-08-8.89006E-09-1.00533E-08 2.32208E-09 1.86094E-11-5.60748E-10
 -1      2196 3.35824E-08-5.76442E-09-1.09759E-08 9.90802E-09-6.87657E-11-4.98764E-10
 -1      2197 3.59917E-08-6.53344E-09-1.18072E-08 7.79430E-09 2.61299E-10 3.25096E-10
 -1      2198 2.47413E-08-2.59328E-10-9.88001E-09 1.34457E-08-7.00794E-10-1.12473E-09
 -1      2199 2.84623E-08-2.11115E-09-1.10688E-08 1.16437E-08 1.33670E-10-7.69730E-10
 -1      2200 2.66616E-08-1.84821E-09-1.03378E-08 6.38754E-09-8.83115E-11-4.91330E-10
 -1      2201 3.25058E-08-9.39531E-09-1.02333E-08-1.43707E-09-4.89959E-13-1.00615E-10
 -1      2202 3.30251E-08-9.53818E-09-1.03676E-08-1.64176E-09-2.95929E-12-1.97101E-10
 -1      2203 3.29813E-08-9.50996E-09-1.03937E-08-1.62771E-09 1.33103E-11-5.65787E-13
 -1      2204 4.06453E-11-8.55729E-12-1.19244E-11-3.64516E-11-9.17571E-13 3.34767E-13
 -1      2205 2.49086E-11-3.18206E-12-5.63803E-12-3.42019E-11-3.78171E-13-1.72095E-14
 -1      2206 1.85526E-11 2.12371E-12-6.59633E-12-2.30015E-11-1.64145E-12-6.04563E-13
 -1      2207 3.22351E-08-9.46231E-09-9.93423E-09 1.19629E-09-3.03833E-11 3.18649E-10
 -1      2208 3.24423E-08-9.50144E-09-1.00933E-08 1.20805E-09-9.17811E-12 7.19924E-11
 -1      2209 3.26151E-08-9.40880E-09-1.02882E-08 1.58274E-09-9.33756E-12 8.63744E-11
 -1      2210 3.25501E-08-9.36566E-09-1.01455E-08 1.47330E-09-2.52028E-11 2.41491E-10
 -1      2211 3.23806E-08-9.43328E-09-1.01180E-08 1.38490E-09 2.09217E-11-2.62178E-10
 -1      2212 2.25073E-09 3.75928E-09-3.36950E-09 4.48330E-09-2.93088E-10-2.91167E-10
 -1      2213 2.65941E-09 2.92992E-09-2.33336E-09 5.36024E-09-1.17822E-10-1.07170E-10
 -1      2214 1.83138E-09 3.09027E-09-2.67506E-09 3.38398E-09-2.78735E-10-1.25665E-10
 -1      2215 1.67364E-09 3.76696E-09-3.23219E-09 3.91233E-09 8.37300E-11 1.14976E-10
 -1      2216 1.26969E-09 3.08079E-09-2.58667E-09 2.86187E-09 3.96726E-11 3.88318E-11
 -1      2217 1.13797E-09-6.76219E-11-2.75074E-10-9.72323E-10 6.52618E-11 1.92999E-11
 -1      2218 1.62320E-09-4.12911E-10-3.15454E-10-1.57801E-09-1.79887E-11 3.52206E-11
 -1      2219 1.78931E-09-4.19055E-10-3.47763E-10-1.96260E-09-4.80506E-11-3.68397E-11
 -1      2220 7.28214E-10 2.81028E-09-2.13115E-09 2.64738E-09-6.98906E-11-1.02780E-11
 -1      2221 1.23209E-09 2.82299E-09-2.09628E-09 3.09181E-09-4.04510E-10-1.82513E-10
 -1      2222 4.33910E-09 3.29435E-09-3.89107E-09-5.61986E-09 1.41597E-09-5.88881E-10
 -1      2223 2.69560E-09 2.83869E-09-3.18614E-09-4.43336E-09 1.11131E-09-3.88577E-10
 -1      2224 3.92046E-09 3.29943E-09-4.05447E-09-5.00725E-09 1.47722E-09-6.40345E-10
 -1      2225-9.71627E-13 2.37345E-12-5.22989E-13-1.10266E-12-3.52730E-14-1.43933E-15
 -1      2226 3.57177E-08-1.08536E-08-1.06199E-08 8.65835E-10-1.56179E-11-4.61182E-12
 -1      2227 3.50238E-08-1.05186E-08-1.04935E-08 7.62170E-10-3.93683E-12-1.70510E-11
 -1      2228 2.86085E-08-3.95703E-09-1.00801E-08-3.10355E-09-1.75095E-11-1.94129E-10
 -1      2229 3.06719E-08-5.58780E-09-1.03078E-08-3.73816E-09 1.28520E-11-1.41171E-10
 -1      2230 2.77048E-08-3.67105E-09-9.57883E-09-2.43708E-09-8.05095E-11-7.84768E-11
 -1      2231 3.13220E-08-5.39987E-09-1.02578E-08-5.56327E-09-6.96206E-11-7.53698E-11
 -1      2232 2.74860E-08-3.01003E-09-9.49263E-09-3.65443E-09-1.15545E-10 3.88365E-11
 -1      2233 2.99831E-08-4.26549E-09-9.70470E-09-5.17223E-09-7.01355E-11 1.62122E-10
 -1      2234 3.00792E-08-4.42173E-09-8.04982E-09 4.99434E-11-2.28610E-10-4.65396E-09
 -1      2235 2.84286E-08-6.13630E-09-9.25923E-09 6.11485E-10-1.85623E-11 5.78540E-10
 -1      2236 2.97519E-08-5.34980E-09-8.54390E-09-1.04395E-09-4.85618E-10-3.82894E-09
 -1      2237 3.18282E-08-7.79374E-09-1.04345E-08-2.13005E-09-2.98440E-11 3.73768E-10
 -1      2238 3.10514E-08-6.86069E-09-1.03213E-08-3.64693E-09-1.86164E-11 5.51354E-10
 -1      2239 3.12982E-08-7.76697E-09-1.01641E-08-1.93499E-09-2.27589E-11 5.79735E-10
 -1      2240 2.99771E-08-5.32110E-09-1.03996E-08-3.07651E-09-8.93486E-12 3.78117E-10
 -1      2241 3.05179E-08-6.63161E-09-1.03277E-08-1.68147E-09-3.43854E-11 4.66819E-10
 -1      2242 2.95058E-08-5.45270E-09-1.02491E-08-2.72216E-09-6.26671E-11 5.35318E-10
 -1      2243-1.97809E-13 5.23673E-12-1.57627E-12-6.60830E-12-6.87433E-13-3.42471E-13
 -1      2244 1.27952E-08-6.48966E-10-5.49081E-09-8.44669E-09 8.12351E-10-4.31596E-10
 -1      2245 2.05028E-08-3.36994E-09-7.14260E-09-6.39366E-09 5.45898E-10-5.46448E-10
 -1      2246 1.81906E-08 1.03283E-09-7.90879E-09-1.33397E-08 1.45146E-09-1.28960E-09
 -1      2247 1.60723E-08-1.80192E-09-6.25865E-09-6.11960E-09 7.45305E-10-7.93356E-10
 -1      2248 1.32650E-08 2.57648E-09-6.91280E-09-1.27912E-08 1.78400E-09-1.36685E-09
 -1      2249 2.29273E-08-1.92734E-09-8.46010E-09-8.90073E-09 1.14663E-09-1.12188E-09
 -1      2250-5.35919E-09-7.58854E-09 4.65021E-09 6.90366E-09 3.86775E-11 1.09365E-10
 -1      2251-8.20569E-09 4.83531E-09 3.06191E-09 4.67903E-09-9.15564E-10-2.18175E-10
 -1      2252-1.01495E-08 4.42658E-09 2.81762E-09 7.01918E-09 8.83211E-10 2.49095E-09
 -1      2253 2.70029E-08-5.35576E-10-8.74619E-09 1.43039E-08-1.65042E-10-4.29347E-11
 -1      2254 3.62636E-08-7.77125E-09-9.55671E-09 8.22396E-09-5.11102E-11-1.29734E-11
 -1      2255 2.67949E-08-7.61081E-10-8.66974E-09 1.41615E-08-5.01611E-11-4.04785E-11
 -1      2256 2.63942E-08-4.92820E-09-6.06579E-09-8.99534E-10-3.78114E-10-1.23905E-09
 -1      2257 2.39103E-08-4.41899E-09-4.05093E-09-2.28146E-09-2.03013E-10-1.60796E-09
 -1      2258 2.81471E-08-4.76313E-09-9.05241E-09 1.89809E-12-4.14909E-11-7.54819E-10
 -1      2259 2.64877E-08-5.21270E-09-5.55156E-09-2.33786E-09-9.02897E-10-4.66194E-09
 -1      2260 3.31355E-09 4.12914E-09-3.61918E-09-6.50266E-09 8.89462E-10-8.23428E-11
 -1      2261 2.88626E-09 3.57847E-09-2.87764E-09-5.43440E-09 6.03879E-10-2.16456E-10
 -1      2262 8.37782E-09 2.05357E-09-4.48867E-09-8.59505E-09 8.36771E-10 6.42370E-11
 -1      2263 7.04581E-09 1.82631E-09-3.92830E-09-7.20286E-09 8.63292E-10-9.73861E-11
 -1      2264 1.06775E-08-8.51480E-09-6.10035E-10 7.11519E-09 3.42361E-13-6.57922E-11
 -1      2265 2.36169E-08-5.90023E-09-5.92270E-09 3.99564E-09-5.31452E-10 3.77948E-09
 -1      2266 2.18863E-08-5.23034E-09-4.00999E-09 3.64045E-09-3.45053E-10 2.33421E-09
 -1      2267 2.16444E-08-4.19313E-09-7.31426E-09 3.46669E-09 5.04315E-10 1.37772E-09
 -1      2268 1.83286E-08-4.12581E-09-5.19145E-09 6.33475E-09 1.69342E-11 2.21841E-09
 -1      2269 1.77444E-08-3.79150E-09-3.75097E-09 5.46938E-09 2.14355E-11 1.65709E-09
 -1      2270 3.40422E-08-6.13919E-09-9.93581E-09 9.57918E-09 5.33366E-10 6.16486E-10
 -1      2271 3.49667E-08-7.25218E-09-1.03947E-08 9.40247E-09 1.90664E-10-5.74912E-11
 -1      2272 2.69928E-08-4.73799E-10-9.41669E-09 1.42920E-08 1.19797E-09 1.47835E-09
 -1      2273 1.81718E-09 3.04836E-09-1.98386E-09-4.43608E-09 4.14282E-10 7.54423E-11
 -1      2274 3.28020E-08-9.78435E-09-9.91607E-09 1.00793E-09 1.51709E-11-2.63316E-11
 -1      2275 2.79161E-08-1.40815E-09-9.42424E-09 1.38963E-08-4.79141E-10-1.03969E-09
 -1      2276 2.64514E-08-1.67065E-09-9.73845E-09 6.63464E-09-5.06973E-10-6.24833E-10
 -1      2277 3.57077E-08-6.89335E-09-1.04439E-08 8.15269E-09-2.00642E-10-2.86965E-10
 -1      2278 2.50789E-08 3.63697E-11-9.23003E-09 1.47561E-08-7.58159E-10-1.37670E-09
 -1      2279 3.39189E-08-6.31507E-09-1.03498E-08 9.90889E-09-4.17147E-10-5.39447E-10
 -1      2280 1.01028E-08 1.33090E-09-4.43176E-09-8.40503E-09 9.93339E-10-4.40593E-10
 -1      2281 4.50594E-09 3.66494E-09-4.32776E-09-5.21766E-09 6.03063E-10-6.55540E-11
 -1      2282 7.11544E-09 3.84380E-09-4.99548E-09-8.72399E-09 7.96285E-10-2.42013E-10
 -1      2283 3.75278E-09 3.66282E-09-4.50419E-09-5.14209E-09 1.23906E-09-4.88800E-10
 -1      2284 6.34169E-09 4.14786E-09-5.32041E-09-8.33926E-09 1.36274E-09-6.70495E-10
 -1      2285 3.73472E-08-9.54613E-09-1.02285E-08 6.78705E-09-7.50393E-11 1.83505E-10
 -1      2286 3.45436E-08-9.39314E-09-1.04134E-08 3.88669E-09 1.73439E-11 2.08947E-10
 -1      2287 3.47366E-08-9.49615E-09-1.03321E-08 4.09232E-09-2.02133E-11 1.28538E-10
 -1      2288 3.05153E-08-6.11902E-09-1.03462E-08 2.32505E-09 3.54171E-11-1.98600E-10
 -1      2289 3.08033E-08-6.50672E-09-1.03531E-08 1.15577E-09-2.03999E-11-1.57606E-10
 -1      2290 3.19126E-08-7.57331E-09-1.04992E-08 2.68849E-09 2.27665E-11-1.08422E-10
 -1      2291 2.93956E-08-5.02637E-09-1.00943E-08 1.36252E-09-1.77445E-11-2.56952E-10
 -1      2292 3.06008E-08-5.91386E-09-1.02838E-08 3.44776E-09 1.18035E-10-6.88365E-11
 -1      2293 3.06759E-08-6.15269E-09-1.03195E-08 2.12326E-09 3.96644E-11-5.03243E-11
 -1      2294 3.84693E-08-1.13825E-08-1.14515E-08 1.29309E-09-1.71442E-11-1.30671E-10
 -1      2295 2.55070E-08-4.74515E-09-8.46467E-09-5.10939E-10 2.83369E-10-3.03435E-10
 -1      2296 2.76113E-08-5.32085E-09-9.34521E-09 3.60541E-10 4.01825E-10 4.56122E-11
 -1      2297 3.19824E-08-9.45841E-09-9.69657E-09 1.42938E-09-2.72159E-11 2.26511E-10
 -1      2298 3.21820E-08-9.24679E-09-9.86570E-09 1.61150E-09-2.26856E-11 2.32599E-10
 -1      2299 3.24000E-08-9.39365E-09-9.96383E-09 1.41212E-09-6.04076E-11 3.12359E-10
 -1      2300 3.21788E-08-9.56313E-09-9.75845E-09 1.16914E-09-2.25441E-11 1.31799E-10
 -1      2301 3.23279E-08-9.46047E-09-9.88117E-09 1.21083E-09-3.59471E-11 1.58006E-10
 -1      2302 3.20535E-08-9.37160E-09-9.90591E-09 1.46345E-09-4.93889E-11 4.52064E-10
 -1      2303 3.54423E-08 1.23113E-08-1.73397E-08-3.03188E-08 1.22492E-09 7.63971E-10
 -1      2304 3.24991E-08-9.17695E-09-1.01490E-08 1.91957E-09-2.99959E-11 3.72980E-10
 -1      2305 3.23929E-08-9.59728E-09-9.89945E-09 1.17543E-09-2.33469E-11 1.39941E-10
 -1      2306-2.73754E-13 5.22649E-13-8.47508E-14-1.13253E-13-7.73160E-15 3.91634E-14
 -1      2307-2.67745E-13 5.07747E-13-7.10146E-14-1.09373E-13 5.46608E-15-4.97028E-15
 -1      2308-3.22222E-13 7.61311E-13-1.21915E-13-2.82525E-14-1.77442E-14 5.09090E-14
 -1      2309-3.31866E-13 6.88626E-13-1.21913E-13-2.64395E-14-2.65828E-15-6.63625E-15
 -1      2310-9.93463E-14 3.25065E-13-7.06482E-14-2.40076E-14 2.85183E-15 1.92966E-14
 -1      2311 3.01522E-08-5.90998E-09-1.02428E-08-4.59935E-10-7.25794E-11-3.26803E-10
 -1      2312 3.12317E-08-7.12192E-09-1.04107E-08-5.24071E-10-2.42576E-11-3.53844E-10
 -1      2313 3.02028E-08-5.76152E-09-1.02873E-08-6.06538E-10 1.63451E-11-2.13924E-10
 -1      2314 3.03977E-08-6.35964E-09-1.03144E-08-1.22161E-09 1.27145E-11-4.44928E-10
 -1      2315 2.88328E-08-4.86025E-09-1.00521E-08-1.26232E-09 8.73726E-12-2.38372E-10
 -1      2316 3.05582E-08-6.27560E-09-1.03417E-08-1.41401E-09-2.61089E-12-2.76361E-10
 -1      2317 2.02261E-09 4.10954E-09-4.08567E-09 4.44392E-09 1.66954E-10 1.64229E-10
 -1      2318 2.26496E-09 4.93433E-09-4.69145E-09 5.16852E-09 2.63578E-10 1.87873E-10
 -1      2319 2.03703E-09 4.63192E-09-4.38572E-09 4.91329E-09 4.42368E-10 3.02049E-10
 -1      2320 3.17538E-08-7.79445E-09-1.03319E-08 3.37611E-09 1.58709E-11 5.53404E-10
 -1      2321 3.24370E-08-8.76560E-09-1.02510E-08 2.56869E-09-4.60017E-11 4.55494E-10
 -1      2322 3.32562E-08-9.31646E-09-1.04379E-08 2.55529E-09-5.48294E-11 5.11667E-10
 -1      2323 3.17535E-08-8.27070E-09-1.00797E-08 2.55787E-09-1.67012E-11 5.77283E-10
 -1      2324 3.22657E-08-8.84958E-09-1.02751E-08 2.52220E-09-1.32527E-11 6.95064E-10
 -1      2325 3.26901E-08-9.55735E-09-1.01300E-08 1.76664E-09-5.58237E-11 5.74095E-10
 -1      2326 3.34137E-08-9.63550E-09-1.03196E-08-2.35673E-09 7.67266E-12 7.36575E-10
 -1      2327 3.16832E-08-8.69629E-09-9.91777E-09-2.30274E-09 4.43627E-12 4.27819E-10
 -1      2328 3.27204E-08-9.09568E-09-1.01471E-08-2.89738E-09-6.99068E-11 6.39369E-10
 -1      2329 3.16687E-08-6.51146E-09-1.04755E-08-4.66547E-09-1.19655E-10 5.23499E-10
 -1      2330 2.97926E-08-6.16609E-09-1.01023E-08-3.83865E-09-9.59532E-11 3.62739E-10
 -1      2331 3.27855E-08-9.80322E-09-9.86133E-09 9.71070E-10-7.73099E-12 1.91900E-12
 -1      2332 3.26046E-08-9.70528E-09-9.88116E-09 9.79021E-10-1.43014E-11 4.81262E-11
 -1      2333 3.29666E-08-9.85409E-09-9.92449E-09 9.87922E-10-1.30122E-11 8.43429E-13
 -1      2334 1.18917E-08 2.71310E-09-6.70307E-09-9.82133E-09-1.34932E-09 7.12249E-10
 -1      2335 1.08049E-08 2.67972E-09-6.64602E-09-8.99940E-09-1.06013E-09 6.84247E-10
 -1      2336 1.43157E-08-6.99597E-10-5.47360E-09-8.22263E-09-7.89839E-10 4.31346E-10
 -1      2337 4.78742E-09 5.27828E-09-5.08398E-09-8.45764E-09-1.70563E-09 5.56509E-10
 -1      2338 4.70455E-09 5.26616E-09-5.00248E-09-7.91533E-09-1.38610E-09 7.33470E-10
 -1      2339 3.19828E-08-9.41585E-09-9.71654E-09-1.29911E-09-4.70542E-11-2.85538E-10
 -1      2340 1.76295E-08-5.14087E-09-2.20846E-09-4.62575E-09-1.16874E-10-8.63785E-10
 -1      2341 1.63895E-08-3.49535E-09-3.63654E-09-5.95403E-09-7.82499E-11-1.09871E-09
 -1      2342 1.10093E-08-1.60009E-09-2.35865E-09-6.32109E-09-2.85838E-11-1.11829E-09
 -1      2343 2.20577E-08-4.38032E-09-6.04389E-09-4.17415E-09 2.92953E-10-2.32568E-10
 -1      2344 1.62419E-08-2.78943E-09-4.53028E-09-5.50216E-09 2.18745E-10-1.21901E-10
 -1      2345 1.60014E-08-1.99108E-09-5.53516E-09-7.73781E-09 2.28467E-10-1.42742E-10
 -1      2346-8.30200E-14 2.48590E-13-6.06639E-14-3.55004E-14-4.65042E-17-9.50810E-16
 -1      2347 3.00272E-08-5.40095E-09-1.04144E-08-1.83396E-09-8.54060E-12 7.43398E-11
 -1      2348 3.04374E-08-6.12859E-09-1.03173E-08-2.93584E-09 5.18148E-11-2.95602E-10
 -1      2349 3.14371E-08-7.17790E-09-1.04952E-08-1.45604E-09-2.22499E-11-1.72003E-10
 -1      2350 3.18410E-08-7.75967E-09-1.04231E-08-2.21702E-09-3.55932E-11-4.82608E-10
 -1      2351 3.16240E-08-7.24772E-09-1.04589E-08-2.84210E-09-2.25861E-11-1.52073E-10
 -1      2352 3.25297E-12 4.82339E-12-2.58381E-12-9.70808E-12-6.20336E-13-2.98975E-13
 -1      2353 3.49649E-12 5.08423E-12-2.22512E-12-1.45556E-11-2.11637E-13 2.84655E-15
 -1      2354 3.78187E-12 3.50479E-12-2.26394E-12-7.78089E-12-3.66713E-14-9.51982E-14
 -1      2355 3.26551E-08-8.86281E-09-1.03878E-08 2.66236E-09-7.39152E-12 3.44156E-10
 -1      2356 1.56548E-08 1.14441E-09-7.47017E-09-8.89178E-09-1.60834E-09 1.10438E-09
 -1      2357 1.72923E-08-1.75450E-09-6.62209E-09-7.33821E-09-1.19505E-09 8.00984E-10
 -1      2358 2.17131E-08-4.12706E-09-7.33011E-09-6.45314E-09-9.03663E-10 1.74960E-10
 -1      2359 4.78006E-09 4.77532E-09-4.61471E-09-8.48288E-09-1.85488E-09 5.99041E-10
 -1      2360 9.12229E-09 2.50381E-09-5.63797E-09-9.03119E-09-1.44793E-09 9.57292E-10
 -1      2361 1.21930E-08-3.61531E-10-4.96116E-09-8.58844E-09-9.46641E-10 4.67609E-10
 -1      2362 1.50086E-08 1.31328E-09-7.38088E-09-8.66916E-09-1.54165E-09 1.01937E-09
 -1      2363 2.49821E-08-1.43653E-09-9.09055E-09-1.12502E-08-1.18079E-09 1.25995E-09
 -1      2364 2.48563E-08-1.88317E-09-8.80434E-09-1.09005E-08-7.39002E-10 1.02943E-09
 -1      2365 2.77350E-08-2.33599E-09-9.22426E-09-1.17166E-08-5.21041E-10 6.82256E-10
 -1      2366 2.17607E-08-6.52539E-10-7.79427E-09-1.33217E-08-5.32451E-10 4.91887E-10
 -1      2367 2.81157E-08-2.07402E-09-9.71818E-09-1.14985E-08-5.03299E-10 3.85560E-10
 -1      2368 2.64776E-08-3.14325E-09-8.67126E-09-4.94093E-09-4.61967E-10 2.90420E-10
 -1      2369 2.13788E-08-1.39032E-10-7.69315E-09-1.30960E-08-5.61348E-10 6.69369E-10
 -1      2370 1.93341E-08-5.43298E-09-4.04132E-09-4.74081E-09 2.75400E-10 1.74009E-09
 -1      2371 2.59539E-08-3.89585E-09-9.49800E-09 3.51203E-09 4.16647E-10-1.19306E-10
 -1      2372 2.65189E-08-3.53716E-09-9.85659E-09 3.23998E-09 2.55999E-10-1.08002E-11
 -1      2373 2.52116E-08-3.79723E-09-8.91719E-09 4.70672E-09-4.43971E-10-7.49175E-10
 -1      2374 2.55257E-08-3.30052E-09-9.44957E-09 3.26169E-09-2.15166E-10-3.56880E-10
 -1      2375 3.45044E-09-1.80626E-10-9.37310E-10 4.13799E-09-3.93618E-11-1.00171E-11
 -1      2376 2.97562E-09-1.08461E-09-6.03229E-10 3.08037E-09-1.30717E-11-2.14200E-11
 -1      2377 1.81642E-09 1.02583E-10-6.30160E-10 2.29766E-09-8.21301E-11 3.52221E-12
 -1      2378 1.86459E-09 1.90455E-09-1.44262E-09 4.14090E-09-3.98390E-11 6.19086E-11
 -1      2379 6.23568E-10 2.25657E-09-1.42151E-09 2.55889E-09-2.88454E-12 8.49942E-11
 -1      2380 7.49096E-10 1.57999E-09-1.03729E-09 2.38602E-09-1.18302E-10 1.38368E-11
 -1      2381 1.15774E-09 2.36913E-09-1.94387E-09-3.30729E-09-1.83880E-11 1.18585E-10
 -1      2382 1.20176E-09 1.58177E-09-1.25028E-09-2.68206E-09-1.44919E-10 1.20510E-10
 -1      2383 3.27587E-09-9.13546E-10-8.33049E-10-3.37907E-09-2.35989E-11 6.49868E-11
 -1      2384 2.07806E-09 7.57302E-10-9.83145E-10-3.45036E-09 6.17835E-11 4.52163E-11
 -1      2385 2.05224E-09 4.30010E-10-6.12609E-10-2.47749E-09-1.01238E-10-1.43822E-10
 -1      2386 2.08686E-09 5.00564E-09-3.18531E-09-1.36321E-08 1.15029E-10-7.38800E-11
 -1      2387 2.41008E-09-3.74351E-09 1.45176E-09-1.26709E-08 4.71644E-10 1.09407E-09
 -1      2388 1.01842E-08-7.80537E-09-1.33051E-09-7.89928E-09-4.74238E-11 1.58911E-10
 -1      2389 3.30809E-08-9.13230E-09-1.04380E-08 2.39993E-09-1.49098E-11 3.59824E-10
 -1      2390 9.09589E-10 1.83535E-09-1.20483E-09 2.74812E-09-3.72528E-11 2.31951E-11
 -1      2391 1.61649E-09-8.21020E-11-5.41451E-10 1.64572E-09 1.11334E-10-1.21770E-10
 -1      2392-1.27422E-13 3.09246E-13-6.91603E-14 5.77460E-14 3.95283E-15 1.61800E-15
 -1      2393 1.84568E-08 2.41110E-10-7.96681E-09-1.19762E-08-1.24241E-09 9.16918E-10
 -1      2394 3.09870E-08-7.65087E-09-1.00706E-08-9.79747E-10-1.46014E-11-3.69474E-10
 -1      2395 3.17357E-08-8.55830E-09-1.00442E-08-1.23649E-09-3.55470E-12-3.23446E-10
 -1      2396 3.11795E-08-7.51684E-09-1.01995E-08-2.01718E-09 1.13956E-11-5.40349E-10
 -1      2397 3.05697E-08-7.40235E-09-9.95629E-09-2.04898E-09-1.66153E-11-3.90148E-10
 -1      2398 3.14698E-08-8.48055E-09-9.87894E-09-2.29318E-09 2.15590E-11-3.75088E-10
 -1      2399 5.41630E-10-2.34118E-10-1.15825E-10-9.54929E-11-9.59304E-13-6.42806E-12
 -1      2400 3.75797E-10-1.91102E-10-6.17398E-11 1.69184E-11-3.99529E-12-1.11580E-12
 -1      2401 3.27037E-08-8.01589E-09-1.04618E-08 4.68340E-09-5.70968E-12 4.24969E-10
 -1      2402 3.41955E-08-9.38554E-09-1.05137E-08 3.06969E-09-5.27024E-11 3.31877E-10
 -1      2403 3.38473E-08-9.28780E-09-1.04526E-08 3.28996E-09 8.01854E-12 5.36694E-10
 -1      2404 3.44840E-08-9.47251E-09-1.04741E-08 3.72550E-09-1.32565E-11 3.10877E-10
 -1      2405 1.06077E-08-8.44660E-09-5.81504E-10 7.12036E-09-1.52518E-10 3.71047E-12
 -1      2406 3.41004E-08-9.80092E-09-1.03896E-08-3.02170E-09 1.29307E-10 4.81987E-10
 -1      2407 3.28725E-08-9.06553E-09-1.03822E-08-2.64559E-09 1.06937E-10 3.50241E-10
 -1      2408 3.13407E-08-6.29421E-09-1.04325E-08-4.77539E-09-5.47305E-11 3.64706E-10
 -1      2409 7.49033E-10-2.37730E-10-1.52628E-10-2.64949E-10 2.94438E-11 1.15518E-11
 -1      2410 5.98290E-10-1.76222E-10-1.28031E-10-2.39866E-10-1.36270E-11-5.09382E-12
 -1      2411 5.63749E-10-2.75384E-10-8.37562E-11-3.86249E-11 3.83172E-11 2.44983E-11
 -1      2412 1.00818E-10-5.15603E-11-1.44525E-11-5.96021E-11-5.30233E-13 6.34073E-13
 -1      2413 6.87176E-11-1.89551E-11-1.60312E-11-4.47538E-11-4.57268E-12-2.79894E-13
 -1      2414 1.36473E-10-6.52343E-11-2.75040E-11-5.52135E-11-8.85344E-14 2.36929E-12
 -1      2415 1.67523E-09 4.32611E-10-6.41189E-10-2.33507E-09-3.61416E-11 8.65818E-11
 -1      2416 1.80259E-09 4.87040E-10-7.48766E-10-2.67835E-09-1.31034E-10-1.40910E-10
 -1      2417 3.05637E-09 1.43160E-10-8.52199E-10-3.59744E-09 1.20388E-10 1.45804E-10
 -1      2418 2.07349E-09 7.53513E-10-1.15876E-09-2.90525E-09-1.32123E-10-2.01899E-10
 -1      2419 3.16722E-08-7.36504E-09-1.03541E-08 4.34572E-09 2.27261E-11 5.17872E-10
 -1      2420 9.07789E-09 3.72307E-09-5.74792E-09 1.01900E-08-1.80600E-09-6.74182E-10
 -1      2421 2.71197E-08-4.94711E-09-8.08338E-09 5.59614E-10 1.89689E-11-8.38987E-10
 -1      2422 2.66071E-08-5.17183E-09-6.59823E-09 6.44285E-10-2.22646E-11-9.20573E-10
 -1      2423 2.53553E-08-4.83717E-09-7.20369E-09 1.50135E-09-6.39017E-11-8.30339E-10
 -1      2424 2.85576E-08-5.11789E-09-8.54592E-09-1.87738E-10 1.04882E-10-3.41153E-10
 -1      2425 2.75538E-08-4.32054E-09-8.97886E-09 6.20225E-10 3.11682E-11-3.33583E-10
 -1      2426 2.70405E-08-4.79889E-09-7.76759E-09 4.63115E-10-2.21921E-11-3.26460E-10
 -1      2427 3.52357E-09-5.10137E-09 1.91539E-09 1.33435E-08 1.70050E-09-4.75070E-10
 -1      2428 1.50508E-08-2.52341E-10-5.89461E-09 1.94876E-09-6.58854E-10-1.72973E-11
 -1      2429 3.18099E-08-8.38658E-09-1.01218E-08-7.25348E-10-2.99407E-12-2.89231E-10
 -1      2430 3.24398E-08-9.07164E-09-1.00940E-08-5.95733E-10-9.86381E-12-1.41675E-10
 -1      2431 3.19201E-08-8.37020E-09-1.01883E-08-1.19746E-10-1.17367E-11-2.93545E-10
 -1      2432 3.23405E-08-8.52578E-09-1.03378E-08-7.92377E-10-2.47107E-11-2.29093E-10
 -1      2433 3.18719E-08-7.76633E-09-1.04987E-08-3.23763E-10-9.63093E-12-4.43910E-10
 -1      2434 3.24026E-08-8.48380E-09-1.04034E-08-1.97595E-10-1.09335E-11-1.79957E-10
 -1      2435 1.71636E-08-8.75966E-09-3.40629E-09-1.82175E-09-1.36763E-09-9.48035E-10
 -1      2436 1.95497E-08-1.18063E-08-3.55061E-09 3.27916E-09 1.06170E-09-1.72803E-09
 -1      2437 2.34942E-08-7.00664E-09-8.45397E-09-2.71518E-09 3.85465E-11-3.40876E-11
 -1      2438 2.99434E-08-1.12753E-08-7.61747E-09 9.09967E-09 5.79005E-11-7.60524E-11
 -1      2439 3.71614E-09-5.08779E-09 1.90006E-09 1.35793E-08-1.69059E-09 7.01770E-10
 -1      2440-9.11930E-09 3.76364E-09 2.80523E-09-6.68268E-09-6.94601E-10 1.51594E-09
 -1      2441 2.08828E-11 1.25023E-12-7.06770E-12-2.73743E-11 2.03493E-12 2.67222E-13
 -1      2442 1.70581E-11 5.47136E-13-5.32460E-12-1.72156E-11-6.20659E-14-4.07041E-14
 -1      2443 3.22280E-08-8.66929E-09-1.02013E-08 2.66665E-10 9.53075E-12-2.45578E-10
 -1      2444 3.21743E-08-8.41668E-09-1.03590E-08 5.36901E-10 9.20872E-12-2.76516E-10
 -1      2445 3.26995E-08-9.31035E-09-1.00946E-08-2.08123E-10-1.26064E-12-1.04043E-10
 -1      2446 3.26409E-08-9.00740E-09-1.02502E-08 3.44117E-11-4.44209E-12-9.95701E-11
 -1      2447 3.25747E-08-9.23794E-09-1.00631E-08 4.59057E-10 6.90215E-12-1.41776E-10
 -1      2448 1.32243E-08-2.37263E-09-2.49834E-09-6.26932E-09 2.49187E-11 4.96670E-10
 -1      2449 7.77105E-09-1.07913E-09-1.87528E-09-5.86829E-09 7.18774E-11 3.77073E-10
 -1      2450 3.67354E-12 5.53026E-12-2.95732E-12-1.16843E-11 8.06644E-13 2.99346E-13
 -1      2451 1.18567E-12 4.30106E-12-2.05218E-12-6.80340E-12 7.04263E-14-1.05867E-13
 -1      2452 3.35106E-08-9.26304E-09-1.04178E-08 3.13226E-09 3.73355E-11-8.08923E-10
 -1      2453 3.41866E-08-9.07200E-09-1.06939E-08 4.15787E-09 5.76874E-11-6.10894E-10
 -1      2454 3.28495E-08-8.74785E-09-1.05852E-08 3.96172E-09-1.28485E-10-6.65082E-10
 -1      2455 3.20408E-08-7.82019E-09-1.03499E-08 4.61825E-09-3.26587E-11-6.80109E-10
 -1      2456 3.11082E-08-7.41601E-09-1.02116E-08 4.23723E-09-1.30515E-10-4.96180E-10
 -1      2457 3.08522E-08-6.38168E-09-1.04922E-08 5.51004E-09-1.95642E-10-5.97361E-10
 -1      2458 2.99871E-08-5.65433E-09-8.78046E-09-1.55573E-11 5.28806E-12 1.15975E-09
 -1      2459 2.68064E-08-3.91420E-09-5.15977E-09 8.74612E-12-3.58555E-11 1.02521E-09
 -1      2460 2.97070E-08-5.72921E-09-7.98684E-09 1.02558E-10-1.25313E-11 4.48702E-10
 -1      2461 2.61796E-08-3.73660E-09-4.78070E-09 2.87280E-10-1.24070E-11 1.28782E-09
 -1      2462 2.86643E-08-5.74301E-09-7.62134E-09-1.99323E-10-2.63677E-11 7.66128E-10
 -1      2463 2.58223E-08-3.70655E-09-4.18967E-09 4.02026E-10-5.03126E-11 3.20544E-10
 -1      2464 3.02588E-08-5.82552E-09-8.66966E-09 7.29122E-12 9.18201E-11 3.65903E-10
 -1      2465 2.98503E-08-5.56284E-09-8.95632E-09-9.41246E-11-1.61954E-11 1.16607E-09
 -1      2466 3.08403E-08-6.25428E-09-9.66861E-09-8.42609E-11 4.29115E-11 8.77262E-12
 -1      2467 2.86848E-08-5.61927E-09-8.15542E-09 3.52513E-10-8.83634E-11 6.43747E-10
 -1      2468 3.03438E-08-6.01971E-09-9.72920E-09 1.53127E-10-3.94719E-12-2.78044E-10
 -1      2469 2.93779E-08-5.66037E-09-9.29584E-09 1.29555E-10-1.09666E-10 3.15768E-10
 -1      2470 2.73092E-08-4.39609E-09-5.90774E-09-2.28129E-10 2.24682E-10-7.26134E-10
 -1      2471 3.10535E-08-6.05724E-09-1.02500E-08 1.22308E-10 7.44757E-11-2.64387E-10
 -1      2472 3.00693E-08-5.92955E-09-9.21828E-09 5.38242E-10-8.03321E-11-2.22148E-10
 -1      2473 2.75408E-08-4.45373E-09-5.79734E-09-1.29053E-11 7.37301E-11-3.54339E-10
 -1      2474 2.66664E-08-4.07788E-09-5.00847E-09-2.44149E-10 3.23022E-11 8.06499E-11
 -1      2475 3.08450E-08-5.99003E-09-9.22069E-09 3.05559E-11-5.60851E-11-2.19158E-10
 -1      2476 3.98886E-09-3.12954E-10-1.08597E-09 4.31843E-09-7.99800E-12-1.37020E-10
 -1      2477 6.65043E-09-9.68538E-10-1.20500E-09 5.36661E-09-1.50942E-11 1.90898E-10
 -1      2478 7.58655E-09-1.29310E-09-1.55517E-09 5.48557E-09 1.43291E-11-3.02300E-10
 -1      2479 8.01867E-09 3.76506E-09-5.54479E-09 9.15716E-09 1.90657E-09 7.22479E-10
 -1      2480 1.03572E-08 2.07312E-09-5.62420E-09 8.39787E-09 1.69102E-09 9.80842E-10
 -1      2481 4.32705E-09 5.25439E-09-4.50916E-09 8.55144E-09 1.47619E-09 6.36191E-10
 -1      2482 1.62855E-08-2.30788E-09-5.98002E-09 8.58476E-09 7.01890E-10 4.89139E-10
 -1      2483 1.20234E-08 3.77777E-10-5.13430E-09 8.73327E-09 6.78666E-10 1.31627E-10
 -1      2484 2.96529E-08-6.36150E-09-1.00034E-08-1.15063E-09 2.92649E-11-3.40732E-10
 -1      2485 2.93748E-08-6.58563E-09-9.86518E-09-2.32366E-09 8.88863E-11-4.01564E-10
 -1      2486 2.85106E-08-5.41013E-09-9.97034E-09-1.32376E-09 8.22446E-11-3.63319E-10
 -1      2487 2.94760E-08-6.03671E-09-1.01584E-08-2.24964E-09 1.09037E-10-5.45791E-10
 -1      2488 3.12579E-08-8.15192E-09-9.96370E-09 1.88513E-09 2.42859E-11-3.04503E-10
 -1      2489 3.14674E-08-8.21034E-09-1.00076E-08 1.31858E-09 2.42463E-11-2.77043E-10
 -1      2490 2.99191E-08-6.92471E-09-9.89039E-09 1.37402E-09 3.04549E-13-3.67690E-10
 -1      2491 5.40392E-10-2.30378E-10-1.13261E-10 8.61458E-11 8.56341E-13-8.28917E-12
 -1      2492 3.10702E-08-7.76670E-09-1.00422E-08-3.35033E-10 1.09732E-11-3.87398E-10
 -1      2493 3.11756E-08-7.71912E-09-1.01239E-08 1.93615E-10 1.63915E-12-4.25141E-10
 -1      2494 1.54013E-10-7.16060E-11-2.63820E-11-5.13237E-11-2.63627E-14-5.47040E-13
 -1      2495 2.15937E-10-9.75591E-11-3.72907E-11-5.87329E-11-1.69785E-11 6.34286E-12
 -1      2496 1.53948E-08 1.00594E-09-9.08887E-09-1.91160E-09-1.12076E-09 6.53595E-10
 -1      2497 1.13583E-08-1.45903E-09-2.67043E-09-6.06846E-09-9.57116E-11 7.44919E-10
 -1      2498 1.27936E-08-2.09343E-09-2.73762E-09-6.13828E-09 5.77918E-12 1.33022E-09
 -1      2499 6.82492E-09-4.86949E-10-1.93638E-09-6.16861E-09 8.00208E-11 5.12143E-10
 -1      2500 5.79654E-09 3.26861E-09-4.01445E-09-7.44313E-09-7.26859E-10 4.30588E-10
 -1      2501 7.85283E-09-1.20803E-09-1.87160E-09-6.13588E-09-7.60342E-12 7.81896E-10
 -1      2502 2.17712E-08 3.58340E-10-9.37514E-09-1.16970E-08 7.04164E-11 7.98594E-11
 -1      2503 1.52846E-08 9.81835E-10-9.02540E-09-1.97494E-09 1.25152E-09-5.92777E-10
 -1      2504 1.83946E-08 2.92100E-09-9.02837E-09-1.51465E-09 5.23341E-10-2.29685E-10
 -1      2505 2.23989E-08-4.42359E-09-2.49817E-09-3.19244E-09 6.62707E-11-6.01317E-10
 -1      2506 2.47747E-08-4.47839E-09-4.22541E-09-1.61426E-09 3.21597E-11 4.06990E-10
 -1      2507 1.94848E-08-5.25301E-09-2.40749E-09-4.30638E-09 1.04091E-10 7.76123E-10
 -1      2508 2.52795E-08-5.23099E-09-6.18443E-09-1.04908E-09 1.93779E-10 6.03860E-10
 -1      2509 2.28043E-08-5.20112E-09-4.16502E-09-3.14389E-09 1.41351E-10 2.06097E-09
 -1      2510 2.99800E-08-4.12140E-09-7.30853E-09-1.23488E-10-1.45606E-10 5.10129E-09
 -1      2511 2.57636E-08-3.55613E-09-4.60135E-09-4.99799E-10 2.54365E-11 1.30100E-09
 -1      2512 2.92331E-08-3.69389E-09-7.16297E-09-1.45959E-10 5.75799E-10 5.44031E-09
 -1      2513 2.58714E-08-6.50179E-09-8.71314E-09 1.66926E-09 3.97562E-10-1.71279E-09
 -1      2514 2.73835E-08-4.52176E-09-1.06175E-08 4.44498E-09-3.86491E-12 8.28591E-11
 -1      2515 3.98088E-08-1.55196E-08-1.08924E-08-4.05463E-09-1.59032E-09-2.30296E-09
 -1      2516 5.06571E-08-1.76686E-08-1.18413E-08-7.51701E-09-2.00758E-11 9.15623E-11
 -1      2517 2.60168E-08-6.67951E-09-8.68816E-09 1.90629E-09-4.72047E-10 1.70631E-09
 -1      2518 2.71682E-09 3.77531E-09-3.47033E-09-4.92168E-09-1.33836E-09 2.38383E-10
 -1      2519 6.79026E-11-1.75087E-11-1.61149E-11 4.29657E-11 4.39298E-12-5.02739E-13
 -1      2520 4.01753E-08-1.61168E-08-1.09228E-08-3.93987E-09 1.75937E-09 2.28695E-09
 -1      2521 3.52598E-08-9.86379E-09-1.04735E-08-4.79537E-09-3.83853E-10-2.71647E-10
 -1      2522 3.49700E-08-9.41839E-09-1.03413E-08-5.17913E-09 3.06390E-11-1.90610E-10
 -1      2523 3.09168E-08-5.37444E-09-1.02556E-08-4.94588E-09 4.51561E-11-1.55753E-10
 -1      2524 3.47233E-08-7.01099E-09-1.04134E-08-6.64727E-09-1.28534E-10-1.40925E-10
 -1      2525 3.34361E-08-6.26285E-09-1.00144E-08-7.10607E-09-1.47174E-10 3.26097E-10
 -1      2526 1.27210E-08-1.74964E-10-5.19378E-09 7.87898E-09-7.75389E-10-5.26811E-10
 -1      2527 1.54177E-08-1.89551E-09-4.93350E-09 6.37469E-09-6.67037E-10-9.06013E-10
 -1      2528 9.27707E-09 5.34697E-10-4.08093E-09 6.92298E-09-6.92944E-10-7.00430E-10
 -1      2529 1.25001E-08-4.32120E-10-4.35651E-09 7.11871E-09-3.70223E-10-6.12828E-10
 -1      2530 5.48165E-09 2.42207E-09-3.51422E-09 7.02616E-09-2.81537E-10-3.20200E-10
 -1      2531 9.06676E-09 1.15429E-10-3.17083E-09 6.25244E-09-3.73599E-10-7.53990E-10
 -1      2532-1.27616E-12 4.17668E-12-1.01864E-12-4.16034E-12-2.61910E-14 9.43615E-14
 -1      2533-5.22101E-13 4.20737E-12-1.15240E-12-4.99814E-12-7.92166E-15-6.25357E-14
 -1      2534 3.20601E-08-8.12573E-09-1.03807E-08-1.22306E-09-2.20580E-12 1.17139E-10
 -1      2535 3.28471E-08-9.24750E-09-1.02923E-08-1.12610E-09-3.08873E-11-6.26773E-11
 -1      2536 3.25757E-08-9.09279E-09-1.02013E-08-1.24492E-09 1.24657E-11 2.64152E-10
 -1      2537 3.20327E-08-8.16778E-09-1.04145E-08-1.95024E-09 5.29118E-11 3.62100E-11
 -1      2538 3.26959E-08-9.29163E-09-1.02615E-08-1.82994E-09 1.33979E-11 2.13624E-10
 -1      2539 2.88094E-08-5.94971E-09-9.34732E-09-9.45801E-11-3.63355E-10 5.51329E-11
 -1      2540 2.99831E-08-6.16967E-09-9.93573E-09 7.15904E-11-2.82895E-12-4.60793E-10
 -1      2541-7.90532E-13 2.15872E-12-4.97409E-13 1.03363E-12-1.97069E-14-9.56843E-15
 -1      2542-4.64529E-13 2.18879E-12-5.25523E-13 1.49089E-12-1.84819E-14 6.38980E-15
 -1      2543-1.28493E-12 3.53639E-12-7.03717E-13 2.52403E-12-2.08257E-13 2.07002E-13
 -1      2544 2.06923E-10-8.52883E-11-3.92733E-11 5.28919E-11 1.12122E-11 1.74537E-12
 -1      2545 1.01924E-11 3.42503E-12-5.10551E-12 1.64556E-11-1.85997E-13-3.60338E-13
 -1      2546 3.34053E-12 4.92101E-12-2.55979E-12 1.41270E-11 5.20294E-15 1.83994E-13
 -1      2547 3.71421E-12 5.64147E-12-2.99428E-12 1.20129E-11-9.35547E-13 3.74389E-13
 -1      2548 3.34308E-08-9.22184E-09-1.03617E-08 2.85506E-09-2.68620E-11-7.97309E-10
 -1      2549 3.39057E-08-9.10078E-09-1.05052E-08 3.83006E-09 2.81556E-11-4.77554E-10
 -1      2550 2.89810E-09 3.15672E-09-3.67817E-09-4.64658E-09 9.15534E-10-3.54333E-10
 -1      2551 6.07300E-12 5.75972E-12-3.94644E-12 1.81432E-11 1.92616E-12-2.08967E-13
 -1      2552 1.86623E-11 1.54865E-12-6.38539E-12 2.27128E-11 1.74000E-12-2.65352E-13
 -1      2553 1.72491E-11 7.12029E-13-5.28788E-12 1.69842E-11 1.43384E-13-1.27888E-13
 -1      2554 5.12427E-08-1.75758E-08-1.35723E-08 3.81679E-08 1.82271E-09-3.23069E-09
 -1      2555 5.27662E-08-1.91267E-08-1.23891E-08 3.93901E-08-1.30955E-09 1.56529E-09
 -1      2556 4.22650E-08-2.53270E-08-9.39665E-09 8.73807E-09 4.07992E-11-3.09335E-10
 -1      2557 3.30592E-08-9.75802E-09-1.00141E-08 7.16371E-11-1.58951E-11 4.57940E-11
 -1      2558 3.33609E-08-9.99425E-09-1.00282E-08 1.97027E-10-5.68562E-12 5.23699E-12
 -1      2559 3.33258E-08-9.98222E-09-1.00144E-08-2.21594E-10 1.77640E-11 4.79901E-12
 -1      2560-4.98001E-14 2.23568E-13-5.62893E-14 1.29803E-15 1.56042E-15-1.80316E-14
 -1      2561-1.06344E-13 2.60321E-13-4.75707E-14 7.51873E-14 1.43204E-15-8.05110E-16
 -1      2562 1.73901E-09-1.34966E-10-4.19024E-10 2.21613E-09 5.65505E-11-3.40470E-11
 -1      2563 6.24733E-10 2.10845E-09-1.37435E-09 2.57022E-09 8.73973E-11-2.01654E-11
 -1      2564 9.62695E-10 2.12756E-09-1.55118E-09 3.00395E-09-9.46638E-11-7.87479E-11
 -1      2565 3.65248E-09 4.28644E-09-4.49047E-09 5.51102E-09-7.03117E-10-3.05510E-10
 -1      2566 5.59031E-09 5.41311E-09-5.43361E-09 8.65562E-09-1.01891E-09-3.58498E-10
 -1      2567 5.10552E-09 6.09277E-09-5.62064E-09 8.97805E-09-6.79522E-10-4.02946E-10
 -1      2568 1.04533E-09-5.26390E-10-1.55387E-10-4.35566E-10 1.06366E-11 1.07141E-11
 -1      2569 1.23907E-08 2.08080E-09-6.71397E-09-9.34629E-09 8.84468E-10-5.10608E-10
 -1      2570 1.26362E-08 1.75358E-09-6.50910E-09-9.16372E-09 1.00297E-09-8.50676E-10
 -1      2571 6.53461E-09 3.94868E-09-5.10579E-09-8.14523E-09 4.01655E-10 1.93453E-10
 -1      2572 2.63416E-08-2.36901E-09-1.02732E-08 4.79622E-09 5.36987E-10-2.92346E-10
 -1      2573 3.06399E-08-6.97987E-09-1.01445E-08-5.22242E-10-1.81215E-11-3.41861E-10
 -1      2574 3.06211E-08-7.22335E-09-1.00883E-08-3.68423E-10-2.20685E-11-4.00283E-10
 -1      2575 3.11803E-08-6.75412E-09-1.03540E-08-1.13541E-11-8.37469E-12-3.55297E-10
 -1      2576 3.03152E-08-6.50928E-09-9.99768E-09 1.83302E-11-5.30409E-11-4.04556E-10
 -1      2577 3.00557E-08-6.68805E-09-1.00642E-08 5.05855E-11-7.39135E-11-4.29056E-10
 -1      2578 5.64167E-08-2.32907E-08-8.52025E-09-2.91717E-08 4.00651E-09 2.28001E-09
 -1      2579 5.52290E-08-1.04625E-08-1.68106E-08-4.12282E-08-2.04135E-10-1.37053E-10
 -1      2580 3.62448E-08-2.92937E-08-2.83524E-09-8.77740E-09-4.85050E-10-8.35963E-11
 -1      2581 3.37951E-08-1.01707E-08-1.01183E-08-6.05730E-10-3.04510E-12-6.82739E-12
 -1      2582 3.39050E-08-1.02254E-08-1.01420E-08-2.09606E-10-3.48929E-12 3.44407E-12
 -1      2583 3.37460E-08-1.01561E-08-1.01231E-08 1.18642E-11 3.84356E-13 4.94268E-12
 -1      2584-9.51270E-14 2.91998E-13-6.25828E-14 6.47782E-15 5.16867E-15-4.58347E-15
 -1      2585-1.48115E-13 4.03843E-13-8.19330E-14-8.22308E-14 7.90630E-15-2.61112E-14
 -1      2586-1.01729E-12 1.90452E-12-2.34438E-13 5.14106E-13 1.65925E-14-2.24885E-14
 -1      2587-3.06655E-13 1.01648E-12-2.15156E-13 3.01811E-13 5.80637E-15-2.07856E-14
 -1      2588-8.47031E-13 1.77502E-12-3.06119E-13 3.65164E-13-8.85948E-14 5.57106E-14
 -1      2589 1.02226E-08-7.73784E-09-1.39402E-09-7.98638E-09 2.06422E-10-2.43064E-10
 -1      2590 2.14308E-09-3.60879E-09 1.47562E-09-1.25599E-08-4.34522E-10-1.03499E-09
 -1      2591 3.29926E-08-6.87698E-09-1.06827E-08 5.33346E-09 4.10981E-10 4.57917E-10
 -1      2592 3.41741E-08-9.14666E-09-1.06117E-08 4.25568E-09 9.11144E-11 8.95495E-10
 -1      2593 3.10468E-08-5.00668E-09-1.07659E-08 6.39982E-09 4.00795E-10 4.25084E-10
 -1      2594 3.69225E-08-9.75566E-09-1.11955E-08 6.18857E-09 2.23971E-12 8.65157E-10
 -1      2595 3.22660E-08-9.16928E-09-9.99801E-09-1.47288E-09 5.22636E-11 2.44470E-10
 -1      2596 3.25838E-08-9.31541E-09-1.00467E-08-7.70197E-10 3.72866E-11 1.43548E-10
 -1      2597 3.22992E-08-9.47910E-09-9.83073E-09-1.11038E-09 1.90836E-11 1.56526E-10
 -1      2598 3.22683E-08-9.33223E-09-9.98616E-09-1.51774E-09 5.14970E-11 3.52445E-10
 -1      2599 3.25433E-08-9.44538E-09-1.00420E-08-9.47124E-10 1.15073E-11 1.37509E-10
 -1      2600 3.50390E-09 2.26326E-09-2.39689E-09 5.16431E-09 2.91270E-10 1.62848E-10
 -1      2601 1.64259E-09 3.08638E-09-2.19536E-09 4.19922E-09 4.06086E-10-9.43689E-11
 -1      2602 8.45545E-10 3.00543E-09-2.03420E-09 2.87766E-09 2.56146E-10 1.32872E-10
 -1      2603 9.09003E-10 2.24134E-09-1.38871E-09 3.01147E-09 8.37459E-11-4.94870E-11
 -1      2604 4.82706E-08-2.89126E-08-1.00341E-08 1.28266E-08 1.36219E-09 5.27435E-10
 -1      2605 2.65707E-08-4.45372E-09-9.13357E-09 1.11170E-09 5.35886E-11 5.21208E-10
 -1      2606 2.53570E-08-4.99077E-09-7.80155E-09 1.33654E-09 2.97737E-10 1.43112E-09
 -1      2607 2.75873E-08-5.03736E-09-8.36702E-09 1.82745E-10 2.49113E-10 1.72168E-09
 -1      2608 2.66159E-08-3.98519E-09-9.29976E-09 1.82743E-09 1.09003E-10 2.69493E-10
 -1      2609 2.79565E-08-4.71374E-09-9.42922E-09 7.65905E-10-5.67770E-11 3.97160E-10
 -1      2610 2.68222E-08-4.93414E-09-8.15269E-09 3.60992E-10 1.38952E-10 1.13849E-09
 -1      2611 2.44306E-10-1.18968E-10-3.95277E-11 5.45437E-11-1.64522E-11-2.97426E-12
 -1      2612 4.61790E-09-1.03410E-08 2.02762E-09 1.37926E-09 8.32808E-11-2.06551E-11
 -1      2613 1.94567E-08-1.17744E-08-3.47815E-09-3.22398E-09-1.00490E-09-1.85630E-09
 -1      2614-1.68563E-13 4.26693E-13-9.63578E-14 3.10385E-14 3.69588E-15-3.11651E-15
 -1      2615-1.25206E-13 2.97079E-13-5.98114E-14 7.40667E-14-4.21841E-15 3.11116E-15
 -1      2616-1.34160E-13 3.23569E-13-5.32654E-14 6.53904E-14 7.02247E-16-6.56969E-15
 -1      2617 4.17359E-11-9.16110E-12-1.17802E-11 3.47819E-11-2.90347E-13-6.43964E-13
 -1      2618 2.45459E-11-3.08373E-12-5.48331E-12 3.38221E-11 6.12438E-13 1.05072E-13
 -1      2619 5.79753E-11-1.58241E-11-1.28422E-11 3.06607E-11 2.49983E-14-4.73035E-14
 -1      2620 2.45173E-08-2.00987E-09-9.15969E-09-9.24363E-09 6.72595E-10-7.68279E-10
 -1      2621 2.36935E-08-5.17651E-09-7.83258E-09-2.69084E-09 1.24402E-10-9.28870E-10
 -1      2622 3.13035E-08-2.00681E-08-5.93568E-09 9.24766E-09-3.99995E-09 3.91584E-09
 -1      2623 3.31899E-08-2.23993E-08-7.38028E-09 1.18803E-08 3.92458E-09-3.28516E-09
 -1      2624 3.26105E-08-9.42874E-09-1.02762E-08-1.50789E-09 1.38738E-11 1.36766E-10
 -1      2625 3.21460E-08-8.58991E-09-9.97319E-09-3.10813E-09 1.31718E-13-5.55444E-10
 -1      2626 2.98657E-08-6.46676E-09-1.00276E-08-4.25980E-09 2.00851E-10-4.65140E-10
 -1      2627 3.10402E-08-7.82732E-09-9.96597E-09-3.21151E-09 1.84709E-11-3.23075E-10
 -1      2628 2.57415E-08-1.61505E-09-8.60981E-09-1.00711E-08-4.51779E-11 5.87147E-10
 -1      2629 3.23954E-08-6.39916E-09-9.31980E-09-6.36430E-09 1.55109E-11 3.86644E-10
 -1      2630 1.46333E-09-8.08890E-10-1.96856E-10-9.31740E-10-2.29985E-11 2.59991E-11
 -1      2631 3.07453E-08-7.32237E-09-1.01154E-08 6.21253E-11-1.21360E-11-3.81079E-10
 -1      2632 1.33173E-10-5.49531E-11-2.90898E-11 5.67203E-11 2.22606E-12 9.48220E-13
 -1      2633 1.68039E-10-6.90761E-11-3.04638E-11 3.25625E-11-5.51944E-13-6.56876E-13
 -1      2634 3.29057E-08-9.36374E-09-1.03644E-08-2.03277E-09-1.77848E-11 3.65196E-10
 -1      2635 3.32637E-08-9.45324E-09-1.04842E-08-2.19753E-09-3.66802E-11 2.27745E-10
 -1      2636 3.30135E-08-9.19637E-09-1.04321E-08-2.45028E-09-1.54679E-11 1.46329E-10
 -1      2637 2.63783E-08-4.50489E-09-7.32520E-09-3.12356E-09-5.64765E-10-3.71401E-09
 -1      2638 2.43513E-08-5.13216E-09-8.16290E-09-1.55638E-09 4.71656E-10-4.15900E-11
 -1      2639 2.42319E-08-4.59282E-09-7.73242E-09-1.72109E-09 5.22982E-10-1.32023E-09
 -1      2640 2.88048E-08-5.94228E-09-9.85193E-09-1.14893E-09-5.81836E-11 2.71401E-10
 -1      2641 3.01877E-08-6.94893E-09-1.00231E-08-1.05048E-09 3.51596E-11 3.84351E-10
 -1      2642 2.92884E-08-5.95382E-09-1.00109E-08-5.24904E-10-7.60152E-11 2.53532E-10
 -1      2643 2.85410E-08-5.46800E-09-9.71638E-09-9.33446E-11-9.84810E-11-8.78772E-11
 -1      2644 2.97267E-08-6.36826E-09-9.94116E-09-4.82623E-12 1.97648E-11 4.04244E-11
 -1      2645 3.34123E-08-1.00213E-08-1.00354E-08 1.21313E-10 5.86331E-12-8.45141E-12
 -1      2646 2.73769E-09 3.79347E-09-3.76684E-09-4.48859E-09-1.28903E-09 3.85637E-10
 -1      2647 3.20900E-08-9.32301E-09-9.82301E-09-1.68831E-09 4.88511E-11 3.45728E-10
 -1      2648 3.92756E-09 3.43489E-09-3.94746E-09-4.58630E-09 1.21352E-10 7.14593E-11
 -1      2649 2.60732E-09 3.39761E-09-3.15166E-09-4.72412E-09 1.86078E-10 1.47476E-10
 -1      2650 6.93169E-09 2.74651E-09-4.03561E-09-7.42475E-09-2.16475E-10-2.13525E-10
 -1      2651 1.56752E-09 3.97550E-09-3.84803E-09-3.62120E-09-1.76255E-10 2.57542E-10
 -1      2652 1.36187E-09 3.43344E-09-2.92944E-09-3.62678E-09-2.22250E-10 3.05351E-10
 -1      2653 3.43130E-09 6.40318E-10-1.39280E-09-3.91265E-09 1.13031E-10 2.70193E-10
 -1      2654 2.38614E-08-7.32673E-09-8.39376E-09 2.98288E-09 5.16213E-11-9.44567E-11
 -1      2655 1.69614E-08-8.76057E-09-3.41218E-09 1.84400E-09 1.30352E-09-9.74643E-10
 -1      2656 3.02829E-08-1.16463E-08-7.49582E-09-8.97835E-09 2.03040E-11-1.31273E-10
 -1      2657 3.27057E-08-6.65095E-09-1.01021E-08-5.06024E-09-1.01337E-10 1.93916E-10
 -1      2658 3.37657E-08-6.73251E-09-9.84961E-09-6.22835E-09-7.62911E-11 2.90701E-10
 -1      2659 3.39218E-08-6.95704E-09-9.82981E-09-6.80093E-09 1.10110E-10-1.74741E-11
 -1      2660 3.23427E-08-6.45927E-09-9.38387E-09-6.61592E-09 9.07795E-11-2.46261E-10
 -1      2661 3.61554E-08-9.59405E-09-1.03227E-08-6.50575E-09-4.28092E-11-6.86806E-11
 -1      2662 3.57792E-08-9.42342E-09-1.02408E-08-6.12518E-09-7.58055E-11 2.06825E-10
 -1      2663 1.48741E-08 1.24025E-09-8.98269E-09 2.32841E-09-1.48360E-09-4.55503E-10
 -1      2664 8.54030E-09 3.63130E-09-5.44736E-09-7.35696E-09 2.21480E-11-1.40294E-10
 -1      2665 3.71905E-08-9.25505E-09-1.07471E-08 6.13110E-09 7.30042E-12-2.42941E-10
 -1      2666 3.53891E-08-7.93837E-09-1.09121E-08 7.05939E-09-2.10676E-10-4.56885E-10
 -1      2667 7.31850E-09-1.36832E-09-1.33553E-09 5.33106E-09 1.93462E-10-1.02942E-09
 -1      2668 2.61314E-08-1.04476E-08-6.62918E-09-1.24875E-08 3.84252E-09 3.02811E-09
 -1      2669 4.07845E-09-2.56946E-09-3.03290E-10 1.22658E-09 2.08192E-09 1.98528E-09
 -1      2670 3.26313E-08-9.68995E-09-9.88681E-09 9.48421E-10-1.45156E-11 9.92277E-11
 -1      2671-7.37142E-14 2.21791E-13-4.09408E-14-3.90497E-14 1.47930E-15-1.20905E-15
 -1      2672 3.24865E-08-9.68402E-09-9.81746E-09 1.05806E-09-1.18491E-11 4.78475E-11
 -1      2673 6.62482E-09 3.72829E-09-5.06235E-09-8.02100E-09-6.42700E-11-4.57970E-10
 -1      2674 5.67957E-11-1.64676E-11-1.23970E-11-3.12997E-11 1.53992E-13-4.63229E-14
 -1      2675 2.16077E-08-3.60022E-09-7.58184E-09 5.15963E-09 7.57798E-10 5.85391E-10
 -1      2676 2.45442E-08-5.29719E-09-8.28011E-09 2.45782E-09 3.44621E-10 2.02505E-10
 -1      2677 2.52941E-08-4.95934E-09-8.24241E-09 2.23498E-09 3.14775E-10 1.15557E-09
 -1      2678 2.10386E-08-4.70095E-09-6.87606E-09 3.98003E-09 3.80816E-10 3.48508E-10
 -1      2679 2.48914E-08-5.70612E-09-7.87017E-09 1.57892E-09 6.42040E-10 6.91642E-10
 -1      2680 2.71600E-08-4.00900E-09-9.87070E-09-2.73581E-09 1.15459E-10-2.80304E-10
 -1      2681 2.85614E-08-5.01675E-09-1.00751E-08-3.13218E-09 9.36936E-11-3.13064E-10
 -1      2682 2.88211E-08-4.24771E-09-1.03465E-08-5.09721E-09 6.34778E-11-4.03846E-10
 -1      2683 3.12081E-08-7.32209E-09-1.03105E-08 2.12332E-10-2.15744E-12 5.01102E-10
 -1      2684 3.14830E-08-7.32966E-09-1.04303E-08 4.28930E-10-2.70322E-11 3.80682E-10
 -1      2685 3.14678E-08-6.91647E-09-1.03875E-08-2.00489E-10-3.98399E-12 2.91787E-10
 -1      2686 3.08204E-08-6.74024E-09-1.03542E-08 1.07504E-09-7.42580E-12 4.73201E-10
 -1      2687 3.09176E-08-6.59019E-09-1.03142E-08 3.42720E-10 1.63664E-11 2.82016E-10
 -1      2688 3.10889E-08-6.52670E-09-1.02879E-08 5.12041E-10-1.59328E-11 1.67600E-10
 -1      2689 2.89228E-08-4.57951E-09-9.87832E-09 1.59882E-09 2.24735E-11-8.74060E-12
 -1      2690 2.87199E-08-4.61014E-09-1.00333E-08 1.37086E-09-4.51079E-11 1.01814E-10
 -1      2691 2.73952E-08-3.90492E-09-9.21088E-09 2.03456E-09-7.62811E-11-1.59325E-10
 -1      2692 2.86197E-08-4.08140E-09-1.01022E-08 2.68921E-09-2.82476E-11 1.52443E-10
 -1      2693 2.72621E-08-3.94871E-09-9.39330E-09 1.74654E-09-5.74417E-11-1.28918E-10
 -1      2694 3.54738E-09 6.27494E-09-5.23526E-09 7.96282E-09 1.03444E-09 5.73512E-10
 -1      2695 1.24500E-08 1.20471E-09-5.93903E-09 9.34078E-09 5.68866E-10 3.09266E-10
 -1      2696 7.23867E-09 2.67468E-09-4.48579E-09 8.04324E-09 4.88254E-10 6.43714E-10
 -1      2697 9.56498E-09 4.32356E-09-6.71163E-09 9.92516E-09 1.23253E-09 6.64405E-10
 -1      2698 6.11888E-09 4.84630E-09-5.11634E-09 8.27170E-09 1.40266E-09 8.31602E-10
 -1      2699 1.38814E-08-7.40277E-10-5.70095E-09 8.68118E-09 9.03242E-10 4.03070E-10
 -1      2700-1.54611E-13 4.14024E-13-1.00068E-13 4.42710E-14-1.43194E-15-9.39200E-15
 -1      2701-1.74705E-13 4.99400E-13-1.03108E-13-3.43894E-14 2.49878E-15-1.44103E-15
 -1      2702 2.13062E-08-5.06634E-09-4.04320E-09 3.67496E-09-1.71861E-10 1.78512E-09
 -1      2703 2.38084E-08-5.21327E-09-4.27846E-09 2.86043E-09-2.27417E-10 2.11396E-09
 -1      2704 7.65639E-10 3.80901E-09-2.51433E-09 3.77978E-09-6.42864E-10 9.48601E-11
 -1      2705 2.40547E-09 3.93541E-09-3.13460E-09 5.55333E-09-9.62837E-10-1.33354E-10
 -1      2706 3.26067E-08-8.96849E-09-1.02558E-08 9.32042E-11-3.70163E-12 1.60843E-10
 -1      2707 3.22634E-08-8.33974E-09-1.04412E-08 5.84464E-10-9.88161E-13 1.01701E-11
 -1      2708 3.25516E-08-8.94145E-09-1.02510E-08 7.61311E-10 6.28460E-13 1.56451E-11
 -1      2709 3.20588E-08-8.03431E-09-1.03931E-08 2.55602E-09-1.38550E-11 4.18712E-10
 -1      2710 3.19435E-08-8.59185E-09-1.01375E-08 1.87036E-09-1.38858E-11 4.66641E-10
 -1      2711 3.21666E-08-8.61350E-09-1.02828E-08 1.89740E-09 2.39392E-11 3.73364E-10
 -1      2712 3.26968E-08-9.73531E-09-9.87755E-09-8.87908E-10-4.86059E-12-3.34957E-11
 -1      2713 3.29186E-08-9.77889E-09-9.96890E-09-6.75299E-10-2.18985E-12-3.55964E-11
 -1      2714 2.59436E-08-4.66427E-09-8.36874E-09-1.19958E-09-2.40441E-10 1.28460E-09
 -1      2715 2.57779E-08-5.26361E-09-8.00313E-09-1.59205E-09-6.04008E-10 1.31869E-09
 -1      2716 2.03762E-08-4.56356E-09-4.55549E-09-4.64990E-09-5.70452E-11 1.94828E-09
 -1      2717 2.31826E-08-4.92636E-09-8.09472E-09-3.82097E-09-3.90036E-10 9.13229E-10
 -1      2718 2.77568E-08-4.48055E-09-9.93033E-09-2.15962E-09-1.22623E-10 3.45633E-10
 -1      2719 2.85721E-08-4.68951E-09-1.00586E-08-1.35257E-09 6.33368E-11 1.85298E-11
 -1      2720 2.67760E-08-4.37532E-09-9.63838E-09-1.54839E-09 1.29487E-10 1.94496E-10
 -1      2721 6.88109E-09-3.71333E-09-2.49106E-09 1.23570E-08-1.07106E-10 6.72768E-12
 -1      2722 4.89617E-09-9.57433E-09 1.79938E-09-2.39305E-09-8.10913E-11-2.65657E-11
 -1      2723 8.05503E-09-1.56204E-09-2.26426E-09 5.97655E-09 2.17503E-11 5.29984E-10
 -1      2724 5.67916E-09-2.03273E-09-8.30666E-10 4.41863E-09-2.93075E-10 6.75167E-10
 -1      2725 1.80616E-08-4.08546E-09-3.91958E-09-5.88342E-09-4.43057E-11 1.19605E-09
 -1      2726 1.32063E-08 8.39448E-11-5.43197E-09-8.38417E-09-3.89504E-10 3.89139E-10
 -1      2727 8.51503E-10-3.48237E-10-1.57403E-10 2.48847E-10 3.61330E-11-2.15102E-11
 -1      2728 2.89423E-08-5.95933E-09-9.98362E-09-2.32956E-10 4.42859E-11-5.06086E-10
 -1      2729 2.66083E-08-3.36343E-09-8.85400E-09 3.72221E-09-2.27075E-10-4.00202E-10
 -1      2730 2.81907E-08-3.31565E-09-9.79944E-09 4.10198E-09-1.04817E-10-1.00884E-10
 -1      2731 2.79449E-08-3.37747E-09-9.96900E-09 3.63868E-09-6.90888E-11 6.07995E-11
 -1      2732 2.73334E-08-4.71541E-09-8.34145E-09 4.50402E-10 1.95065E-10 5.71328E-10
 -1      2733 2.66224E-08-5.26684E-09-6.43585E-09 6.03828E-10-2.38822E-10 9.83797E-10
 -1      2734 2.73185E-08-4.76164E-09-8.00249E-09 4.96119E-10 3.96395E-11 5.68239E-11
 -1      2735 2.63586E-08-5.25165E-09-6.02895E-09 8.60822E-10-1.05789E-10 1.51962E-10
 -1      2736 2.51956E-08-4.73471E-09-6.71548E-09 1.36452E-09-5.29390E-12 2.34996E-10
 -1      2737 1.49148E-08-1.32696E-09-5.36008E-09-7.75010E-09-3.54554E-11-9.48147E-11
 -1      2738 2.91823E-08-5.48440E-09-9.23428E-09-1.08556E-10 4.84715E-11 2.93756E-10
 -1      2739 2.92547E-08-5.56919E-09-8.83598E-09-1.37674E-10 6.35984E-11-1.00877E-10
 -1      2740 2.83913E-08-4.58231E-09-9.43909E-09 8.49679E-10 5.14085E-11-3.81867E-11
 -1      2741 6.16223E-09 4.82969E-09-5.34046E-09 9.19038E-09 1.61033E-09 6.76708E-10
 -1      2742 1.78944E-08-1.50804E-09-6.77512E-09 8.15586E-09 8.61399E-10 7.56141E-10
 -1      2743 1.29272E-08-6.07664E-10-5.16387E-09 7.50576E-09 9.53596E-10 8.14024E-10
 -1      2744 1.54277E-08 3.81940E-09-7.59410E-09 1.08535E-08 1.27674E-09 1.40117E-09
 -1      2745 1.06912E-08 2.35225E-09-5.77477E-09 9.29610E-09 1.88330E-09 1.35116E-09
 -1      2746 2.19497E-08-3.10046E-09-7.79742E-09 7.00544E-09 1.03102E-09 1.28142E-10
 -1      2747 1.59285E-08-2.22191E-09-5.90592E-09-6.10090E-09-6.10119E-10 9.13265E-10
 -1      2748 1.90464E-08-1.12914E-08-3.48556E-09 3.31947E-09-9.57077E-10 1.73697E-09
 -1      2749 3.21954E-08-8.26272E-09-1.03261E-08 3.44758E-09-1.64460E-11-6.74132E-10
 -1      2750 3.25665E-08-9.20058E-09-1.02320E-08 2.25082E-09-1.30053E-11-7.02225E-10
 -1      2751 3.37541E-08-9.15017E-09-1.04487E-08 3.05026E-09 2.48261E-11-5.67369E-10
 -1      2752 1.09325E-08 2.49912E-09-6.37369E-09-9.13674E-09-4.65071E-10 1.81222E-10
 -1      2753 3.59921E-09 5.34066E-09-4.92274E-09-7.35315E-09-3.57196E-10 1.62550E-10
 -1      2754 3.10857E-08-4.40648E-09-1.05217E-08 6.88763E-09-1.34179E-10 1.64740E-10
 -1      2755 3.30063E-08-7.46652E-09-1.05608E-08 5.82085E-09 7.18371E-11 5.36277E-10
 -1      2756 2.97794E-08-4.93349E-09-1.04467E-08 4.48178E-09 1.64289E-10 5.79462E-10
 -1      2757 3.08581E-08-4.18620E-09-1.03273E-08 6.93935E-09-1.77259E-10 1.46026E-10
 -1      2758 2.80251E-08-3.43877E-09-1.02281E-08 3.92555E-09-1.66557E-10-2.09845E-11
 -1      2759 2.99308E-08-4.97526E-09-1.03734E-08 4.35403E-09 1.37026E-11 3.98406E-10
 -1      2760 3.24741E-10-1.34679E-10-6.05520E-11-1.30864E-11-1.44158E-11 6.64082E-12
 -1      2761 2.51732E-08-4.54368E-09-4.00794E-09 1.42380E-09-4.10267E-11-5.20716E-10
 -1      2762 2.54587E-08-4.38433E-09-4.42536E-09 1.30540E-09-1.20486E-10 5.85645E-10
 -1      2763 3.28140E-08-9.81811E-09-9.86122E-09 9.90844E-10 1.34422E-11 1.96779E-12
 -1      2764 3.31689E-08-9.95110E-09-9.95666E-09 7.83673E-10 9.18741E-12 1.09509E-11
 -1      2765 3.31511E-08-9.90215E-09-9.98789E-09 5.18429E-10 1.51967E-11-3.11110E-11
 -1      2766 3.33469E-08-9.30708E-09-1.04805E-08 2.51759E-09 6.13046E-12 2.11209E-10
 -1      2767 3.42339E-08-9.49226E-09-1.04461E-08 3.10424E-09 2.53477E-12 2.27558E-10
 -1      2768 2.75288E-08-2.09453E-09-9.42613E-09-1.17477E-08 8.96967E-11-3.01753E-10
 -1      2769 2.83244E-08-1.99144E-09-9.54951E-09-1.00581E-08 5.55099E-10-7.94576E-10
 -1      2770 6.36486E-09 3.00260E-09-4.04623E-09-8.00693E-09-9.89527E-10-9.70729E-11
 -1      2771 1.05699E-08-2.98311E-11-4.59303E-09-7.32758E-09-5.31922E-10 5.51584E-10
 -1      2772 5.38920E-09 2.26597E-09-3.31516E-09-7.02850E-09-6.50639E-10 4.48356E-11
 -1      2773 2.34185E-08-4.26585E-09-7.62036E-09-5.48813E-09-5.51560E-10 8.30934E-10
 -1      2774 2.43362E-08-4.50594E-09-7.29910E-09-2.16593E-09-2.96246E-10 1.03650E-09
 -1      2775 3.25849E-08-9.66217E-09-9.84062E-09-1.01875E-09 1.85931E-11 3.35768E-11
 -1      2776 3.27592E-08-9.62433E-09-9.99606E-09-8.93282E-10 1.29052E-12 5.09040E-11
 -1      2777 3.30064E-08-9.89903E-09-9.91701E-09-8.09520E-10 7.52608E-12 3.59646E-12
 -1      2778 3.30224E-08-9.72050E-09-1.00500E-08-4.39604E-10 6.80191E-12 6.41030E-11
 -1      2779 3.09612E-08-7.66118E-09-1.00387E-08 3.36973E-10-1.45748E-11 3.54765E-10
 -1      2780 3.15746E-08-7.88179E-09-1.02419E-08 8.98156E-10-1.02207E-11 4.57277E-10
 -1      2781 3.16430E-08-8.03104E-09-1.01808E-08-1.94402E-10-7.29046E-12 2.99573E-10
 -1      2782 3.19568E-08-8.59350E-09-1.00651E-08 4.14000E-10 1.92281E-12 2.57892E-10
 -1      2783 3.21150E-08-8.26092E-09-1.03661E-08 2.88470E-10 4.56795E-12 3.53223E-10
 -1      2784 3.41069E-08-9.31986E-09-1.04705E-08 3.69319E-09 6.00719E-11 4.46893E-10
 -1      2785 3.16708E-08-7.17466E-09-1.05419E-08 9.32374E-13-2.41532E-11-3.36854E-10
 -1      2786 3.12692E-08-6.90370E-09-9.98721E-09 8.53440E-11 2.89028E-11-1.46264E-10
 -1      2787 3.09347E-08-6.45971E-09-9.96236E-09 9.66533E-11 6.73112E-11 1.23298E-10
 -1      2788 3.15860E-08-7.32247E-09-1.04841E-08 1.62216E-10 2.14740E-11-4.66283E-10
 -1      2789 3.30540E-08-9.85344E-09-9.96952E-09-6.61113E-10-8.62992E-13 1.58897E-11
 -1      2790 3.30523E-08-9.63801E-09-1.01188E-08-2.99008E-10-2.05828E-12 5.68788E-12
 -1      2791 1.93044E-08 1.57355E-09-9.20148E-09 1.29870E-09-3.37331E-10-7.43635E-10
 -1      2792 2.92618E-08-5.74473E-09-1.02630E-08 1.48770E-09 5.15818E-10 8.86294E-10
 -1      2793 3.17851E-08-8.29916E-09-1.01656E-08 6.77173E-10 1.31090E-11-3.13175E-10
 -1      2794 3.22418E-08-8.94251E-09-1.00446E-08 8.95162E-10 3.52195E-11-1.99572E-10
 -1      2795 2.84524E-09-1.10543E-09-5.96640E-10-2.62325E-09 1.23592E-10 5.92570E-11
 -1      2796 1.33589E-08 2.35807E-09-6.77761E-09-1.26026E-08 1.41511E-09-1.00728E-09
 -1      2797 2.29538E-08-2.18548E-09-7.89316E-09-8.86460E-09 8.71377E-10-1.25504E-09
 -1      2798 1.80107E-08 1.08856E-10-7.84597E-09 1.19287E-08 1.20285E-09 1.41240E-09
 -1      2799 1.77072E-08 1.27899E-09-7.84502E-09 1.37896E-08 1.25701E-09 1.05773E-09
 -1      2800 2.13621E-08-3.08768E-09-7.58982E-09 6.45357E-09 4.78318E-10 3.38229E-10
 -1      2801 2.43294E-08-1.87501E-09-9.16503E-09 9.41818E-09 1.21514E-09 1.49648E-09
 -1      2802 2.42227E-08-2.15145E-09-8.30246E-09 8.14200E-09 6.55506E-10 1.12333E-09
 -1      2803 2.58556E-08-2.49515E-09-8.23454E-09 6.75317E-09 3.75395E-10 5.32636E-10
 -1      2804 2.32770E-08-3.70003E-09-7.42323E-09 5.18219E-09 5.69372E-10 1.07261E-09
 -1      2805 2.63191E-08-3.90874E-09-8.66583E-09 4.54737E-09 5.68564E-10 8.41236E-10
 -1      2806 2.59582E-08-3.39819E-09-8.69214E-09 3.89337E-09 3.55499E-10 4.47731E-10
 -1      2807 3.12118E-08-8.00748E-09-1.00034E-08 1.41632E-09-6.68464E-12 3.22860E-10
 -1      2808 3.20839E-08-8.49046E-09-1.02451E-08 1.28810E-09-2.45251E-11 4.08901E-10
 -1      2809 3.17209E-08-8.45621E-09-1.00123E-08 9.70876E-10-2.11404E-11 2.43851E-10
 -1      2810 3.14886E-08-8.50642E-09-9.87768E-09 1.53810E-09-1.14519E-11 2.82065E-10
 -1      2811 3.22856E-08-8.95785E-09-1.00868E-08 1.39553E-09-6.16333E-11 3.61094E-10
 -1      2812 2.61394E-08-2.71589E-09-8.75942E-09 6.31815E-09-5.99164E-10-6.87746E-10
 -1      2813 2.60868E-08-2.95862E-09-8.53881E-09 5.74020E-09-4.71506E-10-6.33675E-10
 -1      2814 2.22950E-08 4.43820E-10-8.36560E-09 1.43899E-08-1.02901E-09-9.25760E-10
 -1      2815 2.80849E-08-2.29050E-09-9.66292E-09 5.77045E-09-2.27373E-10-2.45642E-10
 -1      2816 2.68578E-08-1.12943E-09-9.20419E-09 1.28136E-08-4.11164E-10-8.07406E-10
 -1      2817 4.50057E-09-1.94601E-08 4.93443E-09-1.00212E-08 1.14957E-11-9.47281E-12
 -1      2818 2.95143E-08-6.50206E-09-9.88727E-09 2.30230E-09 1.87759E-11 3.90077E-10
 -1      2819 2.84332E-08-5.12755E-09-9.94891E-09 1.97329E-09 6.14603E-11 3.75539E-10
 -1      2820 3.00854E-08-6.52295E-09-1.00971E-08 4.01535E-09 1.16833E-10 4.80069E-10
 -1      2821 2.83283E-08-4.55717E-09-1.01779E-08 3.58725E-09 1.72625E-10 3.70460E-10
 -1      2822 2.97885E-08-5.62295E-09-1.02208E-08 2.98788E-09 8.37179E-11 5.49334E-10
 -1      2823 3.54968E-08-7.05516E-09-9.63314E-09 8.53185E-09-4.32931E-11 4.51160E-11
 -1      2824 3.51966E-08-7.41971E-09-9.59832E-09 7.79302E-09 1.44163E-11-8.36043E-11
 -1      2825 2.82025E-08-2.65236E-09-9.19631E-09 6.10296E-09 2.39064E-10 1.64322E-10
 -1      2826 2.69515E-08-1.12301E-09-8.84963E-09 1.26410E-08 2.75742E-10 1.36023E-10
 -1      2827 1.28596E-08-3.12432E-09-3.43656E-09 5.87792E-09-8.08713E-11 1.13935E-09
 -1      2828 2.32481E-09 3.83378E-09-2.80363E-09 5.57543E-09 7.43274E-10 9.74352E-11
 -1      2829 1.01923E-08 1.65089E-10-4.70641E-09 7.35542E-09 7.59862E-10 3.75481E-10
 -1      2830 2.30251E-09 4.25608E-09-3.21885E-09 6.32464E-09 1.01944E-09 2.81881E-10
 -1      2831 7.69725E-09 2.06102E-09-4.18483E-09 6.64255E-09 1.52047E-09 5.00316E-10
 -1      2832 2.62379E-08 3.89258E-11-9.78980E-09 1.35340E-08 1.03202E-09 7.91176E-10
 -1      2833 3.10931E-08-6.83512E-09-1.04996E-08 4.91937E-10-6.71165E-12-3.45119E-10
 -1      2834 3.12909E-08-6.79103E-09-1.04699E-08 3.23779E-10 7.15463E-12-2.23064E-10
 -1      2835 3.19632E-08-7.65077E-09-1.05650E-08 9.67463E-10 4.97863E-12-2.74081E-10
 -1      2836 2.99853E-08-5.79195E-09-1.01028E-08 4.69969E-10-6.80702E-12-2.89017E-10
 -1      2837 3.07433E-08-6.59094E-09-1.03963E-08 1.34020E-09 1.20468E-11-3.23111E-10
 -1      2838-9.54585E-09 8.57942E-09 2.09230E-10 3.78829E-09-6.98271E-11 2.20648E-11
 -1      2839 3.00082E-08-6.86390E-09-9.93797E-09 3.38087E-10 2.21743E-11 4.64563E-10
 -1      2840 3.06893E-08-6.65652E-09-1.01412E-08-1.00615E-10 4.56754E-11 1.99293E-10
 -1      2841 2.93892E-08-6.11998E-09-9.83574E-09-1.29747E-10-1.00601E-10 2.65582E-10
 -1      2842 2.98243E-08-6.05498E-09-1.00892E-08 1.63725E-10-5.60301E-11 3.36192E-10
 -1      2843 3.08843E-08-5.87898E-09-1.00033E-08-3.93597E-10-1.46717E-10-5.28828E-10
 -1      2844 1.27212E-08-3.10767E-09-3.06298E-09 6.08755E-09-4.57337E-11-1.20350E-09
 -1      2845 1.02385E-08-3.13053E-09-2.38779E-09 6.27311E-09-8.30136E-12-8.26821E-10
 -1      2846 1.19613E-08-7.75796E-10-4.75090E-09 6.91051E-09-6.92488E-10-6.10588E-10
 -1      2847 6.54021E-09 9.48677E-10-3.11896E-09 5.92202E-09-2.64451E-10-4.25832E-10
 -1      2848 2.65900E-08-5.85218E-10-1.03193E-08 1.10906E-08 4.39854E-10 9.00164E-10
 -1      2849 2.53515E-08-3.64030E-09-9.53579E-09 2.83556E-09 2.74892E-11 2.62787E-10
 -1      2850 2.58832E-08-3.58093E-09-8.96611E-09 4.63275E-09 5.46126E-10 7.58909E-10
 -1      2851 2.47911E-08-1.92787E-09-9.89900E-09 4.21409E-09-3.54845E-10 2.46495E-10
 -1      2852 2.70786E-08-4.17049E-09-9.07706E-09 1.98517E-09 1.94490E-10 2.69666E-10
 -1      2853 2.58108E-08-4.36627E-09-8.09721E-09 1.53768E-09 4.06720E-10 5.53148E-10
 -1      2854 2.81818E-08-3.41600E-09-9.84489E-09 3.86537E-09 1.04595E-10 8.08425E-11
 -1      2855 2.77161E-08-3.86973E-09-9.46801E-09 1.84300E-09 2.43672E-11-1.25640E-10
 -1      2856 2.68709E-08-3.34437E-09-8.90946E-09 3.43361E-09 1.38949E-10 2.48124E-10
 -1      2857 1.25499E-08-3.99465E-09-1.74173E-09 5.83475E-09 1.35386E-10-1.14588E-09
 -1      2858 1.22155E-08 3.72893E-09-6.98904E-09 1.04333E-08-8.32789E-10-8.15224E-10
 -1      2859 1.25096E-08 3.06192E-09-6.76932E-09 9.90882E-09-4.40585E-10-3.63208E-10
 -1      2860 1.54871E-08-4.81463E-10-6.21234E-09 9.18673E-09-7.23442E-10-6.85197E-10
 -1      2861 2.28003E-08-3.38539E-09-7.41055E-09 7.50417E-09-5.14281E-10-4.51603E-10
 -1      2862 1.62290E-08-9.81832E-10-6.08105E-09 8.78227E-09-3.82425E-10-2.69951E-10
 -1      2863 3.14329E-08-7.73176E-09-1.01799E-08 2.52648E-09-1.33971E-11-6.21384E-10
 -1      2864 2.99555E-08-6.02570E-09-1.02249E-08 3.51100E-09-8.80450E-11-5.06309E-10
 -1      2865 3.14843E-08-7.62829E-09-1.03109E-08 2.54435E-09 5.53203E-11-4.83028E-10
 -1      2866 2.95576E-08-5.84875E-09-1.01899E-08 2.31167E-09-5.93945E-11-5.20236E-10
 -1      2867 3.02293E-08-5.79930E-09-1.03642E-08 3.52149E-09 7.16038E-13-3.93605E-10
 -1      2868 3.08897E-08-6.18400E-09-1.02709E-08 3.64191E-09-6.31500E-11 1.29597E-10
 -1      2869 3.17254E-08-7.19343E-09-1.05045E-08 2.70525E-09-3.43236E-11 3.05596E-10
 -1      2870 3.06174E-08-6.07880E-09-1.04035E-08 3.43076E-09 1.16504E-11 4.06129E-10
 -1      2871 2.99589E-08-5.56632E-09-1.03290E-08 2.20505E-09-3.55452E-11 1.72939E-10
 -1      2872 2.97640E-08-5.55234E-09-1.03504E-08 1.98439E-09-3.07488E-11 3.20629E-10
 -1      2873 2.14523E-08-4.14772E-09-5.87062E-09-4.30948E-09-1.73596E-10 2.82475E-10
 -1      2874 3.16921E-08-8.98451E-09-9.71869E-09-2.09763E-09 4.94015E-11 3.88986E-10
 -1      2875 3.04802E-08-7.25888E-09-9.95513E-09-2.11502E-09-5.37815E-11 3.37469E-10
 -1      2876 3.13762E-08-8.18995E-09-9.91954E-09-1.30765E-09-9.11606E-12 3.09722E-10
 -1      2877 2.56838E-08-4.88308E-09-7.60995E-09 1.20976E-09-1.32646E-10-1.28092E-09
 -1      2878 2.77580E-08-4.51772E-09-9.29568E-09 5.07255E-10-1.81350E-10-4.51902E-10
 -1      2879 2.59470E-08-3.99991E-09-8.45262E-09 1.32646E-09-2.26786E-10-6.47319E-10
 -1      2880 3.24028E-08-9.43116E-09-1.00927E-08-1.39593E-09-2.81039E-12 1.05816E-10
 -1      2881 4.53846E-09-1.59829E-09-7.63631E-10-3.91476E-09 3.59447E-10 3.04427E-10
 -1      2882 3.21582E-08-9.27123E-09-9.96886E-09-1.63739E-09 8.60325E-12 6.45784E-10
 -1      2883 3.10006E-08-7.46040E-09-1.01552E-08-3.85284E-10 3.30696E-12 4.43249E-10
 -1      2884 3.19412E-08-8.41915E-09-1.01659E-08-7.11231E-10-1.51042E-11 2.74995E-10
 -1      2885 1.67243E-09-6.37395E-10-3.80074E-10-1.26031E-09 6.93668E-11 6.43497E-11
 -1      2886 3.22615E-08-8.42552E-09-1.03760E-08-4.91766E-10 3.19456E-11 2.31985E-10
 -1      2887 3.21766E-08-8.73567E-09-1.01153E-08-3.36061E-10 1.29890E-11 1.79347E-10
 -1      2888 8.15060E-09 3.86342E-09-5.58151E-09-9.46739E-09 1.98038E-09-8.82298E-10
 -1      2889 5.95524E-09 4.08067E-09-4.86118E-09-7.89598E-09 2.01933E-09-8.41400E-10
 -1      2890 2.81491E-08-4.85583E-09-6.31503E-09 1.50589E-09-9.60226E-10 5.20613E-09
 -1      2891 3.27377E-08-9.32580E-09-1.00903E-08-1.61286E-10-7.74981E-12 1.17220E-10
 -1      2892 2.33016E-08-4.32789E-09-2.58301E-09 2.61643E-09-5.32555E-11-2.67611E-10
 -1      2893 3.21293E-08-9.10041E-09-9.90900E-09 1.30053E-09 1.01931E-11-2.39633E-10
 -1      2894 3.21080E-08-9.51785E-09-9.74137E-09 1.33409E-09 3.73789E-11-1.81750E-10
 -1      2895 2.44907E-08-2.43051E-09-9.42793E-09 8.88327E-09 6.97228E-10 9.77691E-10
 -1      2896 2.01396E-08-2.29917E-10-7.51828E-09-1.20521E-08-3.61754E-10 3.81195E-10
 -1      2897 1.30070E-08 2.19386E-09-6.09465E-09-1.18195E-08 2.01152E-10-1.85133E-10
 -1      2898 3.23970E-08-9.31226E-09-1.01757E-08-1.59399E-09 3.94405E-11 4.30518E-10
 -1      2899 6.23790E-09-1.14757E-09-1.84606E-09-5.49832E-09 4.61006E-11 6.97360E-11
 -1      2900 2.99044E-08-5.91009E-09-1.01813E-08 4.98598E-10 2.07614E-11 3.87188E-10
 -1      2901 2.92484E-08-5.27363E-09-9.67257E-09-2.03302E-10-9.92105E-11-3.38651E-10
 -1      2902 2.94031E-08-5.64464E-09-1.02534E-08 1.36836E-09 1.58984E-12 5.27310E-10
 -1      2903 2.86045E-08-4.84537E-09-9.89318E-09 7.78779E-10-6.36909E-11 7.72996E-11
 -1      2904 2.93263E-08-2.26393E-09-1.01941E-08-1.12055E-08-1.53839E-10 4.48758E-10
 -1      2905 2.83737E-08-3.21581E-09-1.02414E-08-4.66666E-09 1.23468E-10-1.58460E-10
 -1      2906 2.69869E-08-3.96146E-09-9.60490E-09-3.19501E-09-1.92837E-10 3.26515E-10
 -1      2907 2.68932E-08-3.47592E-09-9.38986E-09-3.51045E-09-4.63616E-10 3.29733E-10
 -1      2908 1.94857E-08-3.04058E-09-5.88005E-09 7.19263E-09 3.08713E-10 5.39554E-10
 -1      2909 1.40458E-08-1.22786E-09-4.69063E-09 6.70227E-09 3.59974E-10 5.25515E-10
 -1      2910 1.25376E-08-3.45993E-10-4.70008E-09 7.11452E-09 2.20446E-10 2.87944E-10
 -1      2911 3.51516E-08-7.27485E-09-9.72612E-09 7.81289E-09 2.44974E-10 4.44884E-10
 -1      2912 2.76702E-08-1.66484E-09-9.08055E-09 1.23172E-08 4.79651E-10 1.13045E-09
 -1      2913 3.39638E-08-7.86005E-09-1.09377E-08 6.41845E-09-1.15976E-10-7.43021E-10
 -1      2914 3.42018E-08-9.61184E-09-1.05262E-08-3.11873E-09-1.03687E-11-3.68335E-10
 -1      2915 3.32512E-08-9.21032E-09-1.04822E-08-2.87313E-09 4.57179E-11-5.24962E-10
 -1      2916 3.27162E-08-9.04868E-09-1.03349E-08-2.35522E-09-2.33469E-12-5.88789E-10
 -1      2917 3.27410E-08-9.39963E-09-1.02740E-08-1.58922E-09-3.15644E-11-3.00808E-10
 -1      2918 3.23725E-08-9.42324E-09-1.00957E-08-1.41413E-09 8.43911E-13-2.85499E-10
 -1      2919 9.56980E-11-4.22690E-11-1.41163E-11 6.20476E-11 8.21089E-13-6.83566E-14
 -1      2920 2.79100E-08-1.91223E-09-1.03887E-08-1.00333E-08 2.60170E-10-4.79798E-10
 -1      2921 3.33146E-08-6.18087E-09-1.08410E-08-6.72325E-09-2.05882E-10 3.53040E-10
 -1      2922 3.48598E-08-6.92545E-09-1.08866E-08-6.80011E-09-2.03333E-11 2.51034E-10
 -1      2923 1.05121E-11 3.19878E-12-4.94784E-12-1.70886E-11 1.82797E-13-2.98308E-13
 -1      2924 2.79880E-08-2.99525E-09-1.00510E-08-3.93715E-09 1.66881E-10 1.79343E-10
 -1      2925 3.20713E-08-7.38432E-09-1.05458E-08-3.07839E-09 3.00657E-11 2.09504E-10
 -1      2926 2.96779E-08-4.96287E-09-1.02075E-08-2.98663E-09-2.49478E-11 1.23429E-10
 -1      2927 3.14044E-08-5.79555E-09-1.01814E-08-4.83377E-09-2.00193E-10 2.02709E-11
 -1      2928 2.81762E-08-4.99052E-09-9.27923E-09-2.59314E-10-3.60894E-11 5.95538E-10
 -1      2929 3.05877E-08-6.47500E-09-1.02452E-08-3.34387E-11-4.23690E-11 3.29506E-10
 -1      2930 3.09054E-08-6.85414E-09-1.02172E-08-1.67109E-10 5.95934E-11 1.86525E-10
 -1      2931 3.06491E-08-3.68248E-09-9.86712E-09 6.93354E-09-1.29690E-10-1.07112E-10
 -1      2932 3.05891E-08-4.04640E-09-1.00330E-08 6.55776E-09-7.58489E-11 6.72595E-11
 -1      2933 3.29476E-08-7.17328E-09-1.02937E-08 6.20740E-09-8.28451E-11 1.98589E-10
 -1      2934 3.05035E-08-5.00246E-09-1.01218E-08 5.01405E-09-7.94440E-11-6.51047E-13
 -1      2935 3.04300E-08-5.06337E-09-1.02262E-08 4.79600E-09-2.70384E-11 2.33834E-10
 -1      2936 3.25969E-08-9.43685E-09-1.02506E-08 1.48201E-09 1.38613E-11-1.14160E-10
 -1      2937 3.23822E-08-6.62452E-09-1.02387E-08 6.08354E-09 6.97226E-11-1.93728E-10
 -1      2938 3.18097E-08-6.93567E-09-1.02707E-08 5.10789E-09 1.92991E-11-1.01263E-12
 -1      2939 2.96418E-08-4.49652E-09-1.00212E-08 4.36614E-09 1.31005E-10-4.28586E-11
 -1      2940 3.29576E-08-8.00684E-09-1.04473E-08 4.59178E-09 2.31338E-11-2.81880E-10
 -1      2941 3.05728E-08-5.47527E-09-1.02235E-08 4.42594E-09 1.00080E-10-1.58578E-10
 -1      2942 3.22470E-09 3.33651E-09-3.17946E-09 6.26365E-09 1.99652E-10 1.78891E-10
 -1      2943 4.38715E-09 2.69535E-09-3.35291E-09 6.62830E-09-9.72322E-11-1.10771E-10
 -1      2944 2.11174E-09 4.75014E-09-4.55490E-09 5.21222E-09 1.05589E-10 6.49963E-11
 -1      2945 6.64704E-09 3.37944E-09-4.61803E-09 8.39785E-09 2.14883E-12-1.56858E-10
 -1      2946 3.58173E-09 4.39419E-09-4.54062E-09 5.89619E-09-3.89539E-10-2.63216E-10
 -1      2947 3.22614E-08-8.08349E-09-1.04499E-08-4.09800E-09 1.30251E-10-6.14797E-10
 -1      2948 3.31874E-08-8.72519E-09-1.04269E-08-3.40290E-09 1.60038E-10-9.12175E-10
 -1      2949 3.22323E-08-6.98327E-09-1.05799E-08-4.57287E-09 2.03939E-10-4.95851E-10
 -1      2950 3.01391E-08-5.79161E-09-1.03266E-08-4.53682E-09 1.03681E-10-4.59602E-10
 -1      2951 2.67466E-08-3.56095E-09-9.76226E-09-2.60630E-09-4.53177E-11 1.28017E-10
 -1      2952 1.83527E-08-3.96331E-09-4.91264E-09 5.94359E-09 2.22597E-10-2.55081E-09
 -1      2953 2.30814E-08-5.80050E-09-5.46371E-09 3.05977E-09 4.50884E-10-2.03743E-09
 -1      2954 2.20568E-08-4.35649E-09-7.75865E-09 3.42137E-09-2.54871E-10-7.96066E-10
 -1      2955 1.76256E-08-3.57318E-09-3.60626E-09 5.47531E-09 1.91709E-10-1.68858E-09
 -1      2956 3.36790E-08-6.20884E-09-1.15597E-08 7.08139E-09 4.01164E-10 4.96357E-10
 -1      2957-8.54378E-14 2.70885E-13-6.83732E-14-2.30249E-14 2.03818E-15-1.90128E-15
 -1      2958 2.14082E-08-3.58842E-09-7.19866E-09 4.51817E-09 7.54381E-10 8.45063E-10
 -1      2959-9.99027E-13 2.31609E-12-3.89935E-13-9.55200E-13 2.50480E-14 8.11564E-14
 -1      2960-3.04333E-13 2.66550E-12-8.21010E-13-2.28791E-12-5.47896E-15 2.34649E-15
 -1      2961-7.10143E-13 2.35113E-12-4.74160E-13-1.53280E-12 3.24146E-14-4.27513E-14
 -1      2962 8.02118E-11-2.54214E-11-1.73636E-11 5.27448E-11-5.66472E-12-9.76933E-13
 -1      2963 3.16703E-08-7.07016E-09-1.05191E-08-1.99206E-10-1.65938E-11 1.11694E-10
 -1      2964 3.20046E-08-7.70063E-09-1.05806E-08-6.08821E-11 4.29520E-11 1.10721E-10
 -1      2965 3.18291E-08-7.68998E-09-1.05115E-08-6.08737E-10-3.59020E-11-8.50616E-11
 -1      2966 4.77015E-08-2.96806E-08-9.06631E-09 1.42459E-08-1.16666E-09-1.56728E-09
 -1      2967 2.77968E-08-1.44796E-08-3.40290E-09-3.35717E-10 2.50699E-09-2.49135E-09
 -1      2968-9.64991E-13 4.03971E-12-1.00230E-12 3.94057E-12-5.60635E-14 5.43773E-14
 -1      2969-1.58492E-12 3.68065E-12-6.08755E-13 3.15575E-12 8.87260E-15-5.30851E-15
 -1      2970-5.69672E-13 4.07496E-12-1.02684E-12 4.71810E-12-7.88867E-15 5.39452E-14
 -1      2971 2.74081E-08-4.86908E-09-6.17313E-09-1.78901E-09 1.07291E-09 5.09806E-09
 -1      2972 9.41633E-12 3.72178E-12-4.94654E-12-1.70380E-11-4.18754E-13 1.72910E-13
 -1      2973 4.10868E-11-8.56372E-12-1.21243E-11 3.56846E-11 8.66269E-13 5.42828E-13
 -1      2974 2.56878E-08-4.81437E-09-4.68023E-09-1.01539E-09-1.67927E-10-7.18076E-10
 -1      2975 2.86466E-08-4.71842E-09-7.63875E-09 2.33748E-09-8.07211E-10 5.14936E-09
 -1      2976-3.96058E-13 1.10382E-12-2.29320E-13 2.74434E-13-1.01943E-14 6.33828E-14
 -1      2977 3.15079E-08-7.59444E-09-1.03324E-08 8.78570E-10 8.30357E-12-5.08252E-10
 -1      2978 3.06482E-08-7.56999E-09-9.93381E-09 7.33190E-10-1.24288E-11-3.88813E-10
 -1      2979 4.69635E-10 2.20838E-09-1.44320E-09-2.48165E-09-2.56876E-10 1.07201E-10
 -1      2980 3.01699E-10 2.73544E-09-1.88333E-09-2.42629E-09-1.93224E-10 1.21400E-10
 -1      2981 5.04181E-09-2.83462E-10-1.12892E-09-4.58703E-09 1.62278E-10 3.62649E-10
 -1      2982 4.20468E-12 4.32778E-12-2.65803E-12 9.19534E-12 7.04775E-13-5.08728E-13
 -1      2983 2.55527E-08-4.93068E-09-8.82391E-09-1.25822E-09-1.33294E-10 2.46058E-10
 -1      2984 2.43139E-08-4.74753E-09-8.26909E-09-2.69855E-09-2.02527E-10 2.67262E-10
 -1      2985 2.89952E-08-5.51249E-09-9.37238E-09 3.35530E-11-3.10837E-11 4.77787E-10
 -1      2986 2.91652E-08-5.06661E-09-1.01467E-08 1.52917E-09 3.63833E-11-2.54751E-10
 -1      2987 2.82916E-08-4.72964E-09-9.30761E-09 8.70102E-10-1.16338E-11 2.62238E-10
 -1      2988 5.60681E-08-2.30231E-08-8.31525E-09-2.93552E-08-4.03460E-09-2.95411E-09
 -1      2989 5.32072E-09-9.03526E-10-1.58077E-09-4.71621E-09-1.72632E-10 1.99722E-11
 -1      2990 1.23006E-09-6.38261E-10-1.69384E-10-5.50018E-10 7.32103E-11 4.76003E-11
 -1      2991 3.89591E-08-1.36927E-08-9.09202E-09-3.77072E-09 1.22636E-09-4.36239E-10
 -1      2992 3.16422E-08-6.96270E-09-1.04814E-08 9.17830E-11-4.94337E-11-4.32906E-11
 -1      2993 3.11291E-08-6.15626E-09-8.99583E-09-1.81974E-11-1.77350E-11 1.48143E-10
 -1      2994 3.05965E-08-6.05225E-09-9.48575E-09 7.76865E-11 1.16449E-11 9.38184E-11
 -1      2995 3.08491E-08-6.26397E-09-9.88953E-09-5.28076E-13-4.45114E-11-1.18804E-10
 -1      2996 3.14858E-08-6.99831E-09-1.04784E-08 2.65784E-09 1.25910E-12 6.16101E-11
 -1      2997 3.06648E-08-5.88680E-09-1.02999E-08 3.60948E-09-8.42052E-11-2.23160E-11
 -1      2998 3.05944E-08-6.10740E-09-1.04176E-08 8.93015E-10 1.91320E-11 9.30054E-11
 -1      2999 2.93980E-08-4.99669E-09-1.00414E-08 1.54001E-09 3.59194E-11-2.02080E-11
 -1      3000 2.03692E-08-3.74039E-09-6.99531E-09 5.72002E-09-5.10765E-10-6.19390E-10
 -1      3001 1.67088E-08-3.16670E-09-5.52085E-09 6.79373E-09-7.38416E-10-3.84816E-10
 -1      3002 9.28517E-09 4.64820E-09-6.55278E-09 9.98103E-09-1.20928E-11 1.71819E-12
 -1      3003 2.02144E-08 1.70019E-09-7.57499E-09 1.57241E-08 1.95359E-11 3.05173E-11
 -1      3004 2.04410E-08 1.50307E-09-7.73508E-09 1.56748E-08 6.22233E-11 1.71105E-11
 -1      3005 2.68903E-09 2.92212E-09-2.82763E-09 4.33012E-09 7.88212E-10 3.11317E-10
 -1      3006 3.57858E-09 3.28210E-09-3.67118E-09 4.98422E-09 1.05812E-09 2.16025E-10
 -1      3007 5.01915E-09 2.33104E-09-3.08194E-09 6.28352E-09 4.04273E-10 4.79787E-10
 -1      3008 1.49444E-09 3.48855E-09-2.80732E-09 3.37353E-09 4.87599E-10 6.97340E-11
 -1      3009 3.09708E-08-6.82313E-09-1.03533E-08 2.30003E-09 6.71904E-11 5.16539E-10
 -1      3010 3.17890E-08-1.59684E-08-3.91028E-09 5.46375E-10-2.31321E-09 1.25388E-09
 -1      3011 2.62683E-08-5.21359E-09-8.77947E-09 4.49922E-10 1.06067E-10 6.62935E-10
 -1      3012 2.67666E-08-4.33743E-09-9.60456E-09 1.13744E-09-3.67405E-11-2.70511E-10
 -1      3013 2.76271E-08-5.18127E-09-8.98129E-09-1.95440E-11-4.96444E-11 6.26673E-10
 -1      3014 2.47877E-08-5.09801E-09-8.38017E-09 3.05447E-09 3.34525E-10 1.42750E-10
 -1      3015 3.30507E-08-8.35166E-09-1.04824E-08-4.01803E-09 6.71464E-11 1.61392E-10
 -1      3016 3.35646E-08-9.21089E-09-1.05035E-08-2.72243E-09-6.73713E-11 8.30612E-11
 -1      3017 3.28771E-08-8.89488E-09-1.03490E-08-2.85234E-09-2.68642E-11-5.61709E-11
 -1      3018-3.52939E-09 3.35229E-08-1.40972E-08 1.80966E-10 7.03687E-10-8.03530E-10
 -1      3019 2.60125E-08 1.91649E-08-1.48119E-08-2.74524E-08-1.99923E-09-2.22010E-09
 -1      3020 3.23308E-08 1.10059E-09-1.67147E-08-1.16984E-08 1.36689E-09 9.94666E-10
 -1      3021 2.05435E-08-4.91848E-09-6.46492E-09-4.74813E-09 7.56533E-10-2.96810E-10
 -1      3022 3.62784E-08-1.10508E-08-1.08576E-08 1.14366E-09 2.40396E-11 3.84718E-11
 -1      3023 3.18563E-08-9.24908E-09-9.76142E-09 1.65062E-09 3.44549E-11-2.88602E-10
 -1      3024 3.20917E-08-9.40215E-09-9.85908E-09 1.36803E-09 3.27739E-11-4.08607E-10
 -1      3025 2.96932E-08-5.33553E-09-9.86071E-09 2.18275E-10-7.23337E-11-2.59626E-10
 -1      3026 3.01108E-08-5.83673E-09-1.02096E-08 8.84175E-10-3.45981E-11 1.51434E-10
 -1      3027-5.83634E-13 5.70793E-12-1.44117E-12 6.13002E-12 5.36367E-13-2.58912E-13
 -1      3028 3.14560E-08-7.10317E-09-1.06271E-08-9.50671E-10-1.29875E-11 3.09565E-10
 -1      3029 3.18513E-08-7.97579E-09-1.03567E-08-1.20496E-09 3.04199E-12 4.20710E-10
 -1      3030 3.16573E-09-1.08308E-09-7.71939E-10 3.36829E-09-1.90773E-11 4.32022E-11
 -1      3031 2.85774E-08-4.12547E-09-1.02763E-08-4.88501E-09-1.74617E-10 4.30114E-10
 -1      3032 3.32127E-08-9.52628E-09-1.04063E-08 1.82831E-09-2.15191E-11 1.39488E-10
 -1      3033 3.28218E-08-9.19640E-09-1.03413E-08 1.87265E-09 4.51508E-12 7.94625E-11
 -1      3034 3.31144E-08-9.49469E-09-1.03982E-08 1.70381E-09 4.97100E-13-5.48977E-11
 -1      3035 3.89196E-08-9.90275E-09-1.22968E-08 7.79098E-10 3.55305E-10-6.64170E-10
 -1      3036 3.10395E-08 1.00075E-09-1.40783E-08-6.05851E-11 6.65983E-10-4.64782E-10
 -1      3037 2.48565E-08-5.23423E-09-8.90646E-09 2.92310E-09-2.58805E-10 6.53536E-10
 -1      3038 2.69540E-08-3.84828E-09-9.85114E-09 2.47681E-09-2.41196E-10-2.25986E-10
 -1      3039 2.83869E-08-5.33153E-09-9.91160E-09 1.74823E-09-7.86601E-11-3.08407E-10
 -1      3040 2.87797E-08-5.30522E-09-1.00677E-08 3.19990E-09-8.75043E-11-3.30799E-10
 -1      3041 3.40515E-08-9.40220E-09-1.04798E-08 3.09570E-09 4.33926E-11-2.06265E-10
 -1      3042 3.31711E-08-9.21377E-09-1.04789E-08 2.47516E-09 1.50473E-11-3.85505E-10
 -1      3043 3.33466E-08-9.22658E-09-1.04841E-08 2.64360E-09-6.78495E-12-1.89701E-10
 -1      3044 3.27509E-08-8.12492E-09-1.04099E-08 4.45895E-09 7.47704E-11-1.52141E-10
 -1      3045 3.23565E-08-8.07955E-09-1.04118E-08 3.54391E-09-4.43369E-12-3.05777E-10
 -1      3046 2.80591E-08-5.58245E-09-9.52121E-09 1.44387E-10-6.24805E-11-9.09667E-10
 -1      3047 2.91807E-08-5.40910E-09-1.00219E-08-2.11012E-10-1.42491E-10-7.21286E-10
 -1      3048 2.83471E-08-5.56037E-09-9.56703E-09-2.23386E-10-5.52512E-11 2.30703E-11
 -1      3049 3.25461E-08-8.97672E-09-1.02588E-08 1.22995E-09 9.28986E-12-1.73514E-10
 -1      3050 3.26677E-08-9.45009E-09-1.01427E-08 1.18009E-09 1.99680E-11-9.84446E-11
 -1      3051 3.24951E-08-9.06981E-09-1.01306E-08 1.15937E-09 3.68172E-11-2.87742E-10
 -1      3052 3.27188E-08-9.41116E-09-1.01134E-08 7.67079E-10 1.62693E-11-1.37025E-10
 -1      3053 3.04954E-08-6.76950E-09-1.02085E-08 1.82924E-09 3.24316E-11 6.21872E-10
 -1      3054 4.55290E-09 5.04595E-09-4.51503E-09 8.50376E-09-1.48492E-09-3.98767E-10
 -1      3055 3.27269E-08-9.64470E-09-1.00042E-08 9.24695E-10-2.07150E-11 5.20650E-11
 -1      3056 3.27775E-08-9.75241E-09-9.96272E-09 8.56762E-10-2.53547E-11 9.54769E-11
 -1      3057 3.29377E-08-9.78990E-09-9.97369E-09 7.07359E-10 6.14864E-12-2.27039E-11
 -1      3058 3.27054E-08-7.15404E-09-1.03982E-08 5.83103E-09-2.50933E-11-1.98219E-10
 -1      3059 3.01026E-08-4.96812E-09-1.02423E-08 4.58953E-09-2.40591E-11-2.44987E-10
 -1      3060 3.21799E-08-7.70814E-09-1.04840E-08 4.67486E-09-2.01016E-11-4.70574E-10
 -1      3061 3.06811E-08-6.08289E-09-1.03344E-08 3.38474E-09-1.67345E-11-3.04142E-10
 -1      3062 3.27603E-08-5.98576E-09-1.11097E-08-6.83095E-09 3.86095E-10-7.76541E-11
 -1      3063 3.19269E-08-5.25707E-09-1.09745E-08 6.13701E-09 2.81385E-12-2.34047E-10
 -1      3064 2.86736E-08-4.39045E-09-1.03082E-08 4.37370E-09-2.31682E-10-4.25605E-10
 -1      3065 3.94957E-08-2.23541E-08-9.90385E-09-1.12384E-08 7.05427E-11 9.83622E-11
 -1      3066 3.24300E-08-9.51203E-09-1.00719E-08-1.33345E-09-1.13660E-11-1.16084E-10
 -1      3067 3.24260E-08-9.31311E-09-1.00333E-08-1.52862E-09-4.26066E-11-2.45683E-10
 -1      3068 3.22741E-08-9.54124E-09-9.78835E-09-1.21627E-09-3.36488E-11-1.35236E-10
 -1      3069 2.19362E-11 9.81028E-13-7.29605E-12 2.83835E-11-2.23061E-12 3.88147E-14
 -1      3070 3.69784E-08-9.14394E-09-1.04607E-08 6.73613E-09-8.60525E-11-2.53153E-11
 -1      3071-6.74266E-09-7.18525E-10 4.12173E-09-6.68287E-09 2.32530E-11 2.72132E-11
 -1      3072 6.94839E-10 2.67745E-09-2.07717E-09-2.22621E-09-3.83950E-10 2.75914E-10
 -1      3073 1.02151E-08 2.79209E-09-6.39899E-09-8.65152E-09-5.63811E-10 4.41996E-10
 -1      3074 3.36822E-09 5.73530E-09-4.94426E-09-7.28258E-09-5.67699E-10 3.24502E-10
 -1      3075 3.54610E-09 5.56875E-09-4.93658E-09-7.56892E-09-9.74407E-10 4.88752E-10
 -1      3076 1.02560E-09-5.29132E-10-1.22550E-10 3.62608E-10-1.10918E-12 6.62244E-12
 -1      3077 1.14992E-09-4.04724E-10-2.65203E-10 6.36046E-10 4.28069E-12 1.94016E-12
 -1      3078 2.10016E-09 3.39183E-09-2.89268E-09-4.22396E-09-9.46602E-10 2.67188E-10
 -1      3079 2.01972E-09 3.48580E-09-3.20240E-09-4.11495E-09-7.81381E-10 3.47045E-10
 -1      3080 2.96400E-09 4.31210E-09-4.28363E-09-4.96757E-09-1.11987E-09 5.29692E-10
 -1      3081 3.46073E-08-1.00666E-08-1.05042E-08-3.18894E-09 1.43828E-10 1.93027E-10
 -1      3082 3.28380E-08-6.94334E-09-1.05884E-08-4.99559E-09-2.30212E-11 3.52819E-10
 -1      3083 1.32028E-10-5.63855E-11-2.76166E-11 5.39346E-11-6.93615E-13-1.20273E-12
 -1      3084-6.38968E-09 4.87674E-09 1.25367E-09-3.40952E-09 1.24712E-09 1.48218E-10
 -1      3085 3.26270E-08-9.16124E-09-1.02230E-08-2.32555E-09-1.52325E-11-6.36612E-10
 -1      3086 3.19437E-08-8.75754E-09-9.99819E-09-2.59297E-09 4.81544E-11-7.73925E-10
 -1      3087 3.16690E-08-7.72514E-09-1.02655E-08-3.51476E-09 1.66975E-11-6.11352E-10
 -1      3088 3.33726E-08-9.01451E-09-1.03564E-08-3.38621E-09 2.15072E-11-6.70508E-10
 -1      3089 9.41313E-10 2.67997E-09-2.02346E-09 2.66956E-09 9.64409E-11 2.55550E-11
 -1      3090 3.02910E-08-6.11646E-09-8.51700E-09-2.23536E-10 2.37792E-10-3.63812E-10
 -1      3091 1.19118E-09-3.73703E-10-2.99162E-10-7.08238E-10-1.65906E-12-1.08345E-11
 -1      3092 8.55296E-10-3.29876E-10-1.61552E-10-2.85454E-10-5.13283E-11-1.97717E-11
 -1      3093 2.77437E-08-1.89256E-09-9.88488E-09-9.91261E-09 4.71300E-10-5.92645E-10
 -1      3094 2.84255E-08-4.15029E-09-1.03829E-08 5.70969E-09 1.69400E-10 8.39901E-11
 -1      3095 3.22627E-08-9.43018E-09-9.78672E-09-1.61488E-09-7.12391E-11-3.64423E-10
 -1      3096 3.19230E-08-9.12323E-09-9.85747E-09-2.22500E-09 1.70583E-11-4.35826E-10
 -1      3097 6.08603E-09-1.07984E-09-1.28136E-09 5.10936E-09-1.51956E-10 6.35533E-10
 -1      3098 2.68627E-08-6.04963E-10-1.04782E-08-1.16029E-08-2.46970E-10 8.57165E-10
 -1      3099 4.65676E-09 5.20215E-09-4.50702E-09-8.85645E-09 1.55502E-09-4.74820E-10
 -1      3100 3.32263E-08-9.34723E-09-1.04325E-08-2.29904E-09-5.57988E-11 3.36593E-10
 -1      3101 3.40348E-08-1.02158E-08-1.02116E-08 6.74353E-10-3.29255E-12 2.22460E-12
 -1      3102 3.43362E-08-1.03015E-08-1.02964E-08 6.94313E-10 3.05086E-14-1.70001E-12
 -1      3103 3.22364E-08-8.52114E-09-1.03685E-08-1.42208E-09 1.00201E-11-3.28986E-10
 -1      3104 2.96080E-08-5.87067E-09-9.61998E-09 1.18426E-10 3.20894E-10-3.05544E-10
 -1      3105 2.96484E-08-6.37736E-09-1.00098E-08-7.04622E-11 7.03842E-11-4.16306E-10
 -1      3106 3.12528E-08-6.43052E-09-1.00131E-08-8.56977E-11-1.10620E-10-1.73457E-10
 -1      3107 3.21571E-08-8.33180E-09-1.03712E-08 1.16885E-09-9.92413E-13-2.10708E-10
 -1      3108 3.21169E-08-8.57499E-09-1.02838E-08 1.67173E-09 2.37883E-11-3.47229E-10
 -1      3109 3.22140E-08-8.47356E-09-1.04181E-08 1.74845E-09-4.13402E-12-1.74053E-10
 -1      3110 3.19013E-08-8.31999E-09-1.01885E-08 1.14737E-09 2.47571E-11-3.53850E-10
 -1      3111 3.59912E-08-1.09969E-08-1.06732E-08-9.07469E-10 2.57174E-11-7.86798E-12
 -1      3112 3.08031E-08-7.33666E-09-1.00962E-08-1.13201E-10-1.02013E-11 3.93359E-10
 -1      3113-9.10370E-09 3.63951E-09 2.77732E-09-6.73342E-09 6.22901E-10-1.47811E-09
 -1      3114-6.48428E-09 4.82255E-09 1.31170E-09-3.28969E-09-1.04542E-09-1.90233E-10
 -1      3115-4.74361E-13 1.06185E-12-2.21856E-13-1.18014E-13-1.59356E-14-9.90911E-15
 -1      3116 7.89779E-10-3.02236E-10-1.51401E-10 2.24789E-10-3.50865E-11 1.81416E-11
 -1      3117 1.16148E-09-4.17475E-10-2.61860E-10 6.18328E-10-1.44121E-11 4.96083E-12
 -1      3118 3.09388E-08-7.15419E-09-1.02577E-08-8.38622E-10-3.37589E-11 5.16218E-10
 -1      3119 2.17292E-08 7.08843E-10-7.95333E-09 1.45080E-08-8.39229E-10-9.34618E-10
 -1      3120 2.22490E-08-3.38209E-10-7.75566E-09 1.35363E-08-5.69920E-10-4.57315E-10
 -1      3121 2.59057E-10-9.21440E-11-5.22463E-11 6.89588E-12-2.24222E-12-7.15818E-13
 -1      3122 2.10503E-10-9.09862E-11-4.51389E-11-3.48469E-11 3.21625E-13-2.85603E-12
 -1      3123 3.34967E-08-1.00567E-08-1.00439E-08 9.20432E-10 3.21651E-12 9.65943E-12
 -1      3124 3.35344E-08-1.01111E-08-1.00357E-08 4.00173E-10 8.47348E-12-4.22368E-12
 -1      3125 3.31972E-08-9.94869E-09-9.97041E-09 9.09243E-10-1.42620E-12 7.92704E-12
 -1      3126 2.93880E-08-6.34293E-09-9.87264E-09 1.05843E-09 4.38402E-11 3.91328E-10
 -1      3127 2.88924E-08-6.08546E-09-9.77532E-09 3.13870E-10-4.47849E-11 3.65785E-10
 -1      3128 1.01986E-08 4.63165E-09-6.74062E-09 1.08365E-08-3.93681E-10-2.17644E-11
 -1      3129 1.40175E-08 7.89259E-11-5.89493E-09 9.65744E-09-1.35565E-10 5.29981E-11
 -1      3130 5.17590E-09 6.11832E-09-5.44999E-09 8.57903E-09-2.36223E-10-4.71965E-10
 -1      3131 3.10018E-09 2.72196E-09-2.67010E-09-4.88238E-09-3.48637E-10 2.42398E-10
 -1      3132-1.06198E-12 2.00955E-12-2.70092E-13-6.82811E-13 1.53157E-14-1.17703E-14
 -1      3133-8.29608E-13 1.80728E-12-3.04696E-13-5.46805E-13 6.75311E-14 9.98803E-14
 -1      3134 1.54340E-08-3.60938E-09-3.05819E-09-5.78859E-09 5.77403E-10 1.61895E-09
 -1      3135 1.02158E-08-3.14087E-09-2.60875E-09-5.55577E-09 3.70904E-10 7.29787E-10
 -1      3136 2.77851E-08-4.32785E-09-9.09321E-09 7.91971E-10 1.26638E-11-3.28715E-11
 -1      3137 2.67179E-08-3.36590E-09-9.13414E-09 3.52056E-09-2.97866E-10-4.87036E-10
 -1      3138 2.69542E-08-3.29835E-09-9.49276E-09 3.71446E-09-3.20249E-10-5.02354E-10
 -1      3139 2.45603E-08-3.78470E-09-8.25439E-09 3.73203E-09-4.55304E-10-8.25756E-10
 -1      3140 1.52590E-08-3.16589E-10-6.03058E-09 1.76084E-09 7.32609E-10-1.65594E-10
 -1      3141 3.64097E-08-9.63918E-09-1.02720E-08 6.23580E-09-9.76947E-12 8.07886E-11
 -1      3142 3.68373E-08-9.84340E-09-1.02752E-08 6.13730E-09 1.33073E-10-2.25698E-10
 -1      3143 3.09734E-08-4.22743E-09-9.95195E-09 6.62570E-09 1.49504E-10-7.57631E-11
 -1      3144 3.46761E-08-9.51721E-09-1.03827E-08 3.66390E-09 7.51352E-11-1.16987E-10
 -1      3145 3.42196E-08-9.55733E-09-1.04066E-08 3.47888E-09 1.14480E-11-2.33722E-10
 -1      3146 2.13205E-08-3.86180E-09-6.11718E-09 4.06199E-09-2.89034E-10-7.61228E-10
 -1      3147 2.44418E-08-3.70405E-09-7.72733E-09 3.74182E-09-2.44516E-10-4.91259E-10
 -1      3148 2.29104E-08-4.29573E-09-6.44726E-09 3.36316E-09 7.45442E-12-2.40569E-10
 -1      3149 1.83282E-08-2.87056E-09-5.66653E-09 6.83411E-09-3.03776E-10-5.27247E-10
 -1      3150 1.68255E-08-3.01586E-09-4.35323E-09 5.77477E-09-7.35398E-11-2.95183E-10
 -1      3151 2.03430E-08-3.47350E-09-6.05280E-09 6.27738E-09-4.07522E-11-2.54874E-10
 -1      3152 3.29137E-08-9.84297E-09-9.91038E-09 9.78009E-10-3.84992E-12 9.38269E-12
 -1      3153 3.32960E-08-9.98634E-09-9.99235E-09 5.71514E-10-1.00920E-11 1.25927E-11
 -1      3154 3.31866E-08-9.90763E-09-1.00015E-08 5.99183E-10 5.74959E-12-2.17352E-11
 -1      3155 2.78412E-08-5.26794E-09-9.72109E-09 3.10200E-12 3.24044E-11-1.80595E-10
 -1      3156 2.70115E-08-5.84976E-09-8.27243E-09 7.30453E-11-2.64103E-10 2.68025E-10
 -1      3157 2.66708E-08-3.73267E-09-9.63365E-09-1.97258E-09-1.48820E-10 1.49932E-10
 -1      3158 1.42482E-09 3.41789E-09-3.04883E-09-3.48587E-09-5.06038E-10 3.90408E-10
 -1      3159 1.74909E-08-4.60322E-09-4.11145E-09-4.79826E-09 2.83133E-11-1.33061E-09
 -1      3160 2.02980E-08-5.55521E-09-5.31377E-09-4.56990E-09-1.90668E-11-2.61737E-09
 -1      3161 2.24603E-09 4.30433E-09-4.21679E-09-4.23123E-09-6.29079E-10 2.57433E-10
 -1      3162 1.00115E-12 4.14601E-12-1.95410E-12 6.42287E-12-5.90544E-14-9.18782E-14
 -1      3163 3.76214E-09 2.65667E-09-2.88677E-09-5.37339E-09-6.50569E-10 2.28929E-10
 -1      3164 1.89865E-09 3.87961E-09-3.93041E-09-3.74335E-09-3.67839E-10 3.47874E-10
 -1      3165 3.25045E-08-9.36849E-09-9.94683E-09 9.17359E-10 2.05834E-11-1.24408E-10
 -1      3166 2.66394E-08-2.69620E-09-1.01784E-08-4.11151E-09-4.52059E-10-1.24675E-10
 -1      3167 2.64038E-08-3.65624E-09-9.55291E-09-2.85386E-09 1.51491E-10-3.00562E-10
 -1      3168 3.24935E-08-9.25041E-09-1.00371E-08-9.82591E-10-2.24224E-11-1.69890E-10
 -1      3169 3.36128E-08-7.83921E-09-1.08268E-08-6.06353E-09-2.00717E-10 6.78215E-10
 -1      3170 3.38476E-08-6.41547E-09-1.11021E-08-7.10249E-09-3.75776E-10 3.23509E-10
 -1      3171 3.50947E-08-1.05651E-08-1.05254E-08-7.81196E-10-1.76034E-11-2.23487E-11
 -1      3172 3.49347E-08-1.05293E-08-1.04638E-08 6.40471E-11-5.81411E-12-1.65999E-11
 -1      3173 3.50348E-08-1.05407E-08-1.04900E-08-7.13563E-10-1.20255E-11-2.27422E-11
 -1      3174 3.42914E-08-1.03110E-08-1.02702E-08-6.46622E-10 3.11676E-12 1.92698E-12
 -1      3175 3.23693E-08-9.24014E-09-1.01141E-08-1.97180E-09 4.26994E-12-5.06967E-10
 -1      3176 3.27655E-08-8.89627E-09-1.03825E-08-2.49302E-09 6.82947E-12-3.42818E-10
 -1      3177 3.22254E-08-8.83165E-09-1.00840E-08-2.23223E-09-6.65762E-11-3.65032E-10
 -1      3178 2.88398E-08-4.53333E-09-1.03207E-08-3.06958E-09 8.62012E-11-3.56255E-10
 -1      3179 2.52212E-08-3.72401E-09-9.04140E-09-2.07494E-09-1.81987E-10 1.88965E-10
 -1      3180 2.73324E-08-4.59715E-09-9.71281E-09-7.47349E-10-6.52582E-12-2.53557E-10
 -1      3181-8.79562E-13 4.03040E-12-1.18025E-12 4.27633E-12 3.27984E-14 4.48189E-14
 -1      3182 2.69035E-08-3.99106E-09-9.75010E-09 1.58531E-09 8.76621E-11 1.59298E-10
 -1      3183 2.81253E-08-3.63931E-09-1.03120E-08 4.07605E-09 2.25946E-10 2.59286E-10
 -1      3184 2.68101E-08-3.06486E-09-9.87638E-09 3.75029E-09-1.27781E-10-1.78771E-10
 -1      3185 1.08595E-09-1.49144E-10-2.38951E-10 8.90611E-10 1.55936E-11 1.55712E-12
 -1      3186 3.42507E-08-1.03208E-08-1.02527E-08 5.24436E-11 5.31792E-12 3.04914E-12
 -1      3187 3.39404E-08-1.01887E-08-1.01804E-08-9.42740E-10-7.56671E-12 1.35871E-12
 -1      3188 3.43385E-08-1.03204E-08-1.02983E-08-6.65087E-10-8.91385E-12 2.53989E-12
 -1      3189 3.64281E-10-1.55978E-10-6.68545E-11-1.43799E-11 1.70508E-11-7.40546E-12
 -1      3190 2.42795E-08-4.18676E-09-7.03656E-09-2.41237E-09 1.46987E-11 6.28277E-11
 -1      3191 2.42253E-08-4.96638E-09-5.90466E-09-1.64874E-09 9.53877E-11-5.70009E-10
 -1      3192 2.57292E-08-4.06226E-09-8.15797E-09-1.56121E-09 2.03071E-10-3.48390E-10
 -1      3193 2.53583E-08-3.63209E-09-8.12926E-09-4.64922E-09 3.71340E-10-2.93611E-10
 -1      3194 2.39441E-08-4.46678E-09-7.28972E-09-2.66385E-09 4.45079E-10-9.53003E-10
 -1      3195 1.61408E-08-2.09702E-09-5.87693E-09 8.68450E-09-9.12205E-10-8.01510E-10
 -1      3196 1.11877E-08 3.09702E-10-4.79803E-09 8.41640E-09-7.80568E-10-2.51665E-10
 -1      3197 2.44653E-08-3.75734E-09-7.92357E-09 3.94968E-09-4.01489E-10-6.56399E-10
 -1      3198 2.73387E-08-4.05649E-09-9.75742E-09 1.57402E-09-7.41864E-11-4.96412E-11
 -1      3199 9.84652E-09-2.10396E-09-2.30775E-09-6.26741E-09-1.29291E-10-9.01382E-10
 -1      3200 1.80432E-09 3.75219E-09-2.70329E-09-4.76306E-09 3.90041E-10-1.54583E-10
 -1      3201 4.97940E-09-1.46560E-09-1.38453E-09-4.35539E-09 2.13394E-11-3.35765E-10
 -1      3202 5.72253E-09 5.52558E-10-2.07286E-09-5.01623E-09-3.98801E-11-7.62734E-10
 -1      3203 3.28085E-08-9.59038E-09-9.98068E-09 4.97970E-10 1.05753E-11-7.55949E-11
 -1      3204 3.30917E-08-9.77169E-09-1.00227E-08 3.28897E-10 1.05014E-11-4.03864E-11
 -1      3205 3.29422E-08-9.49333E-09-1.01187E-08 2.52678E-10 4.66953E-12-9.47664E-11
 -1      3206 3.30256E-08-9.70329E-09-1.00069E-08 3.45337E-11 8.81239E-12-5.56005E-11
 -1      3207-4.50974E-13 8.48934E-13-1.05723E-13 3.26395E-14-2.72229E-15-5.68379E-15
 -1      3208-3.90888E-13 1.15681E-12-2.35280E-13-3.64257E-13 8.25741E-15 5.09935E-16
 -1      3209-4.59151E-13 1.06192E-12-2.17141E-13-1.66560E-13 1.11547E-14-3.35354E-15
 -1      3210 3.38964E-08-9.20410E-09-1.05187E-08 3.03791E-09 2.59056E-11-4.24587E-10
 -1      3211 4.21408E-09-5.26543E-09 8.49352E-10 3.91265E-09-2.66352E-09-2.40719E-09
 -1      3212 4.64372E-09-7.44378E-09 2.31742E-10-2.08933E-09 1.16310E-09-3.26520E-09
 -1      3213 3.89347E-12 3.35183E-12-2.25119E-12 7.44445E-12-1.96664E-13 1.58087E-13
 -1      3214 2.18340E-08-3.11454E-09-6.81382E-09-7.16888E-09 2.12391E-11-1.02073E-10
 -1      3215 2.51456E-08-2.97053E-09-7.85826E-09-4.67437E-09-4.42921E-10 4.73914E-10
 -1      3216 5.47719E-10 3.06150E-09-1.85253E-09 3.22347E-09-2.73425E-10 7.47911E-11
 -1      3217 8.78088E-10 2.12032E-09-1.40458E-09 2.79638E-09-9.64919E-11 1.95618E-11
 -1      3218 6.03478E-09 4.21586E-09-5.37890E-09-7.53421E-09 1.92120E-09-7.21009E-10
 -1      3219 3.32961E-08-1.00050E-08-9.97902E-09-8.28393E-10 2.91254E-12 1.72857E-12
 -1      3220 5.32714E-10-2.34691E-10-1.11716E-10 7.36480E-11-4.29087E-12 9.48229E-12
 -1      3221 4.31933E-10-2.37892E-10-5.10296E-11-1.16080E-11-2.37819E-12 2.93304E-12
 -1      3222 1.96722E-08-5.31677E-09-3.44992E-09-4.07712E-09-1.61727E-10-1.64623E-09
 -1      3223-1.00676E-12 4.12536E-12-1.19088E-12-4.43621E-12-6.92991E-14 4.67365E-14
 -1      3224 2.77296E-08-2.30414E-09-9.18055E-09 5.84608E-09-1.71891E-10-2.24175E-10
 -1      3225 3.05931E-08-3.92453E-09-9.70111E-09 7.33818E-09 6.08080E-11 8.48966E-11
 -1      3226 2.83397E-08-3.41374E-09-9.65984E-09 4.37915E-09-3.71955E-11-1.43162E-10
 -1      3227 2.96031E-09 2.28839E-09-2.23066E-09-4.93348E-09-2.56001E-10-3.89213E-11
 -1      3228 2.63093E-08-2.10600E-08-3.78143E-09 9.82387E-10-1.34276E-10 2.70968E-12
 -1      3229 3.94469E-08-2.22929E-08-9.88281E-09-1.12670E-08-2.90258E-10 6.62564E-11
 -1      3230 4.17124E-11-9.96188E-12-1.15167E-11-3.54648E-11 2.89209E-13-4.91944E-13
 -1      3231 8.20096E-11-3.07371E-11-1.62840E-11-5.13138E-11 6.44165E-12 5.42099E-13
 -1      3232 3.29009E-08-9.84733E-09-9.89658E-09 7.32102E-10-2.91313E-11 2.25899E-11
 -1      3233 3.32220E-08-9.97440E-09-9.97431E-09 5.61196E-10-6.77360E-12 1.42739E-11
 -1      3234 2.99887E-08 2.89709E-09-1.64314E-08 6.28596E-09-5.00395E-12 1.10466E-09
 -1      3235 2.55118E-08 1.83536E-08-1.63624E-08 2.33067E-08-9.43468E-10-1.48223E-09
 -1      3236 3.72593E-08-1.14844E-08-1.10298E-08-1.43175E-09 2.56179E-11 1.40398E-10
 -1      3237 1.51857E-08-5.51305E-10-5.80682E-09-1.65556E-09-7.00712E-10-1.56322E-10
 -1      3238 8.68135E-09 3.47627E-09-5.47495E-09 7.51242E-09 3.96746E-11-8.72074E-11
 -1      3239 2.41835E-08-2.63504E-09-8.42414E-09 7.43067E-09-6.41795E-10-9.65393E-10
 -1      3240 1.68684E-08-8.50552E-09-3.43000E-09 1.63799E-09-1.22945E-09 1.07052E-09
 -1      3241 1.92716E-08-1.15359E-08-3.41068E-09-3.30808E-09 8.83227E-10 1.84713E-09
 -1      3242 3.34820E-08-1.00466E-08-1.00437E-08 9.22663E-10-3.62159E-13-1.42426E-11
 -1      3243 3.35054E-08-1.00952E-08-1.00340E-08 4.87403E-10-7.08132E-12 4.40848E-12
 -1      3244 3.32500E-08-9.97106E-09-9.98664E-09 9.15795E-10 1.55184E-12-1.01717E-11
 -1      3245 3.31822E-08-9.95329E-09-9.96425E-09 8.82981E-10-5.49540E-12-1.26636E-11
 -1      3246 1.78341E-08-2.18377E-09-6.23072E-09 5.49281E-09 6.46212E-10 9.21935E-10
 -1      3247 2.82909E-08-3.98007E-09-1.01082E-08 2.43116E-09 5.16761E-11-2.06699E-10
 -1      3248 1.46466E-09 3.11031E-09-2.74592E-09 2.96276E-09 1.72033E-10 1.09214E-10
 -1      3249 2.85223E-08-3.89643E-09-9.94504E-09-2.83869E-09-8.88349E-11-4.95355E-11
 -1      3250 3.07836E-08-5.05771E-09-1.01100E-08-5.08323E-09 5.06705E-12-4.63610E-11
 -1      3251 3.18102E-08-7.01946E-09-1.04664E-08-3.46379E-09 4.26890E-11 9.10886E-12
 -1      3252 3.31241E-08-9.37387E-09-1.03679E-08-2.33495E-09 4.23509E-11 4.75625E-10
 -1      3253 2.14433E-08-5.75402E-10-7.61331E-09-1.35012E-08-6.45526E-10 3.09327E-10
 -1      3254 2.57036E-08-1.68440E-09-8.71850E-09-1.09944E-08-1.48353E-10 1.57904E-10
 -1      3255 3.32330E-08-6.25316E-09-9.89845E-09-6.94917E-09 9.74944E-11-1.76048E-10
 -1      3256 2.71552E-08-2.90386E-09-9.38426E-09-3.41176E-09-1.83452E-10 2.71279E-10
 -1      3257 2.29531E-08-5.67605E-10-8.01740E-09-1.32001E-08 8.30497E-10-8.83327E-10
 -1      3258 2.26700E-08-8.67583E-10-8.08605E-09-1.20120E-08 9.45006E-10-6.74897E-10
 -1      3259 2.71532E-08-3.81137E-09-8.64229E-09-4.27143E-09 4.24592E-10-3.68134E-10
 -1      3260 5.77132E-09 3.15175E-10-3.37673E-09-1.35036E-09-5.45808E-10 3.85599E-09
 -1      3261 2.89138E-08-5.09033E-09-9.57478E-09-3.64002E-10 8.66336E-12-1.84761E-10
 -1      3262 2.78681E-08-4.50976E-09-8.95568E-09-8.91287E-10-9.62114E-11-1.00481E-10
 -1      3263 2.79990E-08-4.88456E-09-9.03538E-09-4.42102E-10-1.06003E-10 3.58040E-10
 -1      3264 2.66287E-08-4.35547E-09-8.37914E-09-1.21682E-09-2.80870E-10 4.06502E-10
 -1      3265 2.13763E-09 3.39940E-09-3.16996E-09 3.69841E-09-5.96114E-10-3.23100E-10
 -1      3266 3.23401E-09 6.79662E-09-5.33907E-09 7.84519E-09 2.15078E-10 2.59332E-10
 -1      3267 2.63256E-08-3.65864E-09-9.26578E-09 3.63205E-09-4.43610E-10-6.66989E-10
 -1      3268 2.16785E-08-2.59340E-09-7.12199E-09 8.51379E-09 6.35695E-13-1.62142E-10
 -1      3269 2.49162E-08-3.61222E-09-7.92819E-09 3.39747E-09-1.45298E-10-2.21836E-10
 -1      3270 2.40510E-08-3.19089E-09-7.79646E-09 4.64766E-09 1.22632E-10 8.63029E-11
 -1      3271 1.94499E-08-2.97502E-09-5.95321E-09 7.63579E-09 1.15997E-10 1.17190E-10
 -1      3272 2.36261E-08-4.21535E-09-6.69649E-09 2.91980E-09 1.02296E-10 1.24081E-10
 -1      3273 3.27236E-08-9.38797E-09-1.01140E-08 7.94155E-10 4.51436E-13 5.77568E-11
 -1      3274 3.29284E-08-9.47820E-09-1.01282E-08 2.86013E-10-7.94547E-12 1.00683E-10
 -1      3275 3.37903E-09 4.62348E-09-4.30781E-09 6.45977E-09-9.04087E-10-3.42195E-10
 -1      3276 3.26735E-08-8.61628E-09-1.04140E-08 2.81321E-09 4.46388E-12 1.16278E-10
 -1      3277 3.18257E-08-7.97010E-09-1.03960E-08 1.93295E-09-1.67528E-11 2.50991E-10
 -1      3278 3.25843E-08-8.06042E-09-1.04869E-08 3.78498E-09 4.10473E-11 2.05509E-10
 -1      3279 3.33370E-08-9.15768E-09-1.04861E-08 2.72274E-09 4.15581E-11 1.53553E-11
 -1      3280 2.01066E-08 9.84835E-10-7.57399E-09 1.47153E-08 4.69616E-10 4.45599E-10
 -1      3281 2.02111E-08-1.86875E-09-7.03215E-09 9.62639E-09 3.32768E-10 2.91052E-10
 -1      3282 2.56912E-08-2.55167E-09-8.19480E-09 7.56374E-09 2.69730E-10 2.72326E-10
 -1      3283 3.13596E-08-7.30539E-09-1.04025E-08 1.71493E-09 2.90144E-12 3.73705E-10
 -1      3284 2.77287E-08-4.91096E-09-9.69558E-09 9.89803E-10-1.01543E-11 2.64087E-10
 -1      3285 3.25340E-08-8.94949E-09-1.02744E-08 1.45574E-09-1.76956E-11 2.84310E-10
 -1      3286 1.33344E-10-5.92569E-11-2.48875E-11-5.54551E-11 1.36909E-12 5.00116E-14
 -1      3287 3.44918E-08-9.29079E-09-1.05355E-08 3.94139E-09-1.87006E-11-3.54873E-10
 -1      3288 2.53759E-08-3.65122E-09-9.30961E-09-3.25163E-09 5.50666E-12 5.04843E-10
 -1      3289 2.75078E-08-1.95321E-09-8.96975E-09-1.13214E-08-4.60647E-11 1.10798E-10
 -1      3290 2.61120E-08-1.36985E-09-8.69749E-09-9.89053E-09 1.53540E-10-1.69743E-10
 -1      3291 3.55734E-08-9.83906E-09-1.02786E-08-5.71783E-09 5.22839E-11 2.53804E-11
 -1      3292 3.31276E-08-9.20787E-09-1.05056E-08-2.45872E-09 5.51180E-11-4.76225E-10
 -1      3293 3.18938E-08-9.34146E-09-9.70132E-09 1.62957E-09-4.63398E-11 3.15969E-10
 -1      3294 1.44156E-08 1.39979E-09-8.89752E-09 2.16834E-09 1.54412E-09 5.98462E-10
 -1      3295 1.07931E-09 2.28709E-09-1.50609E-09-3.38580E-09 5.39932E-11 1.24990E-10
 -1      3296 3.83432E-09 3.80254E-09-4.22123E-09 5.56371E-09 6.86080E-10 4.76483E-10
 -1      3297 3.27755E-08-9.48024E-09-1.00623E-08 7.42929E-10-1.59108E-11 1.19839E-10
 -1      3298 3.31775E-08-9.87307E-09-1.00116E-08 2.84878E-10-9.28356E-12 1.73028E-11
 -1      3299 3.37076E-08-9.26439E-09-1.04885E-08-3.03475E-09-1.57420E-11 1.34797E-11
 -1      3300 3.35958E-08-9.24855E-09-1.04905E-08-2.79669E-09-3.63802E-11-2.31046E-10
 -1      3301 3.02640E-08-7.12085E-09-9.90742E-09 2.35013E-09-7.46569E-11-4.27851E-10
 -1      3302 3.06369E-08-7.46802E-09-9.95698E-09 3.26349E-09-6.13505E-11-4.30523E-10
 -1      3303-5.68928E-13 1.49239E-12-2.97222E-13-3.62644E-13-3.68791E-14-7.69630E-14
 -1      3304 3.39304E-08-9.63917E-09-1.04226E-08-2.90356E-09-7.35472E-11 2.95761E-10
 -1      3305 3.34095E-08-9.09096E-09-1.04147E-08 3.25091E-09-2.29299E-11 8.38522E-10
 -1      3306 3.39325E-08-9.17976E-09-1.07466E-08 3.75701E-09 1.31779E-11 8.51208E-10
 -1      3307 3.37420E-08-9.42644E-09-1.03117E-08-3.32922E-09 8.64171E-11 1.28789E-10
 -1      3308 6.83385E-09 1.78555E-09-3.58110E-09 6.98160E-09 6.53474E-10 3.29719E-10
 -1      3309 2.51956E-08-4.45413E-09-8.94771E-09 1.66347E-09 1.94912E-10 1.43120E-10
 -1      3310 2.10987E-08-4.41437E-09-6.93763E-09 5.34069E-09 4.29309E-10 4.52117E-10
 -1      3311 1.65743E-08-3.01331E-09-5.59516E-09 7.37457E-09 6.30194E-10 3.36487E-10
 -1      3312 3.24826E-08-9.25298E-09-1.00832E-08 9.74854E-10-3.03073E-11 2.23460E-10
 -1      3313 3.25507E-08-9.28104E-09-1.02373E-08-1.83422E-09-2.59068E-12 6.36797E-10
 -1      3314 2.93303E-09 3.10292E-09-2.54989E-09 5.35700E-09-3.71113E-10 7.23842E-11
 -1      3315 2.58411E-09 2.09359E-09-1.89132E-09 4.71413E-09-4.01553E-11-1.12165E-10
 -1      3316 6.24926E-09-2.17038E-09-9.26530E-10 4.68484E-09 3.31068E-10-8.19116E-10
 -1      3317 3.56868E-09 3.67830E-09-3.76093E-09 5.57989E-09 1.11987E-09 2.59781E-10
 -1      3318 3.17472E-08-8.53439E-09-1.00702E-08 1.62238E-09 3.60871E-11-4.51927E-10
 -1      3319-1.69595E-12 3.85138E-12-6.48888E-13-3.24860E-12-8.56988E-15-4.85447E-15
 -1      3320 1.50626E-08-3.88788E-10-5.90826E-09-1.70471E-09 6.80920E-10 4.06975E-11
 -1      3321 2.42931E-08-4.78881E-09-6.28134E-09 1.57328E-09-7.97206E-11 7.68514E-10
 -1      3322 2.10617E-08-5.24896E-09-2.48991E-09 3.90843E-09-2.48996E-10 1.21977E-09
 -1      3323 2.97227E-08-5.91846E-09-1.01361E-08-6.07580E-10 1.70808E-11 2.08564E-10
 -1      3324 3.34570E-08-1.00444E-08-1.00436E-08 2.16727E-10-4.16509E-12-1.14493E-12
 -1      3325-2.29467E-13 6.02135E-13-1.16117E-13 1.37580E-14-6.61121E-15-3.10909E-14
 -1      3326 2.64604E-08-2.94994E-09-1.00949E-08 3.10556E-09-4.50701E-10-4.86425E-11
 -1      3327 3.27651E-08-5.75291E-09-1.11504E-08 7.16554E-09-4.27095E-10-1.56216E-10
 -1      3328 3.36235E-08-1.01328E-08-1.00671E-08 1.92403E-11-1.39381E-12 5.52596E-12
 -1      3329 3.39585E-08-1.02309E-08-1.01683E-08 2.76017E-10 1.05455E-12-1.98914E-12
 -1      3330 3.39066E-08-1.02159E-08-1.01477E-08 3.05475E-10 8.03376E-12 3.89284E-12
 -1      3331 3.06176E-08-6.47307E-09-1.04074E-08 2.29980E-10 3.02068E-11-4.36088E-10
 -1      3332 2.91561E-08-5.80678E-09-1.00061E-08 4.16587E-11 8.24774E-12-3.43909E-10
 -1      3333 2.94961E-08-6.07577E-09-1.00693E-08 8.18460E-10 1.31174E-11-3.90992E-10
 -1      3334 2.98820E-08-6.69116E-09-1.00332E-08 3.98883E-10 1.96789E-11-4.44567E-10
 -1      3335 2.75114E-08-5.15973E-09-7.94088E-09 4.09251E-10-2.20007E-11-1.37013E-09
 -1      3336 2.79333E-08-4.93570E-09-9.38831E-09 2.07673E-10-1.87913E-10-5.07782E-10
 -1      3337 1.88971E-09-2.11881E-12-5.92952E-10-2.42917E-09-1.84101E-11-1.69056E-11
 -1      3338 3.19565E-08-7.73446E-09-1.04454E-08 2.58582E-09 1.12584E-11-4.04985E-10
 -1      3339 3.25938E-08-9.40030E-09-9.98279E-09 8.31667E-10-2.40644E-11 1.33297E-10
 -1      3340 2.56027E-08-4.50249E-09-8.81687E-09 2.69199E-09-2.97731E-10-4.72143E-10
 -1      3341 2.60798E-08-5.11885E-09-8.89779E-09 9.57873E-10-1.48411E-10-4.91863E-10
 -1      3342 2.60472E-08-4.05078E-09-9.26016E-09 1.10462E-09 1.52370E-11-1.93469E-10
 -1      3343 3.61023E-08-8.66471E-09-1.00817E-08 7.19702E-09 1.25459E-10 3.83793E-11
 -1      3344 2.94185E-08-3.18231E-09-9.74451E-09 6.52043E-09 8.21984E-11 1.67015E-10
 -1      3345 2.83172E-08-5.77822E-09-9.20230E-09-3.90852E-10 7.58133E-12-1.11573E-10
 -1      3346 3.00657E-08-6.07243E-09-9.42027E-09-1.45682E-10-2.85918E-11 4.90369E-10
 -1      3347 1.40573E-08-1.69398E-09-5.02191E-09-7.18258E-09 6.78064E-10-1.83870E-10
 -1      3348 3.09230E-08-6.40686E-09-1.04623E-08-8.05919E-10-9.33253E-13 5.95017E-12
 -1      3349 2.83868E-08-4.44276E-09-9.36681E-09-1.35663E-09-6.26502E-11-1.47713E-10
 -1      3350 2.63081E-08-3.89376E-09-8.64095E-09-1.83875E-09 1.52240E-10-4.02404E-10
 -1      3351 2.77081E-08-4.97200E-09-8.05758E-09-1.42171E-11 2.92409E-11-5.67639E-10
 -1      3352 2.40145E-09 4.26543E-09-3.34083E-09-5.79099E-09-8.55589E-10-1.47931E-11
 -1      3353 3.86020E-09 5.02362E-09-4.12961E-09-8.08460E-09-1.52259E-09 2.38852E-10
 -1      3354 2.20553E-09 3.48911E-09-2.64508E-09-5.01751E-09-6.00276E-10 1.15101E-11
 -1      3355 3.30856E-08-9.52718E-09-1.03822E-08 1.67513E-09 1.56345E-11-2.27810E-10
 -1      3356 3.26431E-08-8.66255E-09-1.04294E-08 2.67974E-09-1.70719E-12-1.13781E-10
 -1      3357 3.07198E-08-6.40551E-09-1.03954E-08 2.32573E-09-3.06126E-11-4.32058E-10
 -1      3358 3.36283E-08-1.00886E-08-1.00861E-08 9.37002E-10-7.69969E-13-1.64669E-13
 -1      3359 1.46141E-08 4.05486E-09-7.48210E-09 1.02648E-08-1.77602E-09-1.23575E-09
 -1      3360 1.50762E-08 4.22402E-09-7.88516E-09 1.03851E-08-1.69134E-09-1.03236E-09
 -1      3361 2.57954E-08 4.65081E-10-9.60681E-09 1.57920E-08-1.23113E-09-1.72484E-09
 -1      3362 2.81335E-08-5.22948E-09-9.87977E-09 5.94874E-10 9.81296E-11-2.90748E-10
 -1      3363 3.10298E-08-7.26541E-09-1.02671E-08 1.34597E-09 1.04663E-11 5.62195E-10
 -1      3364 3.18379E-08-7.91641E-09-1.03721E-08 1.19635E-09-2.33837E-11 2.77343E-10
 -1      3365 2.19607E-08-1.03138E-09-7.68738E-09-1.16217E-08 5.03720E-10-7.60570E-10
 -1      3366 3.30268E-08-5.08546E-09-1.06755E-08 9.34951E-09-1.06174E-10 2.18443E-10
 -1      3367 3.53671E-08-7.48202E-09-9.66952E-09 7.64018E-09-4.58360E-11 3.26516E-11
 -1      3368 3.54505E-08-7.11993E-09-9.64737E-09 8.46842E-09 5.77053E-11 3.87379E-11
 -1      3369 3.23684E-08-9.49402E-09-9.96874E-09 1.76845E-09-2.45028E-11 6.23574E-10
 -1      3370 3.17544E-08-8.51357E-09-9.96186E-09 3.15604E-09 5.42348E-11-4.67043E-10
 -1      3371 3.09498E-08-6.47582E-09-1.00493E-08-7.39374E-11-1.80353E-11 8.74532E-11
 -1      3372 2.98874E-08-5.78493E-09-9.89679E-09-6.68270E-10 4.47875E-11-2.44387E-11
 -1      3373 3.03717E-08-5.91969E-09-9.84289E-09-9.66133E-11-5.07505E-11-2.43288E-10
 -1      3374 2.63241E-08-4.15023E-09-8.25722E-09 1.28288E-09-8.36856E-11-1.06536E-10
 -1      3375 1.55599E-08-1.39906E-09-5.95551E-09-7.77267E-09 1.24260E-09-8.79443E-10
 -1      3376 2.25005E-08-4.09118E-09-7.16358E-09-4.69766E-09 6.62064E-10-1.00703E-09
 -1      3377 2.90453E-08-4.47550E-09-9.97528E-09 2.75619E-09 2.84719E-11-8.68501E-11
 -1      3378 2.76263E-08-3.75996E-09-9.39956E-09 1.98161E-09 5.82532E-11 1.37258E-10
 -1      3379 2.66909E-08-8.47195E-10-9.00171E-09 1.34879E-08-3.95593E-10-5.48251E-10
 -1      3380 3.50635E-08-7.12362E-09-9.73448E-09 7.54431E-09-1.03694E-10-3.90266E-10
 -1      3381 3.72026E-08-9.92095E-09-1.07748E-08 6.35362E-09 1.06364E-10 2.20982E-10
 -1      3382 2.90202E-08-2.93719E-09-1.04479E-08 7.75910E-09-1.33660E-10-1.00194E-10
 -1      3383 3.26578E-08-7.99083E-09-1.03321E-08 4.90448E-09-6.20595E-11 1.56265E-10
 -1      3384 3.25601E-08-8.05929E-09-1.04387E-08-4.03550E-09-1.29247E-10-3.18146E-10
 -1      3385 2.57629E-08-2.25873E-09-8.13630E-09 7.89809E-09 2.27845E-11 1.91304E-10
 -1      3386 2.62421E-08-2.94106E-09-8.29644E-09 6.32959E-09-6.71816E-11-3.81650E-11
 -1      3387 2.25352E-08-4.48071E-10-7.82876E-09 1.34351E-08-1.74425E-10-5.03395E-10
 -1      3388 1.83579E-09 1.70413E-09-1.60544E-09-3.67845E-09-8.33426E-11 1.43198E-10
 -1      3389 7.15581E-10 2.07993E-09-1.25452E-09-2.89287E-09-9.42475E-12-2.02856E-11
 -1      3390 2.89593E-08-5.14412E-09-8.32297E-09-3.93630E-10 3.49320E-11-7.67705E-10
 -1      3391 2.63303E-08-1.22642E-08-6.55705E-09-1.16615E-08-4.43652E-09-3.07556E-09
 -1      3392 3.24390E-08-8.22322E-09-1.04786E-08-3.89295E-09-1.61678E-10 6.70899E-10
 -1      3393 3.41095E-08-6.48361E-09-1.05123E-08-7.10605E-09 7.72123E-11 1.16304E-10
 -1      3394 2.68426E-08-2.48696E-09-1.04417E-08-3.75308E-09 2.30794E-10 1.75339E-10
 -1      3395 3.36134E-08-9.28467E-09-1.05285E-08 3.08993E-09 5.59854E-11 7.26315E-10
 -1      3396 3.15427E-08-7.47205E-09-1.03987E-08 4.25248E-09 1.22210E-10 5.95084E-10
 -1      3397 1.68920E-08-8.56350E-09-3.44446E-09-1.49938E-09 1.26334E-09 1.09120E-09
 -1      3398 2.97432E-08-6.14998E-09-9.53289E-09-8.50928E-11 1.07984E-10 5.87009E-10
 -1      3399 5.60480E-09 2.08623E-09-3.28712E-09 6.61057E-09-6.06504E-10-1.75223E-10
 -1      3400-3.30593E-13 7.61406E-13-1.38601E-13 4.02747E-14 2.44171E-14 3.60628E-14
 -1      3401 2.88164E-08-4.89754E-09-1.02026E-08 1.52563E-09-3.73038E-11-4.28744E-10
 -1      3402 3.41755E-08-9.41480E-09-1.05148E-08-3.39390E-09-9.47398E-11-2.73847E-10
 -1      3403 3.41421E-08-8.85237E-09-1.01676E-08 4.47569E-09-8.45579E-11-8.59562E-11
 -1      3404 2.84505E-08-4.60763E-09-9.65183E-09-1.36910E-09 8.38137E-11-4.14610E-11
 -1      3405 2.68317E-08-4.94054E-09-9.25904E-09 3.93431E-10-5.58071E-11-9.48149E-11
 -1      3406 3.67551E-08-9.74012E-09-1.03628E-08 6.43625E-09-3.21037E-12 7.76448E-11
 -1      3407 1.21035E-08 3.17767E-09-6.88893E-09 9.90858E-09-1.19914E-09-7.49743E-10
 -1      3408 2.81742E-08-1.00888E-09-1.07629E-08-1.18828E-08 1.10638E-10-7.67379E-10
 -1      3409 1.44697E-08-2.60689E-09-4.17221E-09-6.67747E-09 4.18189E-10-1.97061E-09
 -1      3410 1.25710E-08 3.28252E-09-6.95447E-09 1.04843E-08-1.53127E-09-7.43999E-10
 -1      3411 1.05683E-08 3.04378E-09-6.02773E-09 9.56521E-09-1.69550E-09-7.73310E-10
 -1      3412 1.87176E-08-2.93827E-09-6.70850E-09 7.57966E-09-9.34644E-10-6.24241E-10
 -1      3413 1.02293E-08 3.02639E-09-5.89531E-09 8.94769E-09-1.38396E-09-8.39223E-10
 -1      3414 3.26370E-08-9.54932E-09-1.00215E-08-8.98914E-10 9.60512E-12-6.07981E-11
 -1      3415 6.56177E-10 2.74105E-09-1.81677E-09-2.40644E-09-4.24522E-10 2.56443E-10
 -1      3416 3.06546E-08-7.39038E-09-1.00122E-08 9.27110E-10 2.82843E-11 3.19942E-10
 -1      3417 3.24982E-08-7.59495E-09-1.03835E-08 4.93774E-09 3.27338E-11 1.48334E-10
 -1      3418 3.20128E-08-9.33492E-09-9.79669E-09 2.30062E-09 3.56964E-11-4.67345E-10
 -1      3419 3.67129E-08-9.45500E-09-1.01474E-08 6.72302E-09-8.93967E-11-1.01094E-10
 -1      3420 1.70597E-09 2.89386E-09-2.06103E-09-4.10738E-09-3.74208E-10-1.11547E-10
 -1      3421-8.32768E-13 2.92833E-12-6.65967E-13 1.75221E-12 1.01627E-13-1.48432E-13
 -1      3422-8.62862E-13 2.23386E-12-5.12177E-13 9.80689E-13 3.49132E-14-1.29620E-14
 -1      3423 2.60236E-08-4.27698E-09-9.11383E-09-2.20689E-09 3.14734E-10-5.47354E-10
 -1      3424 2.63305E-08-4.48415E-09-4.97981E-09 9.71931E-10 2.69908E-10-1.90395E-09
 -1      3425 2.64659E-08-3.16488E-09-8.40115E-09 5.37170E-09-2.58685E-10-2.93270E-10
 -1      3426 2.66355E-08-3.46129E-09-8.64275E-09 3.93705E-09-4.78289E-11-2.32647E-10
 -1      3427 2.41865E-08-3.40146E-09-7.79304E-09 4.40531E-09 3.63264E-10 5.60959E-10
 -1      3428 3.26806E-08-8.13807E-09-1.03431E-08 4.38851E-09 8.07888E-11 7.83131E-10
 -1      3429 3.11810E-08-6.57006E-09-1.03891E-08 5.46980E-09 1.44131E-10 5.83498E-10
 -1      3430 2.61672E-08-5.81065E-09-7.60425E-09 9.97532E-10 1.21053E-10-1.82477E-09
 -1      3431 2.69792E-08-1.13747E-09-9.01086E-09 1.38642E-08 4.51284E-10 5.00004E-10
 -1      3432 9.82941E-09 4.50440E-09-6.65651E-09 1.08114E-08 9.10734E-10 3.22917E-10
 -1      3433 1.27938E-08-3.80654E-09-1.89878E-09 5.93097E-09-2.01986E-10-3.35014E-10
 -1      3434 1.72707E-08-4.01787E-09-2.46220E-09 5.62836E-09 1.75367E-10-1.45099E-09
 -1      3435-6.84996E-14 2.54371E-13-6.11061E-14-2.45486E-14 8.05704E-16 1.00241E-14
 -1      3436 2.68676E-08-1.03212E-09-8.96621E-09 1.28046E-08-2.55146E-10-2.33001E-10
 -1      3437 2.48460E-08-4.66022E-09-5.30835E-09 2.03261E-09 1.76429E-10-1.96786E-09
 -1      3438 3.42252E-08-9.25489E-09-1.07044E-08 3.66164E-09 6.67836E-11 5.95285E-10
 -1      3439 3.19046E-08-8.33106E-09-1.01080E-08 3.49649E-09 4.36914E-11 6.29603E-10
 -1      3440 3.21125E-08-8.73588E-09-1.01210E-08 2.65779E-09 2.01877E-11 7.33630E-10
 -1      3441 2.65833E-08-5.33011E-09-8.98586E-09 3.46697E-10 4.29707E-10-1.93638E-10
 -1      3442 2.91980E-08-2.27509E-09-1.06336E-08-1.17784E-08-3.83581E-10 5.84909E-10
 -1      3443 3.42280E-08-6.94672E-09-1.09699E-08-6.71457E-09 2.00333E-11-3.21854E-10
 -1      3444 2.67756E-09 3.74948E-09-3.39678E-09-4.98848E-09 2.79550E-10-2.64299E-10
 -1      3445 3.66981E-08-8.80583E-09-1.00524E-08 6.86857E-09-5.15595E-11-1.42374E-10
 -1      3446 3.30557E-08-9.59329E-09-1.02041E-08 2.76557E-09 5.62397E-11-6.53630E-10
 -1      3447 3.21635E-08-9.13533E-09-9.89717E-09 2.43982E-09-5.15579E-12 4.78691E-10
 -1      3448 3.13519E-08-7.31810E-09-1.03290E-08-3.12206E-10-1.83454E-11-4.42912E-10
 -1      3449 1.21741E-08-1.43406E-09-3.16777E-09-6.85324E-09 1.52268E-10-7.98097E-10
 -1      3450 2.04445E-08 1.28885E-09-7.92193E-09 1.50061E-08 9.05281E-10 8.07728E-10
 -1      3451 3.26055E-08-9.38574E-09-1.01557E-08 1.35224E-09 1.10971E-11 6.07573E-11
 -1      3452 2.00299E-08 1.65874E-09-7.81939E-09 1.54698E-08 5.99914E-10 8.18181E-10
 -1      3453-9.98669E-13 3.10066E-12-6.79175E-13-1.78678E-12-1.50605E-13-1.46836E-13
 -1      3454 3.17086E-08-7.29924E-09-1.05791E-08 7.58143E-10-3.45707E-11 1.83939E-11
 -1      3455 3.14042E-08-7.57599E-09-1.03255E-08 1.67765E-09 2.67961E-11-4.42344E-10
 -1      3456 3.02977E-08-6.51842E-09-1.02847E-08 1.22583E-09-7.16825E-11-4.87968E-10
 -1      3457 3.22663E-08-9.08310E-09-1.00042E-08 1.13807E-09-5.60777E-11 2.02531E-10
 -1      3458 3.28912E-08-9.58505E-09-1.00608E-08-5.58624E-10-1.97701E-11-7.17289E-11
 -1      3459 7.21121E-09 2.38674E-09-4.15007E-09 6.34288E-09-1.28373E-09-4.49043E-10
 -1      3460 1.04655E-08 2.54332E-09-5.55596E-09 9.26868E-09-1.79916E-09-1.05196E-09
 -1      3461 2.67232E-08-4.09727E-09-8.98258E-09-1.71055E-09 7.57012E-11-6.20974E-10
 -1      3462 1.69394E-09 3.58817E-09-2.73421E-09 3.97741E-09-8.35536E-10-2.91924E-10
 -1      3463 9.51134E-09 4.96428E-09-6.74740E-09 1.03290E-08 4.13962E-10 1.64934E-10
 -1      3464 1.23287E-08 1.16920E-09-5.79153E-09 9.53102E-09 2.45815E-10 1.60328E-10
 -1      3465 2.83493E-09 6.89603E-09-5.42704E-09 7.78553E-09 6.54144E-10 2.76026E-10
 -1      3466 3.14248E-08-7.18087E-09-1.04840E-08 1.63515E-09-1.13916E-12-1.44599E-11
 -1      3467 3.43450E-08-9.26374E-09-1.04640E-08 3.27550E-09-3.56602E-11-8.31631E-11
 -1      3468 3.43552E-08-9.34957E-09-1.04546E-08 3.34959E-09 4.28775E-11 1.04564E-10
 -1      3469 3.44623E-08-8.94187E-09-1.02538E-08 4.63400E-09-1.34424E-11-2.45005E-11
 -1      3470 3.43852E-08-6.63796E-09-1.03815E-08-7.65592E-09-3.41053E-11-2.57909E-10
 -1      3471 3.29455E-08-6.78588E-09-1.05047E-08-5.11088E-09 1.34541E-10-4.69900E-10
 -1      3472 2.02233E-08-2.94359E-09-7.46566E-09 7.51664E-09-9.69507E-10-1.07106E-09
 -1      3473 2.18718E-08-3.59817E-09-7.52975E-09 4.38235E-09-6.41935E-10-8.53314E-10
 -1      3474 2.11038E-08-1.86685E-09-7.93057E-09 9.11799E-09-8.15350E-10-6.57597E-10
 -1      3475 3.34884E-08-7.78328E-09-1.08478E-08-6.16288E-09 2.42028E-10-5.08970E-10
 -1      3476 2.37856E-08-4.26478E-09-7.00364E-09 3.71806E-09-3.23283E-10-1.15856E-09
 -1      3477 1.83218E-08-2.81386E-09-5.82211E-09 6.77286E-09-4.57764E-10-9.21249E-10
 -1      3478 2.04751E-08-4.13224E-09-4.97491E-09 3.62268E-09-1.02931E-10-1.16641E-09
 -1      3479 2.39146E-08-2.37066E-09-9.00423E-09-9.44217E-09-7.66960E-10 1.29099E-09
 -1      3480 2.22183E-08-4.22131E-09-6.22664E-09 3.60880E-09 5.66499E-11 7.42360E-10
 -1      3481 2.53398E-08-4.42174E-09-8.34274E-09 3.15547E-09 5.66042E-10 9.75407E-10
 -1      3482 1.87816E-09-7.14341E-11-5.61066E-10-2.08267E-09 9.19353E-11 3.59800E-11
 -1      3483 6.06995E-10-1.87222E-10-1.23713E-10 2.11090E-10-5.06711E-13 1.37588E-12
 -1      3484 1.56368E-09-2.96350E-10-3.81509E-10-1.34427E-09-1.05786E-10-8.53783E-11
 -1      3485 3.07903E-08-7.06471E-09-1.02045E-08 6.63999E-10 1.08852E-11-5.35834E-10
 -1      3486 2.96649E-08-4.32952E-09-1.00137E-08 4.58000E-09-8.96512E-11-3.26283E-11
 -1      3487 2.79107E-08-3.67505E-09-9.34488E-09 3.53533E-09 6.95098E-11 7.21699E-11
 -1      3488 2.91766E-08-3.09227E-09-9.65565E-09 6.93267E-09-2.07638E-11-8.65963E-11
 -1      3489 2.70487E-08-3.47799E-09-8.85350E-09 3.72163E-09 4.88026E-11-2.71033E-11
 -1      3490 2.38230E-08-4.58303E-09-3.38097E-09 2.44889E-09-2.17922E-11-1.81659E-09
 -1      3491 2.72183E-08-4.19267E-09-9.09666E-09-1.71064E-09-1.63145E-10 4.66228E-10
 -1      3492 2.84133E-08-4.13329E-09-1.00453E-08-2.69667E-09-7.97552E-11-1.05681E-10
 -1      3493 3.10166E-08-7.76542E-09-9.98476E-09 2.99698E-09-2.03605E-11 4.06538E-10
 -1      3494 3.25883E-08-9.24148E-09-1.00603E-08 5.28437E-10-5.83722E-12 1.43930E-10
 -1      3495 3.53243E-08-7.31019E-09-1.07545E-08-6.82858E-09 8.58746E-11-3.74610E-10
 -1      3496 3.16817E-08-8.71530E-09-9.87022E-09 2.38446E-09-1.46028E-11 3.32601E-10
 -1      3497 3.11279E-08-6.16657E-09-1.04719E-08-4.72001E-09 2.75413E-11-3.69132E-10
 -1      3498 3.00980E-08-6.23973E-09-1.02901E-08-2.56632E-09 7.29207E-11-4.66341E-10
 -1      3499 2.15838E-08-5.53646E-09-3.13052E-09 3.40542E-09 4.46797E-10-2.14050E-09
 -1      3500 2.12748E-08-3.88506E-09-6.22101E-09 3.83718E-09-3.70875E-10-1.34452E-09
 -1      3501 9.80699E-09-1.98056E-09-2.25928E-09 6.16398E-09-3.60847E-11 9.93812E-10
 -1      3502 7.91184E-09 6.16908E-10-3.02291E-09 6.06532E-09-7.13208E-11-2.57067E-10
 -1      3503 9.56500E-09 1.09648E-10-3.34247E-09 6.20142E-09 1.15137E-10 2.11341E-10
 -1      3504 1.41981E-08-4.13967E-09-2.39938E-09 5.65164E-09 1.76092E-12 7.74882E-11
 -1      3505 1.42463E-08-1.10529E-09-4.89108E-09 7.20637E-09-7.31105E-11-7.79387E-11
 -1      3506 3.12870E-08-7.62467E-09-1.02234E-08 2.31932E-09 4.11733E-11 5.92026E-10
 -1      3507 9.43365E-09 4.73162E-09-6.74644E-09 9.75908E-09 8.61883E-10 5.71659E-10
 -1      3508 3.30581E-08-7.47656E-09-1.06509E-08-4.61871E-09 1.12940E-10-5.06218E-10
 -1      3509 3.08124E-08-7.62374E-09-9.98644E-09 1.91128E-09-2.75724E-11 3.39295E-10
 -1      3510 1.85241E-08-4.36803E-09-2.71649E-09 5.05098E-09 2.71118E-10-8.34001E-10
 -1      3511 2.17817E-08-4.49351E-09-5.33749E-09 3.00652E-09 3.70231E-11-6.30211E-10
 -1      3512 3.23817E-08-6.26155E-09-1.01060E-08 6.64992E-09 5.09695E-11 8.01068E-11
 -1      3513 1.47219E-08-2.65430E-09-2.78107E-09 6.15079E-09 1.23578E-10 1.48839E-09
 -1      3514 2.91553E-08-3.80597E-09-6.80029E-09 2.04833E-10-4.83980E-10 5.64303E-09
 -1      3515 2.11812E-08-5.39429E-09-2.36300E-09 3.74045E-09 1.03780E-10-1.00911E-09
 -1      3516 2.43563E-08-5.33515E-09-5.26478E-09 1.50032E-09-5.76602E-11-7.73613E-10
 -1      3517 2.14834E-08-4.51830E-09-4.89738E-09 2.91019E-09-3.70497E-11 2.20549E-10
 -1      3518 3.57012E-08-7.12305E-09-1.01547E-08 8.10293E-09-1.14127E-10-2.41678E-10
 -1      3519 3.54017E-08-1.02787E-08-1.02135E-08-4.74916E-09 2.72617E-10 1.31932E-10
 -1      3520 1.49298E-09 3.67280E-09-3.06600E-09 3.52367E-09 3.53808E-10 1.65224E-11
 -1      3521 1.82969E-08-4.46367E-09-2.74385E-09 5.08512E-09-2.63167E-10 1.05208E-09
 -1      3522 1.03082E-08-2.18846E-09-2.21244E-09 6.25105E-09 4.30573E-10 4.50865E-10
 -1      3523 2.64619E-08-3.56041E-09-9.57367E-09 2.85318E-09 2.04793E-10 2.61804E-10
 -1      3524 3.09382E-08-6.48037E-09-1.02173E-08 1.50799E-10-1.37328E-11-2.88379E-10
 -1      3525 3.39591E-08-1.01971E-08-1.01821E-08 7.00496E-10 5.40791E-12-5.92913E-12
 -1      3526 2.63698E-08-5.17405E-09-6.63407E-09-8.55322E-10 5.28915E-11-5.60092E-12
 -1      3527 2.63270E-08-3.34662E-09-8.95500E-09-4.36558E-09 2.17884E-10-1.75436E-10
 -1      3528 3.65455E-08-9.67998E-09-1.06194E-08 6.41251E-09-2.49679E-11 2.07634E-10
 -1      3529 3.25945E-08-8.98043E-09-1.02791E-08 1.29031E-09 1.51769E-11 7.42248E-11
 -1      3530-5.48522E-13 1.37848E-12-2.64045E-13 3.09373E-13 3.63738E-14-5.47123E-14
 -1      3531-4.76878E-13 1.00984E-12-1.66375E-13 2.94598E-14 4.01030E-14-6.98505E-14
 -1      3532 3.22527E-08-8.41611E-09-1.04226E-08 1.92584E-09-3.39890E-11 2.50957E-11
 -1      3533 9.29594E-10 9.04719E-10-7.34990E-10 2.22275E-09-4.24005E-11 5.15134E-11
 -1      3534 1.73641E-09-6.19235E-10-2.21609E-10 1.84218E-09 2.07610E-11 5.91423E-12
 -1      3535 1.54953E-09-3.72371E-10-3.62842E-10 1.24804E-09 9.97490E-11-9.14372E-11
 -1      3536 1.35356E-09-4.54223E-10-2.91410E-10 1.00983E-09-1.14350E-10 2.50384E-11
 -1      3537 3.29232E-08-9.71118E-09-9.96844E-09 4.82311E-10-1.37091E-11 4.42104E-11
 -1      3538 6.75983E-10 2.87547E-09-1.60399E-09-2.89290E-09-1.18700E-10 7.22784E-12
 -1      3539 3.21822E-08-8.27599E-09-1.03923E-08 1.26230E-09-3.07255E-11 5.83407E-11
 -1      3540 2.48683E-08-4.79939E-09-6.55320E-09 1.49427E-09-7.07335E-11-1.58129E-10
 -1      3541-3.11750E-13 6.41298E-13-1.26228E-13-4.21129E-14 1.19461E-14 1.39806E-15
 -1      3542 3.73659E-08-9.69165E-09-1.00586E-08 6.64715E-09-5.85480E-11-2.12372E-11
 -3
 9999
