    1C
    1UUSER                                                              
    1UDATE              11.april.2018                                   
    1UTIME              16:10:22                                        
    1UHOST                                                              
    1UPGM               CalculiX                                        
    1UVERSION           Version 2.11                             
    1UCOMPILETIME       So 31. Jul 13:26:31 CEST 2016                    
    1UDIR                                                               
    1UDBN                                                               
    1UMAT    1SOLIDMATERIAL                                             
    2C                          6666                                     1
 -1         1 2.24177E+01 1.10656E+01 0.00000E+00
 -1         2 2.24177E+01-1.10656E+01 0.00000E+00
 -1         3 2.24177E+01 1.10656E+01 1.00000E+01
 -1         4 2.24177E+01-1.10656E+01 1.00000E+01
 -1         5 2.41331E+01 9.95241E+00 0.00000E+00
 -1         6 2.41331E+01-9.95241E+00 0.00000E+00
 -1         7 8.70096E+01 7.50000E+00 0.00000E+00
 -1         8 8.70096E+01-7.50000E+00 0.00000E+00
 -1         9 5.96880E+01 3.60344E-13 0.00000E+00
 -1        10 1.50000E+01 0.00000E+00 0.00000E+00
 -1        11 1.10000E+02 8.05341E-26 0.00000E+00
 -1        12 2.41331E+01 9.95241E+00 1.00000E+01
 -1        13 2.41331E+01-9.95241E+00 1.00000E+01
 -1        14 8.70096E+01 7.50000E+00 1.00000E+01
 -1        15 8.70096E+01-7.50000E+00 1.00000E+01
 -1        16 5.96880E+01 3.60344E-13 1.00000E+01
 -1        17 1.50000E+01 0.00000E+00 1.00000E+01
 -1        18 1.10000E+02 8.05341E-26 1.00000E+01
 -1        19 2.03998E+01 1.44516E+01 0.00000E+00
 -1        20 1.78749E+01 1.74782E+01 0.00000E+00
 -1        21 1.49056E+01 2.00705E+01 0.00000E+00
 -1        22 1.15658E+01 2.21638E+01 0.00000E+00
 -1        23 7.93850E+00 2.37061E+01 0.00000E+00
 -1        24 4.11387E+00 2.46592E+01 0.00000E+00
 -1        25 1.86976E-01 2.49993E+01 0.00000E+00
 -1        26-3.74457E+00 2.47180E+01 0.00000E+00
 -1        27-7.58303E+00 2.38222E+01 0.00000E+00
 -1        28-1.12330E+01 2.23343E+01 0.00000E+00
 -1        29-1.46037E+01 2.02912E+01 0.00000E+00
 -1        30-1.76114E+01 1.77437E+01 0.00000E+00
 -1        31-2.01814E+01 1.47551E+01 0.00000E+00
 -1        32-2.22496E+01 1.13997E+01 0.00000E+00
 -1        33-2.37648E+01 7.76098E+00 0.00000E+00
 -1        34-2.46893E+01 3.92933E+00 0.00000E+00
 -1        35-2.50000E+01 1.41638E-14 0.00000E+00
 -1        36-2.46893E+01-3.92933E+00 0.00000E+00
 -1        37-2.37648E+01-7.76098E+00 0.00000E+00
 -1        38-2.22496E+01-1.13997E+01 0.00000E+00
 -1        39-2.01814E+01-1.47551E+01 0.00000E+00
 -1        40-1.76114E+01-1.77437E+01 0.00000E+00
 -1        41-1.46037E+01-2.02912E+01 0.00000E+00
 -1        42-1.12330E+01-2.23343E+01 0.00000E+00
 -1        43-7.58303E+00-2.38222E+01 0.00000E+00
 -1        44-3.74457E+00-2.47180E+01 0.00000E+00
 -1        45 1.86976E-01-2.49993E+01 0.00000E+00
 -1        46 4.11387E+00-2.46592E+01 0.00000E+00
 -1        47 7.93850E+00-2.37061E+01 0.00000E+00
 -1        48 1.15658E+01-2.21638E+01 0.00000E+00
 -1        49 1.49056E+01-2.00705E+01 0.00000E+00
 -1        50 1.78749E+01-1.74782E+01 0.00000E+00
 -1        51 2.03998E+01-1.44516E+01 0.00000E+00
 -1        52 2.14756E+01 1.27984E+01 0.00000E+00
 -1        53 1.91971E+01 1.60147E+01 0.00000E+00
 -1        54 1.64414E+01 1.88330E+01 0.00000E+00
 -1        55 1.32770E+01 2.11830E+01 0.00000E+00
 -1        56 9.78260E+00 2.30065E+01 0.00000E+00
 -1        57 6.04500E+00 2.42582E+01 0.00000E+00
 -1        58 2.15714E+00 2.49068E+01 0.00000E+00
 -1        59-1.78435E+00 2.49362E+01 0.00000E+00
 -1        60-5.68148E+00 2.43459E+01 0.00000E+00
 -1        61-9.43738E+00 2.31503E+01 0.00000E+00
 -1        62-1.29587E+01 2.13793E+01 0.00000E+00
 -1        63-1.61579E+01 1.90768E+01 0.00000E+00
 -1        64-1.89554E+01 1.63001E+01 0.00000E+00
 -1        65-2.12817E+01 1.31182E+01 0.00000E+00
 -1        66-2.30791E+01 9.61026E+00 0.00000E+00
 -1        67-2.43027E+01 5.86340E+00 0.00000E+00
 -1        68-2.49222E+01 1.97080E+00 0.00000E+00
 -1        69-2.49222E+01-1.97080E+00 0.00000E+00
 -1        70-2.43027E+01-5.86340E+00 0.00000E+00
 -1        71-2.30791E+01-9.61026E+00 0.00000E+00
 -1        72-2.12817E+01-1.31182E+01 0.00000E+00
 -1        73-1.89554E+01-1.63001E+01 0.00000E+00
 -1        74-1.61579E+01-1.90768E+01 0.00000E+00
 -1        75-1.29587E+01-2.13793E+01 0.00000E+00
 -1        76-9.43738E+00-2.31503E+01 0.00000E+00
 -1        77-5.68148E+00-2.43459E+01 0.00000E+00
 -1        78-1.78435E+00-2.49362E+01 0.00000E+00
 -1        79 2.15714E+00-2.49068E+01 0.00000E+00
 -1        80 6.04500E+00-2.42582E+01 0.00000E+00
 -1        81 9.78260E+00-2.30065E+01 0.00000E+00
 -1        82 1.32770E+01-2.11830E+01 0.00000E+00
 -1        83 1.64414E+01-1.88330E+01 0.00000E+00
 -1        84 1.91971E+01-1.60147E+01 0.00000E+00
 -1        85 2.14756E+01-1.27984E+01 0.00000E+00
 -1        86 2.24177E+01 1.10656E+01 3.33333E+00
 -1        87 2.24177E+01 1.10656E+01 6.66667E+00
 -1        88 2.24177E+01 1.10656E+01 1.66667E+00
 -1        89 2.24177E+01 1.10656E+01 5.00000E+00
 -1        90 2.24177E+01 1.10656E+01 8.33333E+00
 -1        91 2.24177E+01-1.10656E+01 3.33333E+00
 -1        92 2.24177E+01-1.10656E+01 6.66667E+00
 -1        93 2.24177E+01-1.10656E+01 1.66667E+00
 -1        94 2.24177E+01-1.10656E+01 5.00000E+00
 -1        95 2.24177E+01-1.10656E+01 8.33333E+00
 -1        96 2.03998E+01 1.44516E+01 1.00000E+01
 -1        97 1.78749E+01 1.74782E+01 1.00000E+01
 -1        98 1.49056E+01 2.00705E+01 1.00000E+01
 -1        99 1.15658E+01 2.21638E+01 1.00000E+01
 -1       100 7.93850E+00 2.37061E+01 1.00000E+01
 -1       101 4.11387E+00 2.46592E+01 1.00000E+01
 -1       102 1.86976E-01 2.49993E+01 1.00000E+01
 -1       103-3.74457E+00 2.47180E+01 1.00000E+01
 -1       104-7.58303E+00 2.38222E+01 1.00000E+01
 -1       105-1.12330E+01 2.23343E+01 1.00000E+01
 -1       106-1.46037E+01 2.02912E+01 1.00000E+01
 -1       107-1.76114E+01 1.77437E+01 1.00000E+01
 -1       108-2.01814E+01 1.47551E+01 1.00000E+01
 -1       109-2.22496E+01 1.13997E+01 1.00000E+01
 -1       110-2.37648E+01 7.76098E+00 1.00000E+01
 -1       111-2.46893E+01 3.92933E+00 1.00000E+01
 -1       112-2.50000E+01 1.41638E-14 1.00000E+01
 -1       113-2.46893E+01-3.92933E+00 1.00000E+01
 -1       114-2.37648E+01-7.76098E+00 1.00000E+01
 -1       115-2.22496E+01-1.13997E+01 1.00000E+01
 -1       116-2.01814E+01-1.47551E+01 1.00000E+01
 -1       117-1.76114E+01-1.77437E+01 1.00000E+01
 -1       118-1.46037E+01-2.02912E+01 1.00000E+01
 -1       119-1.12330E+01-2.23343E+01 1.00000E+01
 -1       120-7.58303E+00-2.38222E+01 1.00000E+01
 -1       121-3.74457E+00-2.47180E+01 1.00000E+01
 -1       122 1.86976E-01-2.49993E+01 1.00000E+01
 -1       123 4.11387E+00-2.46592E+01 1.00000E+01
 -1       124 7.93850E+00-2.37061E+01 1.00000E+01
 -1       125 1.15658E+01-2.21638E+01 1.00000E+01
 -1       126 1.49056E+01-2.00705E+01 1.00000E+01
 -1       127 1.78749E+01-1.74782E+01 1.00000E+01
 -1       128 2.03998E+01-1.44516E+01 1.00000E+01
 -1       129 2.14756E+01 1.27984E+01 1.00000E+01
 -1       130 1.91971E+01 1.60147E+01 1.00000E+01
 -1       131 1.64414E+01 1.88330E+01 1.00000E+01
 -1       132 1.32770E+01 2.11830E+01 1.00000E+01
 -1       133 9.78260E+00 2.30065E+01 1.00000E+01
 -1       134 6.04500E+00 2.42582E+01 1.00000E+01
 -1       135 2.15714E+00 2.49068E+01 1.00000E+01
 -1       136-1.78435E+00 2.49362E+01 1.00000E+01
 -1       137-5.68148E+00 2.43459E+01 1.00000E+01
 -1       138-9.43738E+00 2.31503E+01 1.00000E+01
 -1       139-1.29587E+01 2.13793E+01 1.00000E+01
 -1       140-1.61579E+01 1.90768E+01 1.00000E+01
 -1       141-1.89554E+01 1.63001E+01 1.00000E+01
 -1       142-2.12817E+01 1.31182E+01 1.00000E+01
 -1       143-2.30791E+01 9.61026E+00 1.00000E+01
 -1       144-2.43027E+01 5.86340E+00 1.00000E+01
 -1       145-2.49222E+01 1.97080E+00 1.00000E+01
 -1       146-2.49222E+01-1.97080E+00 1.00000E+01
 -1       147-2.43027E+01-5.86340E+00 1.00000E+01
 -1       148-2.30791E+01-9.61026E+00 1.00000E+01
 -1       149-2.12817E+01-1.31182E+01 1.00000E+01
 -1       150-1.89554E+01-1.63001E+01 1.00000E+01
 -1       151-1.61579E+01-1.90768E+01 1.00000E+01
 -1       152-1.29587E+01-2.13793E+01 1.00000E+01
 -1       153-9.43738E+00-2.31503E+01 1.00000E+01
 -1       154-5.68148E+00-2.43459E+01 1.00000E+01
 -1       155-1.78435E+00-2.49362E+01 1.00000E+01
 -1       156 2.15714E+00-2.49068E+01 1.00000E+01
 -1       157 6.04500E+00-2.42582E+01 1.00000E+01
 -1       158 9.78260E+00-2.30065E+01 1.00000E+01
 -1       159 1.32770E+01-2.11830E+01 1.00000E+01
 -1       160 1.64414E+01-1.88330E+01 1.00000E+01
 -1       161 1.91971E+01-1.60147E+01 1.00000E+01
 -1       162 2.14756E+01-1.27984E+01 1.00000E+01
 -1       163 2.31224E+01 1.02732E+01 0.00000E+00
 -1       164 2.27165E+01 1.06219E+01 0.00000E+00
 -1       165 2.36061E+01 1.00446E+01 0.00000E+00
 -1       166 2.31224E+01-1.02732E+01 0.00000E+00
 -1       167 2.27165E+01-1.06219E+01 0.00000E+00
 -1       168 2.36061E+01-1.00446E+01 0.00000E+00
 -1       169 2.80629E+01 9.79913E+00 0.00000E+00
 -1       170 3.19927E+01 9.64585E+00 0.00000E+00
 -1       171 3.59225E+01 9.49258E+00 0.00000E+00
 -1       172 3.98523E+01 9.33930E+00 0.00000E+00
 -1       173 4.37820E+01 9.18603E+00 0.00000E+00
 -1       174 4.77118E+01 9.03275E+00 0.00000E+00
 -1       175 5.16416E+01 8.87948E+00 0.00000E+00
 -1       176 5.55714E+01 8.72620E+00 0.00000E+00
 -1       177 5.95012E+01 8.57293E+00 0.00000E+00
 -1       178 6.34309E+01 8.41965E+00 0.00000E+00
 -1       179 6.73607E+01 8.26638E+00 0.00000E+00
 -1       180 7.12905E+01 8.11310E+00 0.00000E+00
 -1       181 7.52203E+01 7.95983E+00 0.00000E+00
 -1       182 7.91501E+01 7.80655E+00 0.00000E+00
 -1       183 8.30798E+01 7.65328E+00 0.00000E+00
 -1       184 2.60980E+01 9.87577E+00 0.00000E+00
 -1       185 3.00278E+01 9.72249E+00 0.00000E+00
 -1       186 3.39576E+01 9.56922E+00 0.00000E+00
 -1       187 3.78874E+01 9.41594E+00 0.00000E+00
 -1       188 4.18171E+01 9.26267E+00 0.00000E+00
 -1       189 4.57469E+01 9.10939E+00 0.00000E+00
 -1       190 4.96767E+01 8.95612E+00 0.00000E+00
 -1       191 5.36065E+01 8.80284E+00 0.00000E+00
 -1       192 5.75363E+01 8.64957E+00 0.00000E+00
 -1       193 6.14660E+01 8.49629E+00 0.00000E+00
 -1       194 6.53958E+01 8.34301E+00 0.00000E+00
 -1       195 6.93256E+01 8.18974E+00 0.00000E+00
 -1       196 7.32554E+01 8.03646E+00 0.00000E+00
 -1       197 7.71852E+01 7.88319E+00 0.00000E+00
 -1       198 8.11149E+01 7.72991E+00 0.00000E+00
 -1       199 8.50447E+01 7.57664E+00 0.00000E+00
 -1       200 2.80629E+01-9.79913E+00 0.00000E+00
 -1       201 3.19927E+01-9.64585E+00 0.00000E+00
 -1       202 3.59225E+01-9.49258E+00 0.00000E+00
 -1       203 3.98523E+01-9.33930E+00 0.00000E+00
 -1       204 4.37820E+01-9.18603E+00 0.00000E+00
 -1       205 4.77118E+01-9.03275E+00 0.00000E+00
 -1       206 5.16416E+01-8.87948E+00 0.00000E+00
 -1       207 5.55714E+01-8.72620E+00 0.00000E+00
 -1       208 5.95012E+01-8.57293E+00 0.00000E+00
 -1       209 6.34309E+01-8.41965E+00 0.00000E+00
 -1       210 6.73607E+01-8.26638E+00 0.00000E+00
 -1       211 7.12905E+01-8.11310E+00 0.00000E+00
 -1       212 7.52203E+01-7.95983E+00 0.00000E+00
 -1       213 7.91501E+01-7.80655E+00 0.00000E+00
 -1       214 8.30798E+01-7.65328E+00 0.00000E+00
 -1       215 2.60980E+01-9.87577E+00 0.00000E+00
 -1       216 3.00278E+01-9.72249E+00 0.00000E+00
 -1       217 3.39576E+01-9.56922E+00 0.00000E+00
 -1       218 3.78874E+01-9.41594E+00 0.00000E+00
 -1       219 4.18171E+01-9.26267E+00 0.00000E+00
 -1       220 4.57469E+01-9.10939E+00 0.00000E+00
 -1       221 4.96767E+01-8.95612E+00 0.00000E+00
 -1       222 5.36065E+01-8.80284E+00 0.00000E+00
 -1       223 5.75363E+01-8.64957E+00 0.00000E+00
 -1       224 6.14660E+01-8.49629E+00 0.00000E+00
 -1       225 6.53958E+01-8.34301E+00 0.00000E+00
 -1       226 6.93256E+01-8.18974E+00 0.00000E+00
 -1       227 7.32554E+01-8.03646E+00 0.00000E+00
 -1       228 7.71852E+01-7.88319E+00 0.00000E+00
 -1       229 8.11149E+01-7.72991E+00 0.00000E+00
 -1       230 8.50447E+01-7.57664E+00 0.00000E+00
 -1       231 8.93934E+01-1.06066E+01 0.00000E+00
 -1       232 9.25000E+01-1.29904E+01 0.00000E+00
 -1       233 9.61177E+01-1.44889E+01 0.00000E+00
 -1       234 1.00000E+02-1.50000E+01 0.00000E+00
 -1       235 1.03882E+02-1.44889E+01 0.00000E+00
 -1       236 1.07500E+02-1.29904E+01 0.00000E+00
 -1       237 1.10607E+02-1.06066E+01 0.00000E+00
 -1       238 1.12990E+02-7.50000E+00 0.00000E+00
 -1       239 1.14489E+02-3.88229E+00 0.00000E+00
 -1       240 1.15000E+02-1.69966E-14 0.00000E+00
 -1       241 1.14489E+02 3.88229E+00 0.00000E+00
 -1       242 1.12990E+02 7.50000E+00 0.00000E+00
 -1       243 1.10607E+02 1.06066E+01 0.00000E+00
 -1       244 1.07500E+02 1.29904E+01 0.00000E+00
 -1       245 1.03882E+02 1.44889E+01 0.00000E+00
 -1       246 1.00000E+02 1.50000E+01 0.00000E+00
 -1       247 9.61177E+01 1.44889E+01 0.00000E+00
 -1       248 9.25000E+01 1.29904E+01 0.00000E+00
 -1       249 8.93934E+01 1.06066E+01 0.00000E+00
 -1       250 8.80997E+01-9.13142E+00 0.00000E+00
 -1       251 9.08686E+01-1.19003E+01 0.00000E+00
 -1       252 9.42598E+01-1.38582E+01 0.00000E+00
 -1       253 9.80421E+01-1.48717E+01 0.00000E+00
 -1       254 1.01958E+02-1.48717E+01 0.00000E+00
 -1       255 1.05740E+02-1.38582E+01 0.00000E+00
 -1       256 1.09131E+02-1.19003E+01 0.00000E+00
 -1       257 1.11900E+02-9.13142E+00 0.00000E+00
 -1       258 1.13858E+02-5.74025E+00 0.00000E+00
 -1       259 1.14872E+02-1.95789E+00 0.00000E+00
 -1       260 1.14872E+02 1.95789E+00 0.00000E+00
 -1       261 1.13858E+02 5.74025E+00 0.00000E+00
 -1       262 1.11900E+02 9.13142E+00 0.00000E+00
 -1       263 1.09131E+02 1.19003E+01 0.00000E+00
 -1       264 1.05740E+02 1.38582E+01 0.00000E+00
 -1       265 1.01958E+02 1.48717E+01 0.00000E+00
 -1       266 9.80421E+01 1.48717E+01 0.00000E+00
 -1       267 9.42598E+01 1.38582E+01 0.00000E+00
 -1       268 9.08686E+01 1.19003E+01 0.00000E+00
 -1       269 8.80997E+01 9.13142E+00 0.00000E+00
 -1       270 5.80099E+01 3.48462E+00 0.00000E+00
 -1       271 5.42392E+01 4.34525E+00 0.00000E+00
 -1       272 5.12154E+01 1.93382E+00 0.00000E+00
 -1       273 5.12154E+01-1.93382E+00 0.00000E+00
 -1       274 5.42392E+01-4.34525E+00 0.00000E+00
 -1       275 5.80099E+01-3.48462E+00 0.00000E+00
 -1       276 5.92466E+01 1.93382E+00 0.00000E+00
 -1       277 5.62228E+01 4.34525E+00 0.00000E+00
 -1       278 5.24521E+01 3.48462E+00 0.00000E+00
 -1       279 5.07740E+01 3.80683E-13 0.00000E+00
 -1       280 5.24521E+01-3.48462E+00 0.00000E+00
 -1       281 5.62228E+01-4.34525E+00 0.00000E+00
 -1       282 5.92466E+01-1.93382E+00 0.00000E+00
 -1       283 1.44889E+01 3.88229E+00 0.00000E+00
 -1       284 1.29904E+01 7.50000E+00 0.00000E+00
 -1       285 1.06066E+01 1.06066E+01 0.00000E+00
 -1       286 7.50000E+00 1.29904E+01 0.00000E+00
 -1       287 3.88229E+00 1.44889E+01 0.00000E+00
 -1       288 7.57982E-15 1.50000E+01 0.00000E+00
 -1       289-3.88229E+00 1.44889E+01 0.00000E+00
 -1       290-7.50000E+00 1.29904E+01 0.00000E+00
 -1       291-1.06066E+01 1.06066E+01 0.00000E+00
 -1       292-1.29904E+01 7.50000E+00 0.00000E+00
 -1       293-1.44889E+01 3.88229E+00 0.00000E+00
 -1       294-1.50000E+01 6.84504E-14 0.00000E+00
 -1       295-1.44889E+01-3.88229E+00 0.00000E+00
 -1       296-1.29904E+01-7.50000E+00 0.00000E+00
 -1       297-1.06066E+01-1.06066E+01 0.00000E+00
 -1       298-7.50000E+00-1.29904E+01 0.00000E+00
 -1       299-3.88229E+00-1.44889E+01 0.00000E+00
 -1       300-9.60142E-14-1.50000E+01 0.00000E+00
 -1       301 3.88229E+00-1.44889E+01 0.00000E+00
 -1       302 7.50000E+00-1.29904E+01 0.00000E+00
 -1       303 1.06066E+01-1.06066E+01 0.00000E+00
 -1       304 1.29904E+01-7.50000E+00 0.00000E+00
 -1       305 1.44889E+01-3.88229E+00 0.00000E+00
 -1       306 1.48717E+01 1.95789E+00 0.00000E+00
 -1       307 1.38582E+01 5.74025E+00 0.00000E+00
 -1       308 1.19003E+01 9.13142E+00 0.00000E+00
 -1       309 9.13142E+00 1.19003E+01 0.00000E+00
 -1       310 5.74025E+00 1.38582E+01 0.00000E+00
 -1       311 1.95789E+00 1.48717E+01 0.00000E+00
 -1       312-1.95789E+00 1.48717E+01 0.00000E+00
 -1       313-5.74025E+00 1.38582E+01 0.00000E+00
 -1       314-9.13142E+00 1.19003E+01 0.00000E+00
 -1       315-1.19003E+01 9.13142E+00 0.00000E+00
 -1       316-1.38582E+01 5.74025E+00 0.00000E+00
 -1       317-1.48717E+01 1.95789E+00 0.00000E+00
 -1       318-1.48717E+01-1.95789E+00 0.00000E+00
 -1       319-1.38582E+01-5.74025E+00 0.00000E+00
 -1       320-1.19003E+01-9.13142E+00 0.00000E+00
 -1       321-9.13142E+00-1.19003E+01 0.00000E+00
 -1       322-5.74025E+00-1.38582E+01 0.00000E+00
 -1       323-1.95789E+00-1.48717E+01 0.00000E+00
 -1       324 1.95789E+00-1.48717E+01 0.00000E+00
 -1       325 5.74025E+00-1.38582E+01 0.00000E+00
 -1       326 9.13142E+00-1.19003E+01 0.00000E+00
 -1       327 1.19003E+01-9.13142E+00 0.00000E+00
 -1       328 1.38582E+01-5.74025E+00 0.00000E+00
 -1       329 1.48717E+01-1.95789E+00 0.00000E+00
 -1       330 1.09239E+02 3.82683E+00 0.00000E+00
 -1       331 1.07071E+02 7.07107E+00 0.00000E+00
 -1       332 1.03827E+02 9.23880E+00 0.00000E+00
 -1       333 1.00000E+02 1.00000E+01 0.00000E+00
 -1       334 9.61732E+01 9.23880E+00 0.00000E+00
 -1       335 9.29289E+01 7.07107E+00 0.00000E+00
 -1       336 9.07612E+01 3.82683E+00 0.00000E+00
 -1       337 9.00000E+01 5.45154E-14 0.00000E+00
 -1       338 9.07612E+01-3.82683E+00 0.00000E+00
 -1       339 9.29289E+01-7.07107E+00 0.00000E+00
 -1       340 9.61732E+01-9.23880E+00 0.00000E+00
 -1       341 1.00000E+02-1.00000E+01 0.00000E+00
 -1       342 1.03827E+02-9.23880E+00 0.00000E+00
 -1       343 1.07071E+02-7.07107E+00 0.00000E+00
 -1       344 1.09239E+02-3.82683E+00 0.00000E+00
 -1       345 1.09808E+02 1.95090E+00 0.00000E+00
 -1       346 1.08315E+02 5.55570E+00 0.00000E+00
 -1       347 1.05556E+02 8.31470E+00 0.00000E+00
 -1       348 1.01951E+02 9.80785E+00 0.00000E+00
 -1       349 9.80491E+01 9.80785E+00 0.00000E+00
 -1       350 9.44443E+01 8.31470E+00 0.00000E+00
 -1       351 9.16853E+01 5.55570E+00 0.00000E+00
 -1       352 9.01921E+01 1.95090E+00 0.00000E+00
 -1       353 9.01921E+01-1.95090E+00 0.00000E+00
 -1       354 9.16853E+01-5.55570E+00 0.00000E+00
 -1       355 9.44443E+01-8.31470E+00 0.00000E+00
 -1       356 9.80491E+01-9.80785E+00 0.00000E+00
 -1       357 1.01951E+02-9.80785E+00 0.00000E+00
 -1       358 1.05556E+02-8.31470E+00 0.00000E+00
 -1       359 1.08315E+02-5.55570E+00 0.00000E+00
 -1       360 1.09808E+02-1.95090E+00 0.00000E+00
 -1       361 2.41331E+01 9.95241E+00 3.33333E+00
 -1       362 2.41331E+01 9.95241E+00 6.66667E+00
 -1       363 2.41331E+01 9.95241E+00 1.66667E+00
 -1       364 2.41331E+01 9.95241E+00 5.00000E+00
 -1       365 2.41331E+01 9.95241E+00 8.33333E+00
 -1       366 2.31224E+01 1.02732E+01 1.00000E+01
 -1       367 2.27165E+01 1.06219E+01 1.00000E+01
 -1       368 2.36061E+01 1.00446E+01 1.00000E+01
 -1       369 2.41331E+01-9.95241E+00 3.33333E+00
 -1       370 2.41331E+01-9.95241E+00 6.66667E+00
 -1       371 2.41331E+01-9.95241E+00 1.66667E+00
 -1       372 2.41331E+01-9.95241E+00 5.00000E+00
 -1       373 2.41331E+01-9.95241E+00 8.33333E+00
 -1       374 2.31224E+01-1.02732E+01 1.00000E+01
 -1       375 2.27165E+01-1.06219E+01 1.00000E+01
 -1       376 2.36061E+01-1.00446E+01 1.00000E+01
 -1       377 2.80629E+01 9.79913E+00 1.00000E+01
 -1       378 3.19927E+01 9.64585E+00 1.00000E+01
 -1       379 3.59225E+01 9.49258E+00 1.00000E+01
 -1       380 3.98523E+01 9.33930E+00 1.00000E+01
 -1       381 4.37820E+01 9.18603E+00 1.00000E+01
 -1       382 4.77118E+01 9.03275E+00 1.00000E+01
 -1       383 5.16416E+01 8.87948E+00 1.00000E+01
 -1       384 5.55714E+01 8.72620E+00 1.00000E+01
 -1       385 5.95012E+01 8.57293E+00 1.00000E+01
 -1       386 6.34309E+01 8.41965E+00 1.00000E+01
 -1       387 6.73607E+01 8.26638E+00 1.00000E+01
 -1       388 7.12905E+01 8.11310E+00 1.00000E+01
 -1       389 7.52203E+01 7.95983E+00 1.00000E+01
 -1       390 7.91501E+01 7.80655E+00 1.00000E+01
 -1       391 8.30798E+01 7.65328E+00 1.00000E+01
 -1       392 2.60980E+01 9.87577E+00 1.00000E+01
 -1       393 3.00278E+01 9.72249E+00 1.00000E+01
 -1       394 3.39576E+01 9.56922E+00 1.00000E+01
 -1       395 3.78874E+01 9.41594E+00 1.00000E+01
 -1       396 4.18171E+01 9.26267E+00 1.00000E+01
 -1       397 4.57469E+01 9.10939E+00 1.00000E+01
 -1       398 4.96767E+01 8.95612E+00 1.00000E+01
 -1       399 5.36065E+01 8.80284E+00 1.00000E+01
 -1       400 5.75363E+01 8.64957E+00 1.00000E+01
 -1       401 6.14660E+01 8.49629E+00 1.00000E+01
 -1       402 6.53958E+01 8.34301E+00 1.00000E+01
 -1       403 6.93256E+01 8.18974E+00 1.00000E+01
 -1       404 7.32554E+01 8.03646E+00 1.00000E+01
 -1       405 7.71852E+01 7.88319E+00 1.00000E+01
 -1       406 8.11149E+01 7.72991E+00 1.00000E+01
 -1       407 8.50447E+01 7.57664E+00 1.00000E+01
 -1       408 2.80629E+01-9.79913E+00 1.00000E+01
 -1       409 3.19927E+01-9.64585E+00 1.00000E+01
 -1       410 3.59225E+01-9.49258E+00 1.00000E+01
 -1       411 3.98523E+01-9.33930E+00 1.00000E+01
 -1       412 4.37820E+01-9.18603E+00 1.00000E+01
 -1       413 4.77118E+01-9.03275E+00 1.00000E+01
 -1       414 5.16416E+01-8.87948E+00 1.00000E+01
 -1       415 5.55714E+01-8.72620E+00 1.00000E+01
 -1       416 5.95012E+01-8.57293E+00 1.00000E+01
 -1       417 6.34309E+01-8.41965E+00 1.00000E+01
 -1       418 6.73607E+01-8.26638E+00 1.00000E+01
 -1       419 7.12905E+01-8.11310E+00 1.00000E+01
 -1       420 7.52203E+01-7.95983E+00 1.00000E+01
 -1       421 7.91501E+01-7.80655E+00 1.00000E+01
 -1       422 8.30798E+01-7.65328E+00 1.00000E+01
 -1       423 2.60980E+01-9.87577E+00 1.00000E+01
 -1       424 3.00278E+01-9.72249E+00 1.00000E+01
 -1       425 3.39576E+01-9.56922E+00 1.00000E+01
 -1       426 3.78874E+01-9.41594E+00 1.00000E+01
 -1       427 4.18171E+01-9.26267E+00 1.00000E+01
 -1       428 4.57469E+01-9.10939E+00 1.00000E+01
 -1       429 4.96767E+01-8.95612E+00 1.00000E+01
 -1       430 5.36065E+01-8.80284E+00 1.00000E+01
 -1       431 5.75363E+01-8.64957E+00 1.00000E+01
 -1       432 6.14660E+01-8.49629E+00 1.00000E+01
 -1       433 6.53958E+01-8.34301E+00 1.00000E+01
 -1       434 6.93256E+01-8.18974E+00 1.00000E+01
 -1       435 7.32554E+01-8.03646E+00 1.00000E+01
 -1       436 7.71852E+01-7.88319E+00 1.00000E+01
 -1       437 8.11149E+01-7.72991E+00 1.00000E+01
 -1       438 8.50447E+01-7.57664E+00 1.00000E+01
 -1       439 8.93934E+01-1.06066E+01 1.00000E+01
 -1       440 9.25000E+01-1.29904E+01 1.00000E+01
 -1       441 9.61177E+01-1.44889E+01 1.00000E+01
 -1       442 1.00000E+02-1.50000E+01 1.00000E+01
 -1       443 1.03882E+02-1.44889E+01 1.00000E+01
 -1       444 1.07500E+02-1.29904E+01 1.00000E+01
 -1       445 1.10607E+02-1.06066E+01 1.00000E+01
 -1       446 1.12990E+02-7.50000E+00 1.00000E+01
 -1       447 1.14489E+02-3.88229E+00 1.00000E+01
 -1       448 1.15000E+02-1.69966E-14 1.00000E+01
 -1       449 1.14489E+02 3.88229E+00 1.00000E+01
 -1       450 1.12990E+02 7.50000E+00 1.00000E+01
 -1       451 1.10607E+02 1.06066E+01 1.00000E+01
 -1       452 1.07500E+02 1.29904E+01 1.00000E+01
 -1       453 1.03882E+02 1.44889E+01 1.00000E+01
 -1       454 1.00000E+02 1.50000E+01 1.00000E+01
 -1       455 9.61177E+01 1.44889E+01 1.00000E+01
 -1       456 9.25000E+01 1.29904E+01 1.00000E+01
 -1       457 8.93934E+01 1.06066E+01 1.00000E+01
 -1       458 8.80997E+01-9.13142E+00 1.00000E+01
 -1       459 9.08686E+01-1.19003E+01 1.00000E+01
 -1       460 9.42598E+01-1.38582E+01 1.00000E+01
 -1       461 9.80421E+01-1.48717E+01 1.00000E+01
 -1       462 1.01958E+02-1.48717E+01 1.00000E+01
 -1       463 1.05740E+02-1.38582E+01 1.00000E+01
 -1       464 1.09131E+02-1.19003E+01 1.00000E+01
 -1       465 1.11900E+02-9.13142E+00 1.00000E+01
 -1       466 1.13858E+02-5.74025E+00 1.00000E+01
 -1       467 1.14872E+02-1.95789E+00 1.00000E+01
 -1       468 1.14872E+02 1.95789E+00 1.00000E+01
 -1       469 1.13858E+02 5.74025E+00 1.00000E+01
 -1       470 1.11900E+02 9.13142E+00 1.00000E+01
 -1       471 1.09131E+02 1.19003E+01 1.00000E+01
 -1       472 1.05740E+02 1.38582E+01 1.00000E+01
 -1       473 1.01958E+02 1.48717E+01 1.00000E+01
 -1       474 9.80421E+01 1.48717E+01 1.00000E+01
 -1       475 9.42598E+01 1.38582E+01 1.00000E+01
 -1       476 9.08686E+01 1.19003E+01 1.00000E+01
 -1       477 8.80997E+01 9.13142E+00 1.00000E+01
 -1       478 5.80099E+01 3.48462E+00 1.00000E+01
 -1       479 5.42392E+01 4.34525E+00 1.00000E+01
 -1       480 5.12154E+01 1.93382E+00 1.00000E+01
 -1       481 5.12154E+01-1.93382E+00 1.00000E+01
 -1       482 5.42392E+01-4.34525E+00 1.00000E+01
 -1       483 5.80099E+01-3.48462E+00 1.00000E+01
 -1       484 5.92466E+01 1.93382E+00 1.00000E+01
 -1       485 5.62228E+01 4.34525E+00 1.00000E+01
 -1       486 5.24521E+01 3.48462E+00 1.00000E+01
 -1       487 5.07740E+01 3.80683E-13 1.00000E+01
 -1       488 5.24521E+01-3.48462E+00 1.00000E+01
 -1       489 5.62228E+01-4.34525E+00 1.00000E+01
 -1       490 5.92466E+01-1.93382E+00 1.00000E+01
 -1       491 1.44889E+01 3.88229E+00 1.00000E+01
 -1       492 1.29904E+01 7.50000E+00 1.00000E+01
 -1       493 1.06066E+01 1.06066E+01 1.00000E+01
 -1       494 7.50000E+00 1.29904E+01 1.00000E+01
 -1       495 3.88229E+00 1.44889E+01 1.00000E+01
 -1       496 7.57982E-15 1.50000E+01 1.00000E+01
 -1       497-3.88229E+00 1.44889E+01 1.00000E+01
 -1       498-7.50000E+00 1.29904E+01 1.00000E+01
 -1       499-1.06066E+01 1.06066E+01 1.00000E+01
 -1       500-1.29904E+01 7.50000E+00 1.00000E+01
 -1       501-1.44889E+01 3.88229E+00 1.00000E+01
 -1       502-1.50000E+01 6.84504E-14 1.00000E+01
 -1       503-1.44889E+01-3.88229E+00 1.00000E+01
 -1       504-1.29904E+01-7.50000E+00 1.00000E+01
 -1       505-1.06066E+01-1.06066E+01 1.00000E+01
 -1       506-7.50000E+00-1.29904E+01 1.00000E+01
 -1       507-3.88229E+00-1.44889E+01 1.00000E+01
 -1       508-9.60142E-14-1.50000E+01 1.00000E+01
 -1       509 3.88229E+00-1.44889E+01 1.00000E+01
 -1       510 7.50000E+00-1.29904E+01 1.00000E+01
 -1       511 1.06066E+01-1.06066E+01 1.00000E+01
 -1       512 1.29904E+01-7.50000E+00 1.00000E+01
 -1       513 1.44889E+01-3.88229E+00 1.00000E+01
 -1       514 1.48717E+01 1.95789E+00 1.00000E+01
 -1       515 1.38582E+01 5.74025E+00 1.00000E+01
 -1       516 1.19003E+01 9.13142E+00 1.00000E+01
 -1       517 9.13142E+00 1.19003E+01 1.00000E+01
 -1       518 5.74025E+00 1.38582E+01 1.00000E+01
 -1       519 1.95789E+00 1.48717E+01 1.00000E+01
 -1       520-1.95789E+00 1.48717E+01 1.00000E+01
 -1       521-5.74025E+00 1.38582E+01 1.00000E+01
 -1       522-9.13142E+00 1.19003E+01 1.00000E+01
 -1       523-1.19003E+01 9.13142E+00 1.00000E+01
 -1       524-1.38582E+01 5.74025E+00 1.00000E+01
 -1       525-1.48717E+01 1.95789E+00 1.00000E+01
 -1       526-1.48717E+01-1.95789E+00 1.00000E+01
 -1       527-1.38582E+01-5.74025E+00 1.00000E+01
 -1       528-1.19003E+01-9.13142E+00 1.00000E+01
 -1       529-9.13142E+00-1.19003E+01 1.00000E+01
 -1       530-5.74025E+00-1.38582E+01 1.00000E+01
 -1       531-1.95789E+00-1.48717E+01 1.00000E+01
 -1       532 1.95789E+00-1.48717E+01 1.00000E+01
 -1       533 5.74025E+00-1.38582E+01 1.00000E+01
 -1       534 9.13142E+00-1.19003E+01 1.00000E+01
 -1       535 1.19003E+01-9.13142E+00 1.00000E+01
 -1       536 1.38582E+01-5.74025E+00 1.00000E+01
 -1       537 1.48717E+01-1.95789E+00 1.00000E+01
 -1       538 1.09239E+02 3.82683E+00 1.00000E+01
 -1       539 1.07071E+02 7.07107E+00 1.00000E+01
 -1       540 1.03827E+02 9.23880E+00 1.00000E+01
 -1       541 1.00000E+02 1.00000E+01 1.00000E+01
 -1       542 9.61732E+01 9.23880E+00 1.00000E+01
 -1       543 9.29289E+01 7.07107E+00 1.00000E+01
 -1       544 9.07612E+01 3.82683E+00 1.00000E+01
 -1       545 9.00000E+01 5.45154E-14 1.00000E+01
 -1       546 9.07612E+01-3.82683E+00 1.00000E+01
 -1       547 9.29289E+01-7.07107E+00 1.00000E+01
 -1       548 9.61732E+01-9.23880E+00 1.00000E+01
 -1       549 1.00000E+02-1.00000E+01 1.00000E+01
 -1       550 1.03827E+02-9.23880E+00 1.00000E+01
 -1       551 1.07071E+02-7.07107E+00 1.00000E+01
 -1       552 1.09239E+02-3.82683E+00 1.00000E+01
 -1       553 1.09808E+02 1.95090E+00 1.00000E+01
 -1       554 1.08315E+02 5.55570E+00 1.00000E+01
 -1       555 1.05556E+02 8.31470E+00 1.00000E+01
 -1       556 1.01951E+02 9.80785E+00 1.00000E+01
 -1       557 9.80491E+01 9.80785E+00 1.00000E+01
 -1       558 9.44443E+01 8.31470E+00 1.00000E+01
 -1       559 9.16853E+01 5.55570E+00 1.00000E+01
 -1       560 9.01921E+01 1.95090E+00 1.00000E+01
 -1       561 9.01921E+01-1.95090E+00 1.00000E+01
 -1       562 9.16853E+01-5.55570E+00 1.00000E+01
 -1       563 9.44443E+01-8.31470E+00 1.00000E+01
 -1       564 9.80491E+01-9.80785E+00 1.00000E+01
 -1       565 1.01951E+02-9.80785E+00 1.00000E+01
 -1       566 1.05556E+02-8.31470E+00 1.00000E+01
 -1       567 1.08315E+02-5.55570E+00 1.00000E+01
 -1       568 1.09808E+02-1.95090E+00 1.00000E+01
 -1       569 8.70096E+01 7.50000E+00 3.33333E+00
 -1       570 8.70096E+01 7.50000E+00 6.66667E+00
 -1       571 8.70096E+01 7.50000E+00 1.66667E+00
 -1       572 8.70096E+01 7.50000E+00 5.00000E+00
 -1       573 8.70096E+01 7.50000E+00 8.33333E+00
 -1       574 8.70096E+01-7.50000E+00 3.33333E+00
 -1       575 8.70096E+01-7.50000E+00 6.66667E+00
 -1       576 8.70096E+01-7.50000E+00 1.66667E+00
 -1       577 8.70096E+01-7.50000E+00 5.00000E+00
 -1       578 8.70096E+01-7.50000E+00 8.33333E+00
 -1       579 5.96880E+01 3.60344E-13 6.66667E+00
 -1       580 5.96880E+01 3.60344E-13 3.33333E+00
 -1       581 5.96880E+01 3.60344E-13 8.33333E+00
 -1       582 5.96880E+01 3.60344E-13 5.00000E+00
 -1       583 5.96880E+01 3.60344E-13 1.66667E+00
 -1       584 1.50000E+01 0.00000E+00 3.33333E+00
 -1       585 1.50000E+01 0.00000E+00 6.66667E+00
 -1       586 1.50000E+01 0.00000E+00 1.66667E+00
 -1       587 1.50000E+01 0.00000E+00 5.00000E+00
 -1       588 1.50000E+01 0.00000E+00 8.33333E+00
 -1       589 1.10000E+02 8.05341E-26 3.33333E+00
 -1       590 1.10000E+02 8.05341E-26 6.66667E+00
 -1       591 1.10000E+02 8.05341E-26 1.66667E+00
 -1       592 1.10000E+02 8.05341E-26 5.00000E+00
 -1       593 1.10000E+02 8.05341E-26 8.33333E+00
 -1       594-2.49875E+01 7.89007E-01 5.00000E+00
 -1       595-2.25065E+01-1.08839E+01 4.99603E+00
 -1       596-1.43356E+01-2.04815E+01 5.00000E+00
 -1       597-2.47356E+01 3.62597E+00 5.00000E+00
 -1       598-2.38638E+01 7.45124E+00 5.00000E+00
 -1       599-2.22929E+01 1.13148E+01 5.00000E+00
 -1       600-1.12576E+01 2.23219E+01 5.00000E+00
 -1       601 1.41023E+01-2.06428E+01 5.00000E+00
 -1       602 1.07595E+01-2.25662E+01 5.00000E+00
 -1       603 7.05076E+00-2.39851E+01 5.00000E+00
 -1       604-7.10107E+00-2.39703E+01 5.00000E+00
 -1       605-1.08627E+01-2.25167E+01 5.00000E+00
 -1       606-2.04514E+01 1.43785E+01 5.00000E+00
 -1       607-1.78600E+01 1.74935E+01 5.00000E+00
 -1       608-1.46774E+01 2.02379E+01 5.00000E+00
 -1       609-7.58740E+00 2.38208E+01 5.00000E+00
 -1       610-4.17819E+00 2.46484E+01 5.00000E+00
 -1       611-2.35274E+01-8.45358E+00 5.00000E+00
 -1       612-2.44636E+01-5.15099E+00 5.00000E+00
 -1       613-1.02061E+00 2.49792E+01 4.99563E+00
 -1       614 7.99664E+00 2.36866E+01 4.10921E+00
 -1       615 1.80256E+01 1.73228E+01 5.04630E+00
 -1       616 2.06297E+01 1.41214E+01 5.01042E+00
 -1       617-1.69462E+01-1.83800E+01 5.00000E+00
 -1       618 1.25049E+01 2.16478E+01 5.00000E+00
 -1       619 1.52898E+01 1.97793E+01 5.00772E+00
 -1       620 3.18123E+00-2.47968E+01 5.00000E+00
 -1       621-2.23210E+00-2.49002E+01 5.00000E+00
 -1       622 1.74155E+01-1.79360E+01 5.06944E+00
 -1       623 2.03554E+01-1.45141E+01 5.75001E+00
 -1       624 9.96968E+00 2.29261E+01 6.78571E+00
 -1       625 1.06391E+01 2.26232E+01 3.08398E+00
 -1       626-1.86232E+01-1.66786E+01 7.14569E+00
 -1       627-1.89921E+01-1.62573E+01 3.53296E+00
 -1       628-9.44234E+00 2.31483E+01 7.50000E+00
 -1       629-9.44234E+00 2.31483E+01 2.50000E+00
 -1       630-2.49245E+01 1.94166E+00 7.50000E+00
 -1       631-2.49245E+01 1.94166E+00 2.50000E+00
 -1       632-5.86095E+00 2.43033E+01 7.50000E+00
 -1       633-5.86095E+00 2.43033E+01 2.50000E+00
 -1       634-1.29881E+01 2.13614E+01 7.50000E+00
 -1       635 1.92938E+01 1.58981E+01 7.64624E+00
 -1       636-1.29881E+01 2.13614E+01 2.50000E+00
 -1       637 1.92938E+01 1.58981E+01 2.37618E+00
 -1       638-5.45348E+00-2.43979E+01 7.50000E+00
 -1       639-5.45348E+00-2.43979E+01 2.50000E+00
 -1       640-2.49075E+01-2.14873E+00 6.78571E+00
 -1       641-2.49053E+01-2.17414E+00 3.11224E+00
 -1       642-2.13948E+01 1.29330E+01 7.50000E+00
 -1       643-2.13948E+01 1.29330E+01 2.50000E+00
 -1       644-2.31612E+01 9.41064E+00 7.50000E+00
 -1       645-2.31612E+01 9.41064E+00 2.50000E+00
 -1       646-1.59245E+01-1.92720E+01 7.38095E+00
 -1       647-1.59275E+01-1.92695E+01 2.60204E+00
 -1       648-1.63023E+01 1.89535E+01 7.50000E+00
 -1       649-1.63023E+01 1.89535E+01 2.50000E+00
 -1       650 1.88692E+01-1.63998E+01 2.68081E+00
 -1       651 6.25597E+00 2.42046E+01 7.05580E+00
 -1       652 5.01698E+00 2.44914E+01 3.43989E+00
 -1       653 1.66586E+01 1.86411E+01 7.48740E+00
 -1       654 1.66586E+01 1.86411E+01 2.53369E+00
 -1       655-9.15758E+00-2.32624E+01 7.50000E+00
 -1       656-9.15758E+00-2.32624E+01 2.50000E+00
 -1       657 1.85588E+01-1.67503E+01 7.58375E+00
 -1       658 1.35649E+01 2.09999E+01 7.38014E+00
 -1       659 1.35709E+01 2.09960E+01 2.60894E+00
 -1       660-2.11298E+01-1.33616E+01 6.53670E+00
 -1       661-2.14616E+01-1.28219E+01 2.93045E+00
 -1       662-2.43366E+01 5.72120E+00 7.50000E+00
 -1       663-2.43366E+01 5.72120E+00 2.50000E+00
 -1       664-2.29859E+01-9.83097E+00 7.48016E+00
 -1       665-2.29862E+01-9.83038E+00 2.51701E+00
 -1       666 1.27903E+01-2.14804E+01 7.50000E+00
 -1       667 1.27903E+01-2.14804E+01 2.50000E+00
 -1       668-2.14900E+00 2.49075E+01 7.50000E+00
 -1       669-2.14900E+00 2.49075E+01 2.50000E+00
 -1       670-1.27661E+01-2.14948E+01 7.48016E+00
 -1       671-1.27667E+01-2.14945E+01 2.51701E+00
 -1       672-1.90877E+01 1.61450E+01 7.50000E+00
 -1       673-1.90877E+01 1.61450E+01 2.50000E+00
 -1       674 9.29152E+00-2.32092E+01 7.50000E+00
 -1       675-2.42061E+01-6.25031E+00 7.37765E+00
 -1       676 9.29152E+00-2.32092E+01 2.50000E+00
 -1       677-2.42050E+01-6.25432E+00 2.60488E+00
 -1       678 2.12760E+00 2.49093E+01 6.53685E+00
 -1       679 1.50271E+00 2.49548E+01 2.93746E+00
 -1       680 1.61165E+01-1.91117E+01 7.54138E+00
 -1       681 1.61762E+01-1.90612E+01 2.55168E+00
 -1       682 5.52726E+00-2.43813E+01 7.50000E+00
 -1       683 5.52726E+00-2.43813E+01 2.50000E+00
 -1       684 1.37811E+00-2.49620E+01 7.50000E+00
 -1       685 1.37811E+00-2.49620E+01 2.50000E+00
 -1       686-1.98305E+00-2.49212E+01 8.00000E+00
 -1       687-1.98305E+00-2.49212E+01 2.00000E+00
 -1       688 2.14789E+01-1.27928E+01 8.02351E+00
 -1       689 2.09980E+01-1.35678E+01 2.35283E+00
 -1       690 2.11204E+01 1.33764E+01 7.86467E+00
 -1       691 2.11204E+01 1.33764E+01 2.14399E+00
 -1       692 2.17997E+01 1.22382E+01 7.26567E+00
 -1       693 2.17997E+01 1.22382E+01 8.93233E+00
 -1       694 2.07671E+01 1.39186E+01 8.93233E+00
 -1       695 2.19653E+01-1.19384E+01 9.01176E+00
 -1       696 2.19653E+01-1.19384E+01 7.34509E+00
 -1       697 2.09558E+01-1.36329E+01 9.01176E+00
 -1       698 2.07671E+01 1.39186E+01 1.07199E+00
 -1       699 2.17997E+01 1.22382E+01 1.07199E+00
 -1       700 2.17997E+01 1.22382E+01 2.73866E+00
 -1       701 1.86011E+01 1.67033E+01 1.18809E+00
 -1       702 1.98600E+01 1.51849E+01 1.18809E+00
 -1       703 2.02464E+01 1.46657E+01 2.26008E+00
 -1       704 1.57983E+01 1.93756E+01 1.26685E+00
 -1       705 1.72765E+01 1.80699E+01 1.26685E+00
 -1       706 1.80284E+01 1.73198E+01 2.45494E+00
 -1       707 1.25819E+01 2.16032E+01 1.30447E+00
 -1       708 1.42457E+01 2.05441E+01 1.30447E+00
 -1       709 1.51605E+01 1.98786E+01 2.57132E+00
 -1       710 9.30457E+00 2.32040E+01 1.54199E+00
 -1       711 1.11048E+01 2.23983E+01 1.54199E+00
 -1       712 1.21323E+01 2.18588E+01 2.84646E+00
 -1       713 4.56620E+00 2.45795E+01 1.71994E+00
 -1       714 6.48963E+00 2.41430E+01 1.71994E+00
 -1       715 7.96758E+00 2.36964E+01 2.05461E+00
 -1       716 9.33303E+00 2.31926E+01 3.59660E+00
 -1       717 6.51924E+00 2.41350E+01 3.77455E+00
 -1       718 8.45136E-01 2.49857E+01 1.46873E+00
 -1       719 2.81218E+00 2.48413E+01 1.46873E+00
 -1       720 3.26807E+00 2.47855E+01 3.18868E+00
 -1       721-2.94831E+00 2.48255E+01 1.25000E+00
 -1       722-9.82086E-01 2.49807E+01 1.25000E+00
 -1       723-3.24010E-01 2.49979E+01 2.71873E+00
 -1       724-6.72629E+00 2.40781E+01 1.25000E+00
 -1       725-4.80723E+00 2.45335E+01 1.25000E+00
 -1       726-4.01635E+00 2.46753E+01 2.50000E+00
 -1       727-1.03457E+01 2.27589E+01 1.25000E+00
 -1       728-8.51935E+00 2.35036E+01 1.25000E+00
 -1       729-7.67341E+00 2.37933E+01 2.50000E+00
 -1       730-1.38063E+01 2.08419E+01 1.25000E+00
 -1       731-1.21203E+01 2.18655E+01 1.25000E+00
 -1       732-1.12507E+01 2.23253E+01 2.50000E+00
 -1       733-1.69676E+01 1.83603E+01 1.25000E+00
 -1       734-1.54675E+01 1.96407E+01 1.25000E+00
 -1       735-1.46946E+01 2.02255E+01 2.50000E+00
 -1       736-1.96468E+01 1.54597E+01 1.25000E+00
 -1       737-1.83669E+01 1.69604E+01 1.25000E+00
 -1       738-1.77506E+01 1.76044E+01 2.50000E+00
 -1       739-2.18357E+01 1.21739E+01 1.25000E+00
 -1       740-2.08080E+01 1.38573E+01 1.25000E+00
 -1       741-2.03048E+01 1.45847E+01 2.50000E+00
 -1       742-2.34775E+01 8.59111E+00 1.25000E+00
 -1       743-2.27272E+01 1.04152E+01 1.25000E+00
 -1       744-2.23475E+01 1.12067E+01 2.50000E+00
 -1       745-2.45293E+01 4.82848E+00 1.25000E+00
 -1       746-2.40723E+01 6.74715E+00 1.25000E+00
 -1       747-2.38204E+01 7.58871E+00 2.50000E+00
 -1       748-2.49811E+01 9.71564E-01 1.25000E+00
 -1       749-2.48268E+01 2.93785E+00 1.25000E+00
 -1       750-2.47029E+01 3.84269E+00 2.50000E+00
 -1       751-2.48128E+01-3.05364E+00 1.55612E+00
 -1       752-2.49763E+01-1.08810E+00 1.55612E+00
 -1       753-2.49997E+01-1.16635E-01 2.80612E+00
 -1       754-2.39968E+01-7.01111E+00 1.30244E+00
 -1       755-2.44748E+01-5.09758E+00 1.30244E+00
 -1       756-2.46398E+01-4.22875E+00 2.85856E+00
 -1       757-2.26315E+01-1.06214E+01 1.25850E+00
 -1       758-2.33984E+01-8.80429E+00 1.25850E+00
 -1       759-2.36632E+01-8.06541E+00 2.56094E+00
 -1       760-2.08439E+01-1.38033E+01 1.46522E+00
 -1       761-2.18672E+01-1.21172E+01 1.46522E+00
 -1       762-2.22741E+01-1.13518E+01 2.72373E+00
 -1       763-1.83168E+01-1.70145E+01 1.76648E+00
 -1       764-1.96011E+01-1.55176E+01 1.76648E+00
 -1       765-2.02996E+01-1.45920E+01 3.23171E+00
 -1       766-1.52742E+01-1.97914E+01 1.30102E+00
 -1       767-1.67868E+01-1.85257E+01 1.30102E+00
 -1       768-1.75246E+01-1.78294E+01 3.06750E+00
 -1       769-1.20072E+01-2.19278E+01 1.25850E+00
 -1       770-1.36984E+01-2.09130E+01 1.25850E+00
 -1       771-1.43902E+01-2.04432E+01 2.55952E+00
 -1       772-8.37498E+00-2.35555E+01 1.25000E+00
 -1       773-1.02058E+01-2.28219E+01 1.25000E+00
 -1       774-1.09977E+01-2.24511E+01 2.50850E+00
 -1       775-4.60181E+00-2.45728E+01 1.25000E+00
 -1       776-6.52461E+00-2.41336E+01 1.25000E+00
 -1       777-7.32756E+00-2.39020E+01 2.50000E+00
 -1       778-8.98887E-01-2.49838E+01 1.00000E+00
 -1       779-2.86561E+00-2.48352E+01 1.00000E+00
 -1       780-3.72746E+00-2.47206E+01 2.25000E+00
 -1       781 2.75016E+00-2.48483E+01 1.25000E+00
 -1       782 7.82766E-01-2.49877E+01 1.25000E+00
 -1       783-3.03157E-01-2.49982E+01 2.25000E+00
 -1       784 6.74134E+00-2.40739E+01 1.25000E+00
 -1       785 4.82257E+00-2.45304E+01 1.25000E+00
 -1       786 3.46487E+00-2.47587E+01 2.50000E+00
 -1       787 1.04418E+01-2.27150E+01 1.25000E+00
 -1       788 8.61859E+00-2.34674E+01 1.25000E+00
 -1       789 7.43253E+00-2.38696E+01 2.50000E+00
 -1       790 1.38659E+01-2.08023E+01 1.25000E+00
 -1       791 1.21829E+01-2.18307E+01 1.25000E+00
 -1       792 1.10747E+01-2.24132E+01 2.50000E+00
 -1       793 1.70439E+01-1.82895E+01 1.27584E+00
 -1       794 1.55491E+01-1.95761E+01 1.27584E+00
 -1       795 1.45337E+01-2.03414E+01 2.52584E+00
 -1       796 1.96586E+01-1.54447E+01 1.34040E+00
 -1       797 1.83799E+01-1.69463E+01 1.34040E+00
 -1       798 1.75731E+01-1.77816E+01 2.61624E+00
 -1       799 2.17438E+01-1.23372E+01 1.17642E+00
 -1       800 2.07036E+01-1.40129E+01 1.17642E+00
 -1       801 1.99838E+01-1.50216E+01 2.51682E+00
 -1       802 2.15779E+01 1.26252E+01 5.83854E+00
 -1       803 2.15779E+01 1.26252E+01 4.17188E+00
 -1       804 2.08784E+01 1.37511E+01 3.57720E+00
 -1       805 2.08784E+01 1.37511E+01 6.43754E+00
 -1       806 2.14559E+01-1.28314E+01 4.54167E+00
 -1       807 2.14559E+01-1.28314E+01 6.20834E+00
 -1       808 2.17438E+01-1.23372E+01 2.84308E+00
 -1       809 2.06821E+01-1.40446E+01 4.05142E+00
 -1       810 2.09349E+01-1.36650E+01 6.88676E+00
 -1       811 1.98600E+01 1.51849E+01 8.82312E+00
 -1       812 1.86011E+01 1.67033E+01 8.82312E+00
 -1       813 2.02464E+01 1.46657E+01 7.75545E+00
 -1       814 1.72765E+01 1.80699E+01 8.74370E+00
 -1       815 1.57983E+01 1.93756E+01 8.74370E+00
 -1       816 1.80284E+01 1.73198E+01 7.56682E+00
 -1       817 1.42428E+01 2.05461E+01 8.69007E+00
 -1       818 1.25788E+01 2.16049E+01 8.69007E+00
 -1       819 1.51577E+01 1.98807E+01 7.43377E+00
 -1       820 1.07745E+01 2.25590E+01 8.39286E+00
 -1       821 8.96258E+00 2.33382E+01 8.39286E+00
 -1       822 1.18066E+01 2.20364E+01 7.08293E+00
 -1       823 7.10161E+00 2.39701E+01 8.52790E+00
 -1       824 5.18990E+00 2.44554E+01 8.52790E+00
 -1       825 8.13797E+00 2.36384E+01 6.92076E+00
 -1       826 3.12324E+00 2.48041E+01 8.26842E+00
 -1       827 1.15816E+00 2.49732E+01 8.26842E+00
 -1       828 4.20657E+00 2.46436E+01 6.79632E+00
 -1       829-9.82086E-01 2.49807E+01 8.75000E+00
 -1       830-2.94831E+00 2.48255E+01 8.75000E+00
 -1       831-1.07399E-02 2.50000E+01 7.01842E+00
 -1       832-4.80723E+00 2.45335E+01 8.75000E+00
 -1       833-6.72629E+00 2.40781E+01 8.75000E+00
 -1       834-4.01635E+00 2.46753E+01 7.50000E+00
 -1       835-8.51935E+00 2.35036E+01 8.75000E+00
 -1       836-1.03457E+01 2.27589E+01 8.75000E+00
 -1       837-7.67341E+00 2.37933E+01 7.50000E+00
 -1       838-1.21203E+01 2.18655E+01 8.75000E+00
 -1       839-1.38063E+01 2.08419E+01 8.75000E+00
 -1       840-1.12507E+01 2.23253E+01 7.50000E+00
 -1       841-1.54675E+01 1.96407E+01 8.75000E+00
 -1       842-1.69676E+01 1.83603E+01 8.75000E+00
 -1       843-1.46946E+01 2.02255E+01 7.50000E+00
 -1       844-1.83669E+01 1.69604E+01 8.75000E+00
 -1       845-1.96468E+01 1.54597E+01 8.75000E+00
 -1       846-1.77506E+01 1.76044E+01 7.50000E+00
 -1       847-2.08080E+01 1.38573E+01 8.75000E+00
 -1       848-2.18357E+01 1.21739E+01 8.75000E+00
 -1       849-2.03048E+01 1.45847E+01 7.50000E+00
 -1       850-2.27272E+01 1.04152E+01 8.75000E+00
 -1       851-2.34775E+01 8.59111E+00 8.75000E+00
 -1       852-2.23475E+01 1.12067E+01 7.50000E+00
 -1       853-2.40723E+01 6.74715E+00 8.75000E+00
 -1       854-2.45293E+01 4.82848E+00 8.75000E+00
 -1       855-2.38204E+01 7.58871E+00 7.50000E+00
 -1       856-2.48268E+01 2.93785E+00 8.75000E+00
 -1       857-2.49811E+01 9.71564E-01 8.75000E+00
 -1       858-2.47029E+01 3.84269E+00 7.50000E+00
 -1       859-2.49769E+01-1.07536E+00 8.39286E+00
 -1       860-2.48144E+01-3.04099E+00 8.39286E+00
 -1       861-2.49998E+01-1.03883E-01 7.14286E+00
 -1       862-2.44752E+01-5.09555E+00 8.68882E+00
 -1       863-2.39973E+01-7.00912E+00 8.68882E+00
 -1       864-2.46423E+01-4.21414E+00 7.08168E+00
 -1       865-2.33983E+01-8.80459E+00 8.74008E+00
 -1       866-2.26314E+01-1.06217E+01 8.74008E+00
 -1       867-2.36638E+01-8.06375E+00 7.42890E+00
 -1       868-2.17119E+01-1.23933E+01 8.26835E+00
 -1       869-2.06673E+01-1.40663E+01 8.26835E+00
 -1       870-2.21284E+01-1.16334E+01 7.00843E+00
 -1       871-1.94261E+01-1.57361E+01 8.57285E+00
 -1       872-1.81252E+01-1.72186E+01 8.57285E+00
 -1       873-1.99456E+01-1.50723E+01 6.84119E+00
 -1       874-1.67854E+01-1.85270E+01 8.69048E+00
 -1       875-1.52726E+01-1.97926E+01 8.69048E+00
 -1       876-1.73225E+01-1.80259E+01 7.26332E+00
 -1       877-1.36982E+01-2.09132E+01 8.74008E+00
 -1       878-1.20069E+01-2.19279E+01 8.74008E+00
 -1       879-1.43883E+01-2.04445E+01 7.43056E+00
 -1       880-1.02058E+01-2.28219E+01 8.75000E+00
 -1       881-8.37498E+00-2.35555E+01 8.75000E+00
 -1       882-1.09974E+01-2.24512E+01 7.49008E+00
 -1       883-6.52461E+00-2.41336E+01 8.75000E+00
 -1       884-4.60181E+00-2.45728E+01 8.75000E+00
 -1       885-7.32756E+00-2.39020E+01 7.50000E+00
 -1       886-2.86561E+00-2.48352E+01 9.00000E+00
 -1       887-8.98887E-01-2.49838E+01 9.00000E+00
 -1       888-3.72746E+00-2.47206E+01 7.75000E+00
 -1       889 7.82766E-01-2.49877E+01 8.75000E+00
 -1       890 2.75016E+00-2.48483E+01 8.75000E+00
 -1       891-3.03157E-01-2.49982E+01 7.75000E+00
 -1       892 4.82257E+00-2.45304E+01 8.75000E+00
 -1       893 6.74134E+00-2.40739E+01 8.75000E+00
 -1       894 3.46487E+00-2.47587E+01 7.50000E+00
 -1       895 8.61859E+00-2.34674E+01 8.75000E+00
 -1       896 1.04418E+01-2.27150E+01 8.75000E+00
 -1       897 7.43253E+00-2.38696E+01 7.50000E+00
 -1       898 1.21829E+01-2.18307E+01 8.75000E+00
 -1       899 1.38659E+01-2.08023E+01 8.75000E+00
 -1       900 1.10747E+01-2.24132E+01 7.50000E+00
 -1       901 1.55185E+01-1.96004E+01 8.77069E+00
 -1       902 1.70153E+01-1.83161E+01 8.77069E+00
 -1       903 1.45019E+01-2.03641E+01 7.52069E+00
 -1       904 1.82205E+01-1.71177E+01 8.79188E+00
 -1       905 1.95132E+01-1.56281E+01 8.79188E+00
 -1       906 1.73778E+01-1.79725E+01 7.56256E+00
 -1       907 2.03776E+01-1.44828E+01 7.87501E+00
 -1       908 1.94892E+01-1.56580E+01 6.66688E+00
 -1       909-2.38921E+01-7.35978E+00 6.18882E+00
 -1       910-2.32668E+01-9.14629E+00 6.24008E+00
 -1       911-2.27523E+01-1.03602E+01 6.23810E+00
 -1       912-2.30490E+01-9.68220E+00 4.99802E+00
 -1       913-2.18533E+01-1.21423E+01 5.76636E+00
 -1       914-1.97893E+01 1.52770E+01 6.25000E+00
 -1       915-1.84861E+01 1.68304E+01 6.25000E+00
 -1       916-1.92189E+01 1.59885E+01 5.00000E+00
 -1       917-2.09356E+01 1.36639E+01 6.25000E+00
 -1       918-1.70967E+01 1.82401E+01 6.25000E+00
 -1       919 5.13207E+00-2.44676E+01 5.00000E+00
 -1       920 6.29213E+00-2.41952E+01 6.25000E+00
 -1       921 4.35920E+00-2.46170E+01 6.25000E+00
 -1       922 2.28117E+00-2.48957E+01 6.25000E+00
 -1       923 8.18035E+00-2.36238E+01 6.25000E+00
 -1       924 4.35920E+00-2.46170E+01 3.75000E+00
 -1       925 6.29213E+00-2.41952E+01 3.75000E+00
 -1       926 2.28117E+00-2.48957E+01 3.75000E+00
 -1       927 8.18035E+00-2.36238E+01 3.75000E+00
 -1       928-1.84861E+01 1.68304E+01 3.75000E+00
 -1       929-1.97893E+01 1.52770E+01 3.75000E+00
 -1       930-2.09356E+01 1.36639E+01 3.75000E+00
 -1       931-1.70967E+01 1.82401E+01 3.75000E+00
 -1       932-2.43410E+01-5.70211E+00 6.18882E+00
 -1       933-2.40522E+01-6.81838E+00 5.00000E+00
 -1       934-2.47311E+01-3.65660E+00 5.89286E+00
 -1       935 8.99120E+00 2.33272E+01 5.44746E+00
 -1       936 1.03055E+01 2.27771E+01 4.93485E+00
 -1       937 7.13101E+00 2.39614E+01 5.58251E+00
 -1       938 5.63830E+00 2.43559E+01 5.24784E+00
 -1       939 1.93938E+01 1.57759E+01 5.02836E+00
 -1       940 1.86733E+01 1.66226E+01 6.34627E+00
 -1       941 1.99815E+01 1.50246E+01 6.32833E+00
 -1       942 1.99815E+01 1.50246E+01 3.69330E+00
 -1       943 1.86733E+01 1.66226E+01 3.71124E+00
 -1       944 1.67029E+01 1.86014E+01 5.02701E+00
 -1       945 1.59843E+01 1.92224E+01 6.24756E+00
 -1       946 1.73546E+01 1.79949E+01 6.26685E+00
 -1       947 1.73546E+01 1.79949E+01 3.78999E+00
 -1       948 1.59843E+01 1.92224E+01 3.77070E+00
 -1       949-1.78050E+01-1.75494E+01 6.07285E+00
 -1       950-1.88088E+01-1.64690E+01 5.33933E+00
 -1       951-1.80005E+01-1.73489E+01 4.26648E+00
 -1       952-1.64414E+01-1.88330E+01 6.19048E+00
 -1       953-1.64429E+01-1.88317E+01 3.80102E+00
 -1       954-1.51421E+01-1.98926E+01 6.19048E+00
 -1       955-1.56762E+01-1.94746E+01 5.00000E+00
 -1       956-1.51437E+01-1.98914E+01 3.80102E+00
 -1       957 1.39287E+01 2.07603E+01 5.00386E+00
 -1       958 1.30389E+01 2.13304E+01 6.19007E+00
 -1       959 1.44402E+01 2.04078E+01 6.19393E+00
 -1       960 1.44431E+01 2.04058E+01 3.80833E+00
 -1       961 1.30420E+01 2.13286E+01 3.80447E+00
 -1       962 1.12555E+01 2.23230E+01 5.89286E+00
 -1       963 1.15823E+01 2.21552E+01 4.04199E+00
 -1       964 1.37811E+00-2.49620E+01 5.00000E+00
 -1       965-3.85099E+00-2.47016E+01 6.25000E+00
 -1       966-6.28092E+00-2.41981E+01 6.25000E+00
 -1       967-4.68969E+00-2.45562E+01 5.00000E+00
 -1       968-6.28092E+00-2.41981E+01 3.75000E+00
 -1       969-3.85099E+00-2.47016E+01 3.75000E+00
 -1       970-2.10760E+00-2.49110E+01 3.50000E+00
 -1       971-4.28114E-01-2.49963E+01 3.75000E+00
 -1       972-2.10760E+00-2.49110E+01 6.50000E+00
 -1       973-4.28114E-01-2.49963E+01 6.25000E+00
 -1       974 1.81586E+01-1.71833E+01 3.87513E+00
 -1       975 1.96349E+01-1.54748E+01 4.21541E+00
 -1       976 1.89628E+01-1.62915E+01 5.40973E+00
 -1       977 1.79969E+01-1.73525E+01 6.32660E+00
 -1       978 1.58169E+01-1.93604E+01 5.03472E+00
 -1       979 1.67763E+01-1.85352E+01 6.30541E+00
 -1       980 1.51288E+01-1.99028E+01 6.27069E+00
 -1       981 1.51599E+01-1.98791E+01 3.77584E+00
 -1       982 1.68053E+01-1.85090E+01 3.81056E+00
 -1       983-2.01131E+01-1.48480E+01 5.03483E+00
 -1       984-2.18588E+01 1.21322E+01 6.25000E+00
 -1       985-2.14270E+01 1.28796E+01 5.00000E+00
 -1       986-2.18588E+01 1.21322E+01 3.75000E+00
 -1       987-2.35329E+01 8.43826E+00 6.25000E+00
 -1       988-2.27470E+01 1.03718E+01 6.25000E+00
 -1       989-2.31591E+01 9.41585E+00 5.00000E+00
 -1       990-2.27470E+01 1.03718E+01 3.75000E+00
 -1       991-2.35329E+01 8.43826E+00 3.75000E+00
 -1       992-1.38442E+01 2.08168E+01 6.25000E+00
 -1       993-1.21324E+01 2.18588E+01 6.25000E+00
 -1       994-1.30093E+01 2.13485E+01 5.00000E+00
 -1       995-1.21324E+01 2.18588E+01 3.75000E+00
 -1       996-1.38442E+01 2.08168E+01 3.75000E+00
 -1       997-9.45225E+00 2.31442E+01 5.00000E+00
 -1       998-1.03582E+01 2.27532E+01 6.25000E+00
 -1       999-8.52151E+00 2.35028E+01 6.25000E+00
 -1      1000-8.52151E+00 2.35028E+01 3.75000E+00
 -1      1001-1.03582E+01 2.27532E+01 3.75000E+00
 -1      1002 1.24680E+01-2.16691E+01 5.00000E+00
 -1      1003 1.34528E+01-2.10718E+01 6.25000E+00
 -1      1004 1.17874E+01-2.20467E+01 6.25000E+00
 -1      1005 1.17874E+01-2.20467E+01 3.75000E+00
 -1      1006 1.34528E+01-2.10718E+01 3.75000E+00
 -1      1007 1.00307E+01-2.28995E+01 3.75000E+00
 -1      1008 8.93336E+00-2.33494E+01 5.00000E+00
 -1      1009 1.00307E+01-2.28995E+01 6.25000E+00
 -1      1010-2.43406E+01-5.70412E+00 3.80244E+00
 -1      1011-2.38915E+01-7.36175E+00 3.80244E+00
 -1      1012-2.32670E+01-9.14598E+00 3.75850E+00
 -1      1013-2.27524E+01-1.03599E+01 3.75652E+00
 -1      1014-8.13702E+00-2.36387E+01 6.25000E+00
 -1      1015-1.00171E+01-2.29054E+01 6.25000E+00
 -1      1016-9.01122E+00-2.33195E+01 5.00000E+00
 -1      1017-1.00171E+01-2.29054E+01 3.75000E+00
 -1      1018-8.13702E+00-2.36387E+01 3.75000E+00
 -1      1019-1.18254E+01-2.20263E+01 6.24008E+00
 -1      1020-1.18257E+01-2.20262E+01 3.75850E+00
 -1      1021-1.26402E+01-2.15691E+01 5.00000E+00
 -1      1022-1.35606E+01-2.10026E+01 3.75850E+00
 -1      1023-1.35603E+01-2.10028E+01 6.24008E+00
 -1      1024-1.63265E+01 1.89327E+01 5.00000E+00
 -1      1025-1.55031E+01 1.96126E+01 3.75000E+00
 -1      1026-1.55031E+01 1.96126E+01 6.25000E+00
 -1      1027-5.89733E+00 2.42945E+01 5.00000E+00
 -1      1028-6.72850E+00 2.40775E+01 6.25000E+00
 -1      1029-5.02253E+00 2.44903E+01 6.25000E+00
 -1      1030-5.02253E+00 2.44903E+01 3.75000E+00
 -1      1031-6.72850E+00 2.40775E+01 3.75000E+00
 -1      1032-2.60466E+00 2.48639E+01 4.99781E+00
 -1      1033-1.58521E+00 2.49497E+01 3.74781E+00
 -1      1034-3.16624E+00 2.47987E+01 3.75000E+00
 -1      1035-3.16624E+00 2.47987E+01 6.25000E+00
 -1      1036-1.58521E+00 2.49497E+01 6.24781E+00
 -1      1037-2.12974E+01-1.30928E+01 4.73357E+00
 -1      1038-2.47293E+01-3.66922E+00 4.05612E+00
 -1      1039-2.49064E+01-2.16143E+00 4.94898E+00
 -1      1040 5.54594E-01 2.49938E+01 5.76624E+00
 -1      1041 1.81530E+00 2.49340E+01 4.73716E+00
 -1      1042 2.41357E-01 2.49988E+01 3.96655E+00
 -1      1043 3.57839E+00 2.47426E+01 4.98837E+00
 -1      1044-2.49020E+01 2.21108E+00 5.00000E+00
 -1      1045-2.49627E+01 1.36570E+00 6.25000E+00
 -1      1046-2.48443E+01 2.78541E+00 6.25000E+00
 -1      1047-2.48443E+01 2.78541E+00 3.75000E+00
 -1      1048-2.49627E+01 1.36570E+00 3.75000E+00
 -1      1049-2.49907E+01-6.81038E-01 5.89286E+00
 -1      1050-2.49904E+01-6.93786E-01 4.05612E+00
 -1      1051-2.20054E+01-1.18644E+01 3.96324E+00
 -1      1052-2.45585E+01 4.67784E+00 6.25000E+00
 -1      1053-2.41157E+01 6.59046E+00 6.25000E+00
 -1      1054-2.43749E+01 5.55574E+00 5.00000E+00
 -1      1055-2.41157E+01 6.59046E+00 3.75000E+00
 -1      1056-2.45585E+01 4.67784E+00 3.75000E+00
 -1      1057 2.57128E+01-3.52386E-15 0.00000E+00
 -1      1058 2.16448E+01 4.51937E+00 0.00000E+00
 -1      1059 2.16448E+01-4.51937E+00 0.00000E+00
 -1      1060 3.52306E+01 1.48134E-16 0.00000E+00
 -1      1061 1.98503E+01 8.06835E+00 0.00000E+00
 -1      1062 1.98503E+01-8.06835E+00 0.00000E+00
 -1      1063 6.95611E+01 1.30459E-01 0.00000E+00
 -1      1064 4.39248E+01 1.73167E-13 0.00000E+00
 -1      1065 7.70820E+01-4.27847E-17 0.00000E+00
 -1      1066 2.27423E+01 7.32272E+00 0.00000E+00
 -1      1067 2.64812E+01 4.57559E+00 0.00000E+00
 -1      1068 2.27423E+01-7.32272E+00 0.00000E+00
 -1      1069 2.61699E+01-4.45283E+00 0.00000E+00
 -1      1070 2.11764E+01 3.91906E-15 0.00000E+00
 -1      1071 2.97888E+01-1.58260E+00 0.00000E+00
 -1      1072 8.35410E+01-1.11499E+00 0.00000E+00
 -1      1073 2.58904E+01-6.96212E+00 0.00000E+00
 -1      1074 2.61914E+01 6.97756E+00 0.00000E+00
 -1      1075 3.10985E+01 3.64090E+00 0.00000E+00
 -1      1076 1.62915E+01 1.14563E+01 0.00000E+00
 -1      1077 1.62915E+01-1.14563E+01 0.00000E+00
 -1      1078 3.92853E+01-3.80668E+00 0.00000E+00
 -1      1079 3.94398E+01 3.68255E+00 0.00000E+00
 -1      1080 2.11409E+01-9.25615E+00 0.00000E+00
 -1      1081 2.11409E+01 9.25615E+00 0.00000E+00
 -1      1082 6.43028E+01-3.04244E+00 0.00000E+00
 -1      1083 6.40936E+01 2.67834E+00 0.00000E+00
 -1      1084 1.76476E+01-2.76395E+00 0.00000E+00
 -1      1085 1.76476E+01 2.76395E+00 0.00000E+00
 -1      1086-1.88406E+01 7.81202E+00 0.00000E+00
 -1      1087-1.87114E+01-7.73707E+00 0.00000E+00
 -1      1088-7.74824E+00 1.86999E+01 0.00000E+00
 -1      1089-7.74824E+00-1.86999E+01 0.00000E+00
 -1      1090 7.76525E+00 1.86812E+01 0.00000E+00
 -1      1091 7.76525E+00-1.86812E+01 0.00000E+00
 -1      1092 3.41799E+01-4.84808E+00 0.00000E+00
 -1      1093 2.84378E+00-2.06104E+01 0.00000E+00
 -1      1094 2.84378E+00 2.06104E+01 0.00000E+00
 -1      1095-1.25727E+01-1.65711E+01 0.00000E+00
 -1      1096-1.25727E+01 1.65711E+01 0.00000E+00
 -1      1097-2.06061E+01-2.81084E+00 0.00000E+00
 -1      1098 1.22487E+01-1.58459E+01 0.00000E+00
 -1      1099 1.22487E+01 1.58459E+01 0.00000E+00
 -1      1100 4.61640E+01-3.18404E+00 0.00000E+00
 -1      1101 4.61640E+01 3.18404E+00 0.00000E+00
 -1      1102 7.28976E+01 3.16381E+00 0.00000E+00
 -1      1103 7.27937E+01-3.13469E+00 0.00000E+00
 -1      1104-2.06021E+01 2.88895E+00 0.00000E+00
 -1      1105-1.65977E+01-1.25367E+01 0.00000E+00
 -1      1106-1.65977E+01 1.25367E+01 0.00000E+00
 -1      1107-2.85369E+00-2.06000E+01 0.00000E+00
 -1      1108-2.85369E+00 2.06000E+01 0.00000E+00
 -1      1109 1.89843E+01 1.20829E+01 0.00000E+00
 -1      1110 1.89843E+01-1.20829E+01 0.00000E+00
 -1      1111 2.32252E+01-1.78756E+00 0.00000E+00
 -1      1112 2.34446E+01 1.95640E+00 0.00000E+00
 -1      1113 8.07303E+01 3.67171E+00 0.00000E+00
 -1      1114 8.73724E+01 3.45153E+00 0.00000E+00
 -1      1115 3.09350E+01-4.86018E+00 0.00000E+00
 -1      1116 2.30072E+01 8.78536E+00 0.00000E+00
 -1      1117 2.30072E+01-8.78536E+00 0.00000E+00
 -1      1118 2.88677E+01 1.98458E+00 0.00000E+00
 -1      1119 3.54142E+01 5.56534E+00 0.00000E+00
 -1      1120 8.02760E+01-3.60461E+00 0.00000E+00
 -1      1121 1.70363E+01 5.78028E+00 0.00000E+00
 -1      1122 1.70363E+01-5.78028E+00 0.00000E+00
 -1      1123 6.95172E+01 4.83403E+00 0.00000E+00
 -1      1124 6.88947E+01-4.27476E+00 0.00000E+00
 -1      1125 2.46013E+01 5.63370E+00 0.00000E+00
 -1      1126 2.43840E+01-5.52331E+00 0.00000E+00
 -1      1127 4.77367E+01 2.59882E-13 0.00000E+00
 -1      1128 2.93070E+01 6.44617E+00 0.00000E+00
 -1      1129 7.66823E+01 3.76802E+00 0.00000E+00
 -1      1130 8.73781E+01-3.40926E+00 0.00000E+00
 -1      1131 2.76862E+01-2.02092E+00 0.00000E+00
 -1      1132 4.21374E+01 5.94093E+00 0.00000E+00
 -1      1133 4.28592E+01-5.38832E+00 0.00000E+00
 -1      1134 2.09537E+01-6.32982E+00 0.00000E+00
 -1      1135 2.09537E+01 6.32982E+00 0.00000E+00
 -1      1136 3.93499E+01-3.66686E-02 0.00000E+00
 -1      1137 2.09527E+01-2.38598E+00 0.00000E+00
 -1      1138 2.11764E+01 2.29304E+00 0.00000E+00
 -1      1139 6.13377E+01-5.36724E+00 0.00000E+00
 -1      1140 6.13018E+01 5.41125E+00 0.00000E+00
 -1      1141 2.51257E+01 8.52651E+00 0.00000E+00
 -1      1142 2.50656E+01-8.52342E+00 0.00000E+00
 -1      1143 4.94387E+01-5.70906E+00 0.00000E+00
 -1      1144 4.94387E+01 5.70906E+00 0.00000E+00
 -1      1145 1.72021E+01-8.46859E+00 0.00000E+00
 -1      1146 1.72021E+01 8.46859E+00 0.00000E+00
 -1      1147 2.57575E+01 2.34482E+00 0.00000E+00
 -1      1148 1.89335E+01-1.54902E-02 0.00000E+00
 -1      1149 7.59231E+01-4.07807E+00 0.00000E+00
 -1      1150 1.95994E+01-4.54100E+00 0.00000E+00
 -1      1151 1.95994E+01 4.54100E+00 0.00000E+00
 -1      1152 2.82969E+01-6.34812E+00 0.00000E+00
 -1      1153 6.03867E+00-2.10130E+01 0.00000E+00
 -1      1154 6.03867E+00 2.10130E+01 0.00000E+00
 -1      1155 2.37350E+01 6.10801E-16 0.00000E+00
 -1      1156 2.51551E+01-2.03136E+00 0.00000E+00
 -1      1157 1.54784E+01 1.50058E+01 0.00000E+00
 -1      1158 1.54784E+01-1.50058E+01 0.00000E+00
 -1      1159-1.06338E+01-1.91071E+01 0.00000E+00
 -1      1160-1.06338E+01 1.91071E+01 0.00000E+00
 -1      1161 3.74049E+01-6.25421E+00 0.00000E+00
 -1      1162-2.10451E+01-5.94670E+00 0.00000E+00
 -1      1163 1.07379E+01-1.88938E+01 0.00000E+00
 -1      1164 1.07379E+01 1.88938E+01 0.00000E+00
 -1      1165-2.10630E+01 5.97525E+00 0.00000E+00
 -1      1166 2.20922E+01-1.00619E+01 0.00000E+00
 -1      1167 2.20922E+01 1.00619E+01 0.00000E+00
 -1      1168-1.90942E+01 1.07119E+01 0.00000E+00
 -1      1169-1.90726E+01-1.06994E+01 0.00000E+00
 -1      1170-5.87117E+00 2.10621E+01 0.00000E+00
 -1      1171-5.87117E+00-2.10621E+01 0.00000E+00
 -1      1172 7.37622E+01 1.18120E-15 0.00000E+00
 -1      1173 8.03414E+01 3.24697E-01 0.00000E+00
 -1      1174 6.28999E+01-4.64786E-02 0.00000E+00
 -1      1175 8.36024E+01-4.40473E+00 0.00000E+00
 -1      1176 2.14199E+01-7.88787E+00 0.00000E+00
 -1      1177 2.14199E+01 7.88787E+00 0.00000E+00
 -1      1178 3.20413E+01 7.76889E-01 0.00000E+00
 -1      1179-2.19165E+01 3.42298E-02 0.00000E+00
 -1      1180-1.55135E+01-1.54838E+01 0.00000E+00
 -1      1181-1.55135E+01 1.54838E+01 0.00000E+00
 -1      1182-7.38561E-03-2.19219E+01 0.00000E+00
 -1      1183-7.38561E-03 2.19219E+01 0.00000E+00
 -1      1184 2.07538E+01-1.11241E+01 0.00000E+00
 -1      1185 1.93704E+01-9.89148E+00 0.00000E+00
 -1      1186 2.07538E+01 1.11241E+01 0.00000E+00
 -1      1187 1.93704E+01 9.89148E+00 0.00000E+00
 -1      1188 8.66862E+01-1.78061E-01 0.00000E+00
 -1      1189 3.81479E+01 6.49888E+00 0.00000E+00
 -1      1190 3.24916E+01 6.24907E+00 0.00000E+00
 -1      1191 1.30729E+01 1.26139E+01 0.00000E+00
 -1      1192 1.30729E+01-1.26139E+01 0.00000E+00
 -1      1193 2.41698E+01 7.13753E+00 0.00000E+00
 -1      1194 2.42342E+01-7.11810E+00 0.00000E+00
 -1      1195 3.30993E+01-2.21828E+00 0.00000E+00
 -1      1196 3.64250E+01-2.86065E+00 0.00000E+00
 -1      1197 6.53018E+01-5.93266E+00 0.00000E+00
 -1      1198 6.53805E+01 5.60993E+00 0.00000E+00
 -1      1199 4.54211E+00-1.75094E+01 0.00000E+00
 -1      1200 4.54211E+00 1.75094E+01 0.00000E+00
 -1      1201-9.16588E+00-1.55946E+01 0.00000E+00
 -1      1202-9.16588E+00 1.55946E+01 0.00000E+00
 -1      1203-1.75072E+01-4.55093E+00 0.00000E+00
 -1      1204 8.36338E+01 4.63473E+00 0.00000E+00
 -1      1205 9.03079E+00 1.56435E+01 0.00000E+00
 -1      1206 9.03079E+00-1.56435E+01 0.00000E+00
 -1      1207-1.79221E+01 4.87327E+00 0.00000E+00
 -1      1208-1.61083E+01 8.57234E+00 0.00000E+00
 -1      1209-1.57512E+01-8.87773E+00 0.00000E+00
 -1      1210-4.85430E+00 1.74132E+01 0.00000E+00
 -1      1211-4.85430E+00-1.74132E+01 0.00000E+00
 -1      1212 6.61306E+01-3.93976E-01 0.00000E+00
 -1      1213-1.82918E+01 6.16711E-01 0.00000E+00
 -1      1214-1.33140E+01-1.24529E+01 0.00000E+00
 -1      1215-1.33650E+01 1.24093E+01 0.00000E+00
 -1      1216-6.01682E-01-1.82206E+01 0.00000E+00
 -1      1217-6.01682E-01 1.82206E+01 0.00000E+00
 -1      1218 3.66694E+01 2.74303E+00 0.00000E+00
 -1      1219 8.96176E+01 6.55922E+00 0.00000E+00
 -1      1220 9.76370E+01 1.18796E+01 0.00000E+00
 -1      1221 1.10568E+02-6.29339E+00 0.00000E+00
 -1      1222 1.11923E+02 3.02289E+00 0.00000E+00
 -1      1223 1.11869E+02-2.58621E+00 0.00000E+00
 -1      1224 1.10222E+02 6.56406E+00 0.00000E+00
 -1      1225 9.37066E+01-1.05684E+01 0.00000E+00
 -1      1226 9.37066E+01 1.05684E+01 0.00000E+00
 -1      1227 9.74138E+01-1.18692E+01 0.00000E+00
 -1      1228 1.02363E+02-1.18796E+01 0.00000E+00
 -1      1229 1.06729E+02 1.00710E+01 0.00000E+00
 -1      1230 1.06293E+02-1.05684E+01 0.00000E+00
 -1      1231 8.96185E+01-6.55318E+00 0.00000E+00
 -1      1232 1.03023E+02 1.19231E+01 0.00000E+00
 -1      1233 2.77395E+01 5.07535E-03 0.00000E+00
 -1      1234 1.90948E+01 6.37728E+00 0.00000E+00
 -1      1235 1.90948E+01-6.37728E+00 0.00000E+00
 -1      1236 5.75521E+01-6.29782E+00 0.00000E+00
 -1      1237 5.75897E+01 6.25677E+00 0.00000E+00
 -1      1238 2.34352E+01-3.73961E+00 0.00000E+00
 -1      1239 2.34899E+01 3.75560E+00 0.00000E+00
 -1      1240 4.59911E+01-6.50004E+00 0.00000E+00
 -1      1241 4.57553E+01 6.74206E+00 0.00000E+00
 -1      1242 4.20897E+01-2.55261E+00 0.00000E+00
 -1      1243 4.20839E+01 2.57291E+00 0.00000E+00
 -1      1244 2.88306E+01 4.23511E+00 0.00000E+00
 -1      1245 3.02864E+01-7.65066E+00 0.00000E+00
 -1      1246 3.26633E+01-7.29947E+00 0.00000E+00
 -1      1247 6.13263E+01-2.37886E+00 0.00000E+00
 -1      1248 6.12931E+01 2.35977E+00 0.00000E+00
 -1      1249 8.80923E+00-2.08916E+01 0.00000E+00
 -1      1250 8.80923E+00 2.08916E+01 0.00000E+00
 -1      1251 1.78058E+01-1.40950E+01 0.00000E+00
 -1      1252 1.78058E+01 1.40950E+01 0.00000E+00
 -1      1253-8.61384E+00-2.10051E+01 0.00000E+00
 -1      1254-8.61384E+00 2.10051E+01 0.00000E+00
 -1      1255-2.09687E+01-8.70877E+00 0.00000E+00
 -1      1256-2.10025E+01 8.73197E+00 0.00000E+00
 -1      1257 2.86011E+01-3.93800E+00 0.00000E+00
 -1      1258 4.03343E+01-6.58080E+00 0.00000E+00
 -1      1259 8.37175E+01 1.79827E+00 0.00000E+00
 -1      1260 2.27443E+01 5.78280E+00 0.00000E+00
 -1      1261 2.27353E+01-5.77647E+00 0.00000E+00
 -1      1262 3.38243E+01 3.16254E+00 0.00000E+00
 -1      1263 6.69637E+01 2.46298E+00 0.00000E+00
 -1      1264 7.31572E+01 5.86841E+00 0.00000E+00
 -1      1265 7.30489E+01-5.84812E+00 0.00000E+00
 -1      1266 2.30648E+01 9.52927E+00 0.00000E+00
 -1      1267 2.35701E+01 9.36888E+00 0.00000E+00
 -1      1268 2.65943E+01 9.16282E+00 0.00000E+00
 -1      1269 2.46294E+01 9.23946E+00 0.00000E+00
 -1      1270 2.40665E+01 8.65593E+00 0.00000E+00
 -1      1271 2.30648E+01-9.52927E+00 0.00000E+00
 -1      1272 2.35701E+01-9.36888E+00 0.00000E+00
 -1      1273 2.65642E+01-9.16128E+00 0.00000E+00
 -1      1274 2.45993E+01-9.23791E+00 0.00000E+00
 -1      1275 2.40364E+01-8.65439E+00 0.00000E+00
 -1      1276 8.33568E+01 6.14400E+00 0.00000E+00
 -1      1277 8.53217E+01 6.06737E+00 0.00000E+00
 -1      1278 8.95055E+01 8.58291E+00 0.00000E+00
 -1      1279 8.83136E+01 7.02961E+00 0.00000E+00
 -1      1280 8.55031E+01 4.04313E+00 0.00000E+00
 -1      1281 8.71910E+01 5.47576E+00 0.00000E+00
 -1      1282 8.84950E+01 5.00537E+00 0.00000E+00
 -1      1283 8.33411E+01-6.02900E+00 0.00000E+00
 -1      1284 8.53060E+01-5.95236E+00 0.00000E+00
 -1      1285 8.95059E+01-8.57989E+00 0.00000E+00
 -1      1286 8.83140E+01-7.02659E+00 0.00000E+00
 -1      1287 8.54903E+01-3.90699E+00 0.00000E+00
 -1      1288 8.71939E+01-5.45463E+00 0.00000E+00
 -1      1289 8.84983E+01-4.98122E+00 0.00000E+00
 -1      1290 5.96515E+01 2.92220E+00 0.00000E+00
 -1      1291 6.04905E+01 1.17989E+00 0.00000E+00
 -1      1292 5.96681E+01-2.93174E+00 0.00000E+00
 -1      1293 6.05072E+01-1.18943E+00 0.00000E+00
 -1      1294 6.21131E+01-1.21267E+00 0.00000E+00
 -1      1295 6.12939E+01-2.32393E-02 0.00000E+00
 -1      1296 6.20965E+01 1.15665E+00 0.00000E+00
 -1      1297 2.05768E+01 1.27878E+01 0.00000E+00
 -1      1298 2.15857E+01 1.10949E+01 0.00000E+00
 -1      1299 2.26073E+01 1.01675E+01 0.00000E+00
 -1      1300 2.22549E+01 1.05638E+01 0.00000E+00
 -1      1301 2.14230E+01 1.05930E+01 0.00000E+00
 -1      1302 1.60682E+01 3.32312E+00 0.00000E+00
 -1      1303 1.63238E+01 1.38197E+00 0.00000E+00
 -1      1304 1.60682E+01-3.32312E+00 0.00000E+00
 -1      1305 1.63238E+01-1.38197E+00 0.00000E+00
 -1      1306 1.82905E+01-1.38972E+00 0.00000E+00
 -1      1307 1.69667E+01-7.74511E-03 0.00000E+00
 -1      1308 1.82905E+01 1.37423E+00 0.00000E+00
 -1      1309 1.13462E+02 1.51145E+00 0.00000E+00
 -1      1310 1.12500E+02-8.49831E-15 0.00000E+00
 -1      1311 1.10962E+02 1.51145E+00 0.00000E+00
 -1      1312 1.13435E+02-1.29311E+00 0.00000E+00
 -1      1313 1.10935E+02-1.29311E+00 0.00000E+00
 -1      1314 1.10554E+02-3.20652E+00 0.00000E+00
 -1      1315 1.10581E+02 3.42486E+00 0.00000E+00
 -1      1316 1.78403E+01 1.57866E+01 0.00000E+00
 -1      1317 1.91028E+01 1.42733E+01 0.00000E+00
 -1      1318 1.98690E+01 1.16035E+01 0.00000E+00
 -1      1319 1.96921E+01 1.32672E+01 0.00000E+00
 -1      1320 1.83950E+01 1.30890E+01 0.00000E+00
 -1      1321 1.51920E+01 1.75381E+01 0.00000E+00
 -1      1322 1.66766E+01 1.62420E+01 0.00000E+00
 -1      1323 1.66421E+01 1.45504E+01 0.00000E+00
 -1      1324 1.11519E+01 2.05288E+01 0.00000E+00
 -1      1325 1.28218E+01 1.94821E+01 0.00000E+00
 -1      1326 1.38636E+01 1.54258E+01 0.00000E+00
 -1      1327 1.35772E+01 1.79582E+01 0.00000E+00
 -1      1328 1.14933E+01 1.73698E+01 0.00000E+00
 -1      1329 8.37387E+00 2.22988E+01 0.00000E+00
 -1      1330 1.01875E+01 2.15277E+01 0.00000E+00
 -1      1331 9.77359E+00 1.98927E+01 0.00000E+00
 -1      1332 5.07627E+00 2.28361E+01 0.00000E+00
 -1      1333 6.98859E+00 2.23596E+01 0.00000E+00
 -1      1334 7.42395E+00 2.09523E+01 0.00000E+00
 -1      1335 8.97952E-02 2.34606E+01 0.00000E+00
 -1      1336 2.05324E+00 2.32906E+01 0.00000E+00
 -1      1337 1.41820E+00 2.12662E+01 0.00000E+00
 -1      1338 3.47882E+00 2.26348E+01 0.00000E+00
 -1      1339 4.44123E+00 2.08117E+01 0.00000E+00
 -1      1340-1.87598E+00 2.33200E+01 0.00000E+00
 -1      1341-6.72710E+00 2.24421E+01 0.00000E+00
 -1      1342-4.80787E+00 2.28900E+01 0.00000E+00
 -1      1343-1.43054E+00 2.12610E+01 0.00000E+00
 -1      1344-3.29913E+00 2.26590E+01 0.00000E+00
 -1      1345-4.36243E+00 2.08310E+01 0.00000E+00
 -1      1346-9.92342E+00 2.16697E+01 0.00000E+00
 -1      1347-8.09843E+00 2.24137E+01 0.00000E+00
 -1      1348-7.24251E+00 2.10336E+01 0.00000E+00
 -1      1349-1.26188E+01 1.96991E+01 0.00000E+00
 -1      1350-1.09334E+01 2.07207E+01 0.00000E+00
 -1      1351-9.62381E+00 2.00561E+01 0.00000E+00
 -1      1352-1.65625E+01 1.66137E+01 0.00000E+00
 -1      1353-1.50586E+01 1.78875E+01 0.00000E+00
 -1      1354-1.40431E+01 1.60274E+01 0.00000E+00
 -1      1355-1.35882E+01 1.84311E+01 0.00000E+00
 -1      1356-1.16033E+01 1.78391E+01 0.00000E+00
 -1      1357-1.78474E+01 1.51194E+01 0.00000E+00
 -1      1358-2.06719E+01 1.10558E+01 0.00000E+00
 -1      1359-1.96378E+01 1.27335E+01 0.00000E+00
 -1      1360-1.60556E+01 1.40102E+01 0.00000E+00
 -1      1361-1.83895E+01 1.36459E+01 0.00000E+00
 -1      1362-1.78460E+01 1.16243E+01 0.00000E+00
 -1      1363-2.23836E+01 8.24647E+00 0.00000E+00
 -1      1364-2.16260E+01 1.00658E+01 0.00000E+00
 -1      1365-2.00483E+01 9.72192E+00 0.00000E+00
 -1      1366-2.28762E+01 4.95229E+00 0.00000E+00
 -1      1367-2.24139E+01 6.86812E+00 0.00000E+00
 -1      1368-2.10327E+01 7.35361E+00 0.00000E+00
 -1      1369-2.34583E+01 1.71149E-02 0.00000E+00
 -1      1370-2.33029E+01 1.98178E+00 0.00000E+00
 -1      1371-2.12593E+01 1.46159E+00 0.00000E+00
 -1      1372-2.26457E+01 3.40914E+00 0.00000E+00
 -1      1373-2.08325E+01 4.43210E+00 0.00000E+00
 -1      1374-2.33029E+01-1.94755E+00 0.00000E+00
 -1      1375-2.24050E+01-6.85384E+00 0.00000E+00
 -1      1376-2.28672E+01-4.93802E+00 0.00000E+00
 -1      1377-2.12613E+01-1.38831E+00 0.00000E+00
 -1      1378-2.26477E+01-3.37008E+00 0.00000E+00
 -1      1379-2.08256E+01-4.37877E+00 0.00000E+00
 -1      1380-2.16092E+01-1.00542E+01 0.00000E+00
 -1      1381-2.23668E+01-8.23487E+00 0.00000E+00
 -1      1382-2.10069E+01-7.32774E+00 0.00000E+00
 -1      1383-1.96270E+01-1.27272E+01 0.00000E+00
 -1      1384-2.06611E+01-1.10495E+01 0.00000E+00
 -1      1385-2.00207E+01-9.70407E+00 0.00000E+00
 -1      1386-1.65625E+01-1.66137E+01 0.00000E+00
 -1      1387-1.78474E+01-1.51194E+01 0.00000E+00
 -1      1388-1.60556E+01-1.40102E+01 0.00000E+00
 -1      1389-1.83895E+01-1.36459E+01 0.00000E+00
 -1      1390-1.78352E+01-1.16180E+01 0.00000E+00
 -1      1391-1.50586E+01-1.78875E+01 0.00000E+00
 -1      1392-1.09334E+01-2.07207E+01 0.00000E+00
 -1      1393-1.26188E+01-1.96991E+01 0.00000E+00
 -1      1394-1.40431E+01-1.60274E+01 0.00000E+00
 -1      1395-1.35882E+01-1.84311E+01 0.00000E+00
 -1      1396-1.16033E+01-1.78391E+01 0.00000E+00
 -1      1397-8.09843E+00-2.24137E+01 0.00000E+00
 -1      1398-9.92342E+00-2.16697E+01 0.00000E+00
 -1      1399-9.62381E+00-2.00561E+01 0.00000E+00
 -1      1400-4.80787E+00-2.28900E+01 0.00000E+00
 -1      1401-6.72710E+00-2.24421E+01 0.00000E+00
 -1      1402-7.24251E+00-2.10336E+01 0.00000E+00
 -1      1403 8.97952E-02-2.34606E+01 0.00000E+00
 -1      1404-1.87598E+00-2.33200E+01 0.00000E+00
 -1      1405-4.36243E+00-2.08310E+01 0.00000E+00
 -1      1406-3.29913E+00-2.26590E+01 0.00000E+00
 -1      1407-1.43054E+00-2.12610E+01 0.00000E+00
 -1      1408 2.05324E+00-2.32906E+01 0.00000E+00
 -1      1409 6.98859E+00-2.23596E+01 0.00000E+00
 -1      1410 5.07627E+00-2.28361E+01 0.00000E+00
 -1      1411 4.44123E+00-2.08117E+01 0.00000E+00
 -1      1412 3.47882E+00-2.26348E+01 0.00000E+00
 -1      1413 1.41820E+00-2.12662E+01 0.00000E+00
 -1      1414 1.01875E+01-2.15277E+01 0.00000E+00
 -1      1415 8.37387E+00-2.22988E+01 0.00000E+00
 -1      1416 7.42395E+00-2.09523E+01 0.00000E+00
 -1      1417 1.28218E+01-1.94821E+01 0.00000E+00
 -1      1418 1.11519E+01-2.05288E+01 0.00000E+00
 -1      1419 9.77359E+00-1.98927E+01 0.00000E+00
 -1      1420 1.66766E+01-1.62420E+01 0.00000E+00
 -1      1421 1.51920E+01-1.75381E+01 0.00000E+00
 -1      1422 1.38636E+01-1.54258E+01 0.00000E+00
 -1      1423 1.35772E+01-1.79582E+01 0.00000E+00
 -1      1424 1.14933E+01-1.73698E+01 0.00000E+00
 -1      1425 1.91028E+01-1.42733E+01 0.00000E+00
 -1      1426 1.78403E+01-1.57866E+01 0.00000E+00
 -1      1427 1.66421E+01-1.45504E+01 0.00000E+00
 -1      1428 2.05768E+01-1.27878E+01 0.00000E+00
 -1      1429 2.15857E+01-1.10949E+01 0.00000E+00
 -1      1430 1.98690E+01-1.16035E+01 0.00000E+00
 -1      1431 1.96921E+01-1.32672E+01 0.00000E+00
 -1      1432 1.83950E+01-1.30890E+01 0.00000E+00
 -1      1433 2.25497E+01 9.42361E+00 0.00000E+00
 -1      1434 2.26073E+01-1.01675E+01 0.00000E+00
 -1      1435 2.22549E+01-1.05638E+01 0.00000E+00
 -1      1436 2.25497E+01-9.42361E+00 0.00000E+00
 -1      1437 3.06498E+01 8.04601E+00 0.00000E+00
 -1      1438 2.86849E+01 8.12265E+00 0.00000E+00
 -1      1439 2.77492E+01 6.71186E+00 0.00000E+00
 -1      1440 2.71271E+01 8.38834E+00 0.00000E+00
 -1      1441 2.56586E+01 7.75203E+00 0.00000E+00
 -1      1442 3.42070E+01 7.87082E+00 0.00000E+00
 -1      1443 3.22421E+01 7.94746E+00 0.00000E+00
 -1      1444 3.08993E+01 6.34762E+00 0.00000E+00
 -1      1445 3.90001E+01 7.91909E+00 0.00000E+00
 -1      1446 3.70352E+01 7.99573E+00 0.00000E+00
 -1      1447 3.39529E+01 5.90720E+00 0.00000E+00
 -1      1448 3.56683E+01 7.52896E+00 0.00000E+00
 -1      1449 3.67810E+01 6.03211E+00 0.00000E+00
 -1      1450 4.29597E+01 7.56348E+00 0.00000E+00
 -1      1451 4.09948E+01 7.64012E+00 0.00000E+00
 -1      1452 4.01426E+01 6.21990E+00 0.00000E+00
 -1      1453 4.67335E+01 7.88741E+00 0.00000E+00
 -1      1454 4.47686E+01 7.96405E+00 0.00000E+00
 -1      1455 4.39463E+01 6.34150E+00 0.00000E+00
 -1      1456 5.05401E+01 7.29427E+00 0.00000E+00
 -1      1457 4.85752E+01 7.37091E+00 0.00000E+00
 -1      1458 4.75970E+01 6.22556E+00 0.00000E+00
 -1      1459 5.49053E+01 6.53573E+00 0.00000E+00
 -1      1460 5.29404E+01 6.61236E+00 0.00000E+00
 -1      1461 5.18390E+01 5.02716E+00 0.00000E+00
 -1      1462 5.85454E+01 7.41485E+00 0.00000E+00
 -1      1463 5.65805E+01 7.49149E+00 0.00000E+00
 -1      1464 5.59145E+01 5.30101E+00 0.00000E+00
 -1      1465 6.23664E+01 6.91545E+00 0.00000E+00
 -1      1466 6.04015E+01 6.99209E+00 0.00000E+00
 -1      1467 5.94457E+01 5.83401E+00 0.00000E+00
 -1      1468 6.63706E+01 6.93816E+00 0.00000E+00
 -1      1469 6.44057E+01 7.01479E+00 0.00000E+00
 -1      1470 6.33411E+01 5.51059E+00 0.00000E+00
 -1      1471 7.04039E+01 6.47357E+00 0.00000E+00
 -1      1472 6.84390E+01 6.55020E+00 0.00000E+00
 -1      1473 6.74489E+01 5.22198E+00 0.00000E+00
 -1      1474 7.41887E+01 6.91412E+00 0.00000E+00
 -1      1475 7.22238E+01 6.99075E+00 0.00000E+00
 -1      1476 7.13372E+01 5.35122E+00 0.00000E+00
 -1      1477 7.79162E+01 5.78728E+00 0.00000E+00
 -1      1478 7.59513E+01 5.86392E+00 0.00000E+00
 -1      1479 7.49197E+01 4.81821E+00 0.00000E+00
 -1      1480 8.13919E+01 6.22064E+00 0.00000E+00
 -1      1481 7.87063E+01 3.71986E+00 0.00000E+00
 -1      1482 7.99402E+01 5.73913E+00 0.00000E+00
 -1      1483 8.21821E+01 4.15322E+00 0.00000E+00
 -1      1484 3.11396E+01-8.64826E+00 0.00000E+00
 -1      1485 2.91747E+01-8.72490E+00 0.00000E+00
 -1      1486 2.54780E+01-7.74277E+00 0.00000E+00
 -1      1487 2.69767E+01-8.38062E+00 0.00000E+00
 -1      1488 2.70936E+01-6.65512E+00 0.00000E+00
 -1      1489 2.81799E+01-8.07363E+00 0.00000E+00
 -1      1490 2.92916E+01-6.99939E+00 0.00000E+00
 -1      1491 3.42929E+01-8.39603E+00 0.00000E+00
 -1      1492 3.23280E+01-8.47266E+00 0.00000E+00
 -1      1493 3.14749E+01-7.47507E+00 0.00000E+00
 -1      1494 3.86286E+01-7.79676E+00 0.00000E+00
 -1      1495 3.66637E+01-7.87339E+00 0.00000E+00
 -1      1496 3.57924E+01-5.55115E+00 0.00000E+00
 -1      1497 3.50512E+01-7.17033E+00 0.00000E+00
 -1      1498 3.34216E+01-6.07378E+00 0.00000E+00
 -1      1499 4.20582E+01-7.88341E+00 0.00000E+00
 -1      1500 4.00933E+01-7.96005E+00 0.00000E+00
 -1      1501 3.88696E+01-6.41750E+00 0.00000E+00
 -1      1502 4.68515E+01-7.76640E+00 0.00000E+00
 -1      1503 4.48866E+01-7.84304E+00 0.00000E+00
 -1      1504 4.44252E+01-5.94418E+00 0.00000E+00
 -1      1505 4.33206E+01-7.28717E+00 0.00000E+00
 -1      1506 4.15967E+01-5.98456E+00 0.00000E+00
 -1      1507 5.05401E+01-7.29427E+00 0.00000E+00
 -1      1508 4.85752E+01-7.37091E+00 0.00000E+00
 -1      1509 4.77149E+01-6.10455E+00 0.00000E+00
 -1      1510 5.49053E+01-6.53573E+00 0.00000E+00
 -1      1511 5.29404E+01-6.61236E+00 0.00000E+00
 -1      1512 5.18390E+01-5.02716E+00 0.00000E+00
 -1      1513 5.85266E+01-7.43538E+00 0.00000E+00
 -1      1514 5.65617E+01-7.51201E+00 0.00000E+00
 -1      1515 5.58957E+01-5.32154E+00 0.00000E+00
 -1      1516 6.23843E+01-6.89345E+00 0.00000E+00
 -1      1517 6.04194E+01-6.97008E+00 0.00000E+00
 -1      1518 5.94449E+01-5.83253E+00 0.00000E+00
 -1      1519 6.63313E+01-7.09952E+00 0.00000E+00
 -1      1520 6.43664E+01-7.17616E+00 0.00000E+00
 -1      1521 6.33198E+01-5.64995E+00 0.00000E+00
 -1      1522 7.00926E+01-6.19393E+00 0.00000E+00
 -1      1523 6.81277E+01-6.27057E+00 0.00000E+00
 -1      1524 6.70982E+01-5.10371E+00 0.00000E+00
 -1      1525 7.41346E+01-6.90397E+00 0.00000E+00
 -1      1526 7.21697E+01-6.98061E+00 0.00000E+00
 -1      1527 7.09718E+01-5.06144E+00 0.00000E+00
 -1      1528 7.75366E+01-5.94231E+00 0.00000E+00
 -1      1529 7.55717E+01-6.01895E+00 0.00000E+00
 -1      1530 7.44860E+01-4.96309E+00 0.00000E+00
 -1      1531 8.16779E+01-5.62894E+00 0.00000E+00
 -1      1532 7.97130E+01-5.70558E+00 0.00000E+00
 -1      1533 7.80996E+01-3.84134E+00 0.00000E+00
 -1      1534 8.19392E+01-4.00467E+00 0.00000E+00
 -1      1535 9.31033E+01-1.17794E+01 0.00000E+00
 -1      1536 9.15500E+01-1.05875E+01 0.00000E+00
 -1      1537 9.11612E+01-8.83883E+00 0.00000E+00
 -1      1538 9.33178E+01-8.81974E+00 0.00000E+00
 -1      1539 9.12737E+01-6.81212E+00 0.00000E+00
 -1      1540 9.49122E+01-1.25286E+01 0.00000E+00
 -1      1541 9.87069E+01-1.34346E+01 0.00000E+00
 -1      1542 9.67657E+01-1.31790E+01 0.00000E+00
 -1      1543 9.55602E+01-1.12188E+01 0.00000E+00
 -1      1544 1.03123E+02-1.31842E+01 0.00000E+00
 -1      1545 1.01181E+02-1.34398E+01 0.00000E+00
 -1      1546 9.87069E+01-1.09346E+01 0.00000E+00
 -1      1547 1.00000E+02-1.25000E+01 0.00000E+00
 -1      1548 1.01181E+02-1.09398E+01 0.00000E+00
 -1      1549 1.06897E+02-1.17794E+01 0.00000E+00
 -1      1550 1.05088E+02-1.25286E+01 0.00000E+00
 -1      1551 1.04328E+02-1.12240E+01 0.00000E+00
 -1      1552 1.08450E+02-1.05875E+01 0.00000E+00
 -1      1553 1.11779E+02-6.89670E+00 0.00000E+00
 -1      1554 1.10588E+02-8.45000E+00 0.00000E+00
 -1      1555 1.08839E+02-8.83883E+00 0.00000E+00
 -1      1556 1.08820E+02-6.68223E+00 0.00000E+00
 -1      1557 1.06682E+02-8.81974E+00 0.00000E+00
 -1      1558 1.12529E+02-5.08784E+00 0.00000E+00
 -1      1559 1.13179E+02-3.23425E+00 0.00000E+00
 -1      1560 1.11219E+02-4.43980E+00 0.00000E+00
 -1      1561 1.13206E+02 3.45259E+00 0.00000E+00
 -1      1562 1.12457E+02 5.26145E+00 0.00000E+00
 -1      1563 1.10414E+02 8.58533E+00 0.00000E+00
 -1      1564 1.11606E+02 7.03203E+00 0.00000E+00
 -1      1565 1.11072E+02 4.79348E+00 0.00000E+00
 -1      1566 1.07115E+02 1.15307E+01 0.00000E+00
 -1      1567 1.08668E+02 1.03388E+01 0.00000E+00
 -1      1568 1.08646E+02 6.81756E+00 0.00000E+00
 -1      1569 1.08839E+02 8.83883E+00 0.00000E+00
 -1      1570 1.06900E+02 8.57105E+00 0.00000E+00
 -1      1571 1.03453E+02 1.32060E+01 0.00000E+00
 -1      1572 1.05261E+02 1.24567E+01 0.00000E+00
 -1      1573 1.04876E+02 1.09971E+01 0.00000E+00
 -1      1574 1.01511E+02 1.34615E+01 0.00000E+00
 -1      1575 9.68774E+01 1.31842E+01 0.00000E+00
 -1      1576 9.88185E+01 1.34398E+01 0.00000E+00
 -1      1577 1.00000E+02 1.25000E+01 0.00000E+00
 -1      1578 9.88185E+01 1.09398E+01 0.00000E+00
 -1      1579 1.01511E+02 1.09615E+01 0.00000E+00
 -1      1580 9.31033E+01 1.17794E+01 0.00000E+00
 -1      1581 9.49122E+01 1.25286E+01 0.00000E+00
 -1      1582 9.56718E+01 1.12240E+01 0.00000E+00
 -1      1583 9.15500E+01 1.05875E+01 0.00000E+00
 -1      1584 9.11612E+01 8.83883E+00 0.00000E+00
 -1      1585 9.12733E+01 6.81514E+00 0.00000E+00
 -1      1586 9.33178E+01 8.81974E+00 0.00000E+00
 -1      1587 1.50133E+01 6.64014E+00 0.00000E+00
 -1      1588 1.57626E+01 4.83128E+00 0.00000E+00
 -1      1589 1.73419E+01 4.27212E+00 0.00000E+00
 -1      1590 1.18398E+01 1.16102E+01 0.00000E+00
 -1      1591 1.30317E+01 1.00569E+01 0.00000E+00
 -1      1592 1.71192E+01 7.12444E+00 0.00000E+00
 -1      1593 1.50963E+01 7.98430E+00 0.00000E+00
 -1      1594 1.67468E+01 9.96245E+00 0.00000E+00
 -1      1595 1.46409E+01 9.47815E+00 0.00000E+00
 -1      1596 1.46822E+01 1.20351E+01 0.00000E+00
 -1      1597 8.26539E+00 1.43170E+01 0.00000E+00
 -1      1598 9.81869E+00 1.31251E+01 0.00000E+00
 -1      1599 1.10519E+01 1.41287E+01 0.00000E+00
 -1      1600 6.45654E+00 1.50662E+01 0.00000E+00
 -1      1601 2.27106E+00 1.62547E+01 0.00000E+00
 -1      1602 4.21220E+00 1.59991E+01 0.00000E+00
 -1      1603 6.78645E+00 1.65765E+01 0.00000E+00
 -1      1604-2.24198E+00 1.63547E+01 0.00000E+00
 -1      1605-3.00841E-01 1.66103E+01 0.00000E+00
 -1      1606 1.97022E+00 1.78650E+01 0.00000E+00
 -1      1607-6.17715E+00 1.52018E+01 0.00000E+00
 -1      1608-4.36830E+00 1.59511E+01 0.00000E+00
 -1      1609-2.72799E+00 1.78169E+01 0.00000E+00
 -1      1610-9.88624E+00 1.31006E+01 0.00000E+00
 -1      1611-8.33294E+00 1.42925E+01 0.00000E+00
 -1      1612-7.01009E+00 1.65039E+01 0.00000E+00
 -1      1613-1.31777E+01 9.95465E+00 0.00000E+00
 -1      1614-1.19858E+01 1.15080E+01 0.00000E+00
 -1      1615-1.12654E+01 1.40020E+01 0.00000E+00
 -1      1616-1.52986E+01 6.22731E+00 0.00000E+00
 -1      1617-1.45493E+01 8.03617E+00 0.00000E+00
 -1      1618-1.47366E+01 1.04908E+01 0.00000E+00
 -1      1619-1.66459E+01 3.08356E-01 0.00000E+00
 -1      1620-1.63904E+01 2.24950E+00 0.00000E+00
 -1      1621-1.70152E+01 6.72281E+00 0.00000E+00
 -1      1622-1.62055E+01 4.37778E+00 0.00000E+00
 -1      1623-1.81070E+01 2.74499E+00 0.00000E+00
 -1      1624-1.59981E+01-4.21661E+00 0.00000E+00
 -1      1625-1.62536E+01-2.27546E+00 0.00000E+00
 -1      1626-1.78995E+01-1.96711E+00 0.00000E+00
 -1      1627-1.43708E+01-8.18886E+00 0.00000E+00
 -1      1628-1.51200E+01-6.38001E+00 0.00000E+00
 -1      1629-1.66292E+01-6.71433E+00 0.00000E+00
 -1      1630-1.19603E+01-1.15298E+01 0.00000E+00
 -1      1631-1.31522E+01-9.97647E+00 0.00000E+00
 -1      1632-1.45326E+01-1.06653E+01 0.00000E+00
 -1      1633-8.33294E+00-1.42925E+01 0.00000E+00
 -1      1634-9.88624E+00-1.31006E+01 0.00000E+00
 -1      1635-1.12399E+01-1.40238E+01 0.00000E+00
 -1      1636-4.36830E+00-1.59511E+01 0.00000E+00
 -1      1637-6.17715E+00-1.52018E+01 0.00000E+00
 -1      1638-7.01009E+00-1.65039E+01 0.00000E+00
 -1      1639-3.00841E-01-1.66103E+01 0.00000E+00
 -1      1640-2.24198E+00-1.63547E+01 0.00000E+00
 -1      1641-2.72799E+00-1.78169E+01 0.00000E+00
 -1      1642 4.21220E+00-1.59991E+01 0.00000E+00
 -1      1643 2.27106E+00-1.62547E+01 0.00000E+00
 -1      1644 1.97022E+00-1.78650E+01 0.00000E+00
 -1      1645 8.26539E+00-1.43170E+01 0.00000E+00
 -1      1646 6.45654E+00-1.50662E+01 0.00000E+00
 -1      1647 6.78645E+00-1.65765E+01 0.00000E+00
 -1      1648 9.81869E+00-1.31251E+01 0.00000E+00
 -1      1649 1.30317E+01-1.00569E+01 0.00000E+00
 -1      1650 1.18398E+01-1.16102E+01 0.00000E+00
 -1      1651 1.10519E+01-1.41287E+01 0.00000E+00
 -1      1652 1.57626E+01-4.83128E+00 0.00000E+00
 -1      1653 1.50133E+01-6.64014E+00 0.00000E+00
 -1      1654 1.46822E+01-1.20351E+01 0.00000E+00
 -1      1655 1.46409E+01-9.47815E+00 0.00000E+00
 -1      1656 1.67468E+01-9.96245E+00 0.00000E+00
 -1      1657 1.50963E+01-7.98430E+00 0.00000E+00
 -1      1658 1.71192E+01-7.12444E+00 0.00000E+00
 -1      1659 1.73419E+01-4.27212E+00 0.00000E+00
 -1      1660 1.05060E+02-9.90360E+00 0.00000E+00
 -1      1661 1.03095E+02-1.05592E+01 0.00000E+00
 -1      1662 1.09904E+02-5.06011E+00 0.00000E+00
 -1      1663 1.09730E+02 5.19545E+00 0.00000E+00
 -1      1664 1.05278E+02 9.65491E+00 0.00000E+00
 -1      1665 1.03425E+02 1.05809E+01 0.00000E+00
 -1      1666 9.69051E+01 1.05592E+01 0.00000E+00
 -1      1667 9.49399E+01 9.90360E+00 0.00000E+00
 -1      1668 9.01894E+01 5.19303E+00 0.00000E+00
 -1      1669 8.86862E+01 1.72576E+00 0.00000E+00
 -1      1670 8.90668E+01 3.63918E+00 0.00000E+00
 -1      1671 8.90697E+01-3.61805E+00 0.00000E+00
 -1      1672 8.86891E+01-1.70463E+00 0.00000E+00
 -1      1673 8.70322E+01-1.79366E+00 0.00000E+00
 -1      1674 8.83431E+01-8.90307E-02 0.00000E+00
 -1      1675 8.70293E+01 1.63673E+00 0.00000E+00
 -1      1676 9.01898E+01-5.19001E+00 0.00000E+00
 -1      1677 9.49399E+01-9.90360E+00 0.00000E+00
 -1      1678 9.67935E+01-1.05540E+01 0.00000E+00
 -1      1679 5.77998E+01 4.87069E+00 0.00000E+00
 -1      1680 5.96559E+01 4.44793E+00 0.00000E+00
 -1      1681 6.12974E+01 3.88551E+00 0.00000E+00
 -1      1682 5.03270E+01 3.82144E+00 0.00000E+00
 -1      1683 4.94761E+01-9.66908E-01 0.00000E+00
 -1      1684 4.94761E+01 9.66908E-01 0.00000E+00
 -1      1685 4.69504E+01 1.59202E+00 0.00000E+00
 -1      1686 4.86897E+01 2.55893E+00 0.00000E+00
 -1      1687 4.78013E+01 4.44655E+00 0.00000E+00
 -1      1688 5.03270E+01-3.82144E+00 0.00000E+00
 -1      1689 4.69504E+01-1.59202E+00 0.00000E+00
 -1      1690 4.86897E+01-2.55893E+00 0.00000E+00
 -1      1691 4.78013E+01-4.44655E+00 0.00000E+00
 -1      1692 5.77810E+01-4.89122E+00 0.00000E+00
 -1      1693 5.96738E+01-4.42593E+00 0.00000E+00
 -1      1694 6.13320E+01-3.87305E+00 0.00000E+00
 -1      1695 2.64206E+01-2.02614E+00 0.00000E+00
 -1      1696 2.54340E+01-1.01568E+00 0.00000E+00
 -1      1697 2.66995E+01-1.01046E+00 0.00000E+00
 -1      1698 2.77128E+01-1.00792E+00 0.00000E+00
 -1      1699 2.67262E+01 2.53768E-03 0.00000E+00
 -1      1700 2.57352E+01 1.17241E+00 0.00000E+00
 -1      1701 2.47239E+01-1.45653E-15 0.00000E+00
 -1      1702 2.47462E+01 1.17241E+00 0.00000E+00
 -1      1703 2.67485E+01 1.17495E+00 0.00000E+00
 -1      1704 2.44451E+01-1.01568E+00 0.00000E+00
 -1      1705 7.65026E+01-2.03903E+00 0.00000E+00
 -1      1706 7.86790E+01-1.80231E+00 0.00000E+00
 -1      1707 8.03087E+01-1.63996E+00 0.00000E+00
 -1      1708 7.87117E+01 1.62349E-01 0.00000E+00
 -1      1709 7.68821E+01 1.88401E+00 0.00000E+00
 -1      1710 7.54221E+01 5.69208E-16 0.00000E+00
 -1      1711 7.52222E+01 1.88401E+00 0.00000E+00
 -1      1712 7.85119E+01 2.04636E+00 0.00000E+00
 -1      1713 7.48427E+01-2.03903E+00 0.00000E+00
 -1      1714 8.54596E+01-2.26213E+00 0.00000E+00
 -1      1715 8.51136E+01-6.46527E-01 0.00000E+00
 -1      1716 8.52019E+01 8.10104E-01 0.00000E+00
 -1      1717 8.36293E+01 3.41639E-01 0.00000E+00
 -1      1718 8.55449E+01 2.62490E+00 0.00000E+00
 -1      1719 3.17950E+01 4.94498E+00 0.00000E+00
 -1      1720 3.02028E+01 5.04353E+00 0.00000E+00
 -1      1721 3.31579E+01 4.70580E+00 0.00000E+00
 -1      1722 3.24614E+01 3.40172E+00 0.00000E+00
 -1      1723 3.46192E+01 4.36394E+00 0.00000E+00
 -1      1724 1.42757E+01-1.38098E+01 0.00000E+00
 -1      1725 1.58849E+01-1.32310E+01 0.00000E+00
 -1      1726 1.26608E+01-1.42299E+01 0.00000E+00
 -1      1727 1.06398E+01-1.57447E+01 0.00000E+00
 -1      1728 2.43856E+01 6.38561E+00 0.00000E+00
 -1      1729 2.51806E+01 7.05754E+00 0.00000E+00
 -1      1730 2.53963E+01 6.30563E+00 0.00000E+00
 -1      1731 2.46478E+01 7.83202E+00 0.00000E+00
 -1      1732 2.35885E+01 7.96144E+00 0.00000E+00
 -1      1733 2.34561E+01 7.23012E+00 0.00000E+00
 -1      1734 2.28747E+01 8.05404E+00 0.00000E+00
 -1      1735 2.34571E+01 6.46016E+00 0.00000E+00
 -1      1736 2.36728E+01 5.70825E+00 0.00000E+00
 -1      1737 2.27433E+01 6.55276E+00 0.00000E+00
 -1      1738 4.59596E+01 4.96305E+00 0.00000E+00
 -1      1739 4.41507E+01 4.56248E+00 0.00000E+00
 -1      1740 8.35717E+01-2.75986E+00 0.00000E+00
 -1      1741 3.04545E+01 1.38073E+00 0.00000E+00
 -1      1742 2.99831E+01 2.81274E+00 0.00000E+00
 -1      1743 3.15699E+01 2.20889E+00 0.00000E+00
 -1      1744 3.29328E+01 1.96971E+00 0.00000E+00
 -1      1745 2.88492E+01 3.10984E+00 0.00000E+00
 -1      1746 2.99646E+01 3.93800E+00 0.00000E+00
 -1      1747 2.90688E+01 5.34064E+00 0.00000E+00
 -1      1748 7.08442E+01-3.70472E+00 0.00000E+00
 -1      1749 6.92279E+01-2.07215E+00 0.00000E+00
 -1      1750 7.11774E+01-1.50212E+00 0.00000E+00
 -1      1751 7.32779E+01-1.56735E+00 0.00000E+00
 -1      1752 7.16616E+01 6.52293E-02 0.00000E+00
 -1      1753 6.82405E+01 3.64850E+00 0.00000E+00
 -1      1754 6.95392E+01 2.48225E+00 0.00000E+00
 -1      1755 6.82624E+01 1.29672E+00 0.00000E+00
 -1      1756 7.12074E+01 3.99892E+00 0.00000E+00
 -1      1757 7.12293E+01 1.64713E+00 0.00000E+00
 -1      1758 6.75126E+01-2.33437E+00 0.00000E+00
 -1      1759 6.78458E+01-1.31759E-01 0.00000E+00
 -1      1760 7.33299E+01 1.58190E+00 0.00000E+00
 -1      1761 6.65471E+01 1.03450E+00 0.00000E+00
 -1      1762 3.74086E+01 4.62096E+00 0.00000E+00
 -1      1763 3.60418E+01 4.15419E+00 0.00000E+00
 -1      1764 3.52468E+01 2.95279E+00 0.00000E+00
 -1      1765 2.12804E+01 8.57201E+00 0.00000E+00
 -1      1766 2.06351E+01 7.97811E+00 0.00000E+00
 -1      1767 2.04956E+01 8.66225E+00 0.00000E+00
 -1      1768 2.02557E+01 9.57381E+00 0.00000E+00
 -1      1769 1.96104E+01 8.97992E+00 0.00000E+00
 -1      1770 2.11868E+01 7.10885E+00 0.00000E+00
 -1      1771 2.04020E+01 7.19909E+00 0.00000E+00
 -1      1772 1.82863E+01 9.18004E+00 0.00000E+00
 -1      1773 1.85262E+01 8.26847E+00 0.00000E+00
 -1      1774 2.00243E+01 6.35355E+00 0.00000E+00
 -1      1775 1.94726E+01 7.22282E+00 0.00000E+00
 -1      1776 1.81485E+01 7.42293E+00 0.00000E+00
 -1      1777 8.19412E+01-3.95147E-01 0.00000E+00
 -1      1778 8.19085E+01-2.35980E+00 0.00000E+00
 -1      1779 8.20295E+01 1.06148E+00 0.00000E+00
 -1      1780 7.29213E+01-4.49140E+00 0.00000E+00
 -1      1781 7.43584E+01-3.60638E+00 0.00000E+00
 -1      1782 4.45116E+01-4.28618E+00 0.00000E+00
 -1      1783 4.60776E+01-4.84204E+00 0.00000E+00
 -1      1784-1.44393E+01 1.39466E+01 0.00000E+00
 -1      1785-1.29689E+01 1.44902E+01 0.00000E+00
 -1      1786-1.49814E+01 1.24730E+01 0.00000E+00
 -1      1787 3.09151E+01-4.02858E-01 0.00000E+00
 -1      1788 2.93283E+01 2.00988E-01 0.00000E+00
 -1      1789 3.25703E+01-7.20694E-01 0.00000E+00
 -1      1790 3.14440E+01-1.90044E+00 0.00000E+00
 -1      1791 3.36360E+01 3.88444E-01 0.00000E+00
 -1      1792 3.41649E+01-1.10914E+00 0.00000E+00
 -1      1793 3.45274E+01 1.58127E+00 0.00000E+00
 -1      1794-2.01042E+01 3.25470E-01 0.00000E+00
 -1      1795-1.94469E+01 1.75283E+00 0.00000E+00
 -1      1796-1.94490E+01-1.09706E+00 0.00000E+00
 -1      1797 2.63363E+01 5.77658E+00 0.00000E+00
 -1      1798 2.55413E+01 5.10465E+00 0.00000E+00
 -1      1799 2.78941E+01 5.51088E+00 0.00000E+00
 -1      1800 2.14230E+01-1.05930E+01 0.00000E+00
 -1      1801 2.22135E+01 8.33661E+00 0.00000E+00
 -1      1802 2.20740E+01 9.02075E+00 0.00000E+00
 -1      1803 2.16166E+01 9.65901E+00 0.00000E+00
 -1      1804 2.20811E+01 7.60529E+00 0.00000E+00
 -1      1805 2.12804E+01-8.57201E+00 0.00000E+00
 -1      1806 2.04956E+01-8.66225E+00 0.00000E+00
 -1      1807 2.06351E+01-7.97811E+00 0.00000E+00
 -1      1808 2.02557E+01-9.57381E+00 0.00000E+00
 -1      1809 1.96104E+01-8.97992E+00 0.00000E+00
 -1      1810 2.00243E+01-6.35355E+00 0.00000E+00
 -1      1811 2.04020E+01-7.19909E+00 0.00000E+00
 -1      1812 1.94726E+01-7.22282E+00 0.00000E+00
 -1      1813 2.11868E+01-7.10885E+00 0.00000E+00
 -1      1814 1.81485E+01-7.42293E+00 0.00000E+00
 -1      1815 1.85262E+01-8.26847E+00 0.00000E+00
 -1      1816 1.82863E+01-9.18004E+00 0.00000E+00
 -1      1817-3.04534E-01 2.00712E+01 0.00000E+00
 -1      1818 1.12105E+00 1.94155E+01 0.00000E+00
 -1      1819 5.29039E+00 1.92612E+01 0.00000E+00
 -1      1820 3.69295E+00 1.90599E+01 0.00000E+00
 -1      1821 2.00621E+01 1.05078E+01 0.00000E+00
 -1      1822 2.09473E+01 1.01901E+01 0.00000E+00
 -1      1823 6.45152E+01-2.20227E-01 0.00000E+00
 -1      1824 6.34968E+01 1.31593E+00 0.00000E+00
 -1      1825 6.51121E+01 1.14218E+00 0.00000E+00
 -1      1826 6.26933E+01 2.51906E+00 0.00000E+00
 -1      1827 6.47370E+01 4.14414E+00 0.00000E+00
 -1      1828 6.26977E+01 4.04480E+00 0.00000E+00
 -1      1829 6.61721E+01 4.03645E+00 0.00000E+00
 -1      1830 6.55287E+01 2.57066E+00 0.00000E+00
 -1      1831 2.02761E+01-3.46349E+00 0.00000E+00
 -1      1832 1.86235E+01-3.65247E+00 0.00000E+00
 -1      1833 1.93001E+01-2.57497E+00 0.00000E+00
 -1      1834 1.83179E+01-5.16064E+00 0.00000E+00
 -1      1835 1.99431E+01-1.20074E+00 0.00000E+00
 -1      1836 4.58308E+01 2.16524E-13 0.00000E+00
 -1      1837 4.50444E+01 1.59202E+00 0.00000E+00
 -1      1838 4.50444E+01-1.59202E+00 0.00000E+00
 -1      1839 1.83179E+01 5.16064E+00 0.00000E+00
 -1      1840 1.86235E+01 3.65247E+00 0.00000E+00
 -1      1841 2.03879E+01 3.41702E+00 0.00000E+00
 -1      1842 1.94120E+01 2.52850E+00 0.00000E+00
 -1      1843 2.00549E+01 1.13878E+00 0.00000E+00
 -1      1844 2.43091E+01-6.32070E+00 0.00000E+00
 -1      1845 2.51372E+01-6.24271E+00 0.00000E+00
 -1      1846 2.50623E+01-7.04011E+00 0.00000E+00
 -1      1847 2.52769E+01-4.98807E+00 0.00000E+00
 -1      1848 2.60301E+01-5.70747E+00 0.00000E+00
 -1      1849 2.34848E+01-6.44729E+00 0.00000E+00
 -1      1850 2.35596E+01-5.64989E+00 0.00000E+00
 -1      1851 2.39096E+01-4.63146E+00 0.00000E+00
 -1      1852 2.48025E+01-4.09622E+00 0.00000E+00
 -1      1853 2.30853E+01-4.75804E+00 0.00000E+00
 -1      1854-1.94925E+01 5.42426E+00 0.00000E+00
 -1      1855-1.99518E+01 6.89364E+00 0.00000E+00
 -1      1856-1.83813E+01 6.34265E+00 0.00000E+00
 -1      1857-1.99215E+01 8.27199E+00 0.00000E+00
 -1      1858-1.76012E+01 9.64211E+00 0.00000E+00
 -1      1859-1.74744E+01 8.19218E+00 0.00000E+00
 -1      1860-1.89674E+01 9.26194E+00 0.00000E+00
 -1      1861-1.92621E+01 3.88111E+00 0.00000E+00
 -1      1862 1.93471E+01 5.45914E+00 0.00000E+00
 -1      1863 1.80655E+01 6.07878E+00 0.00000E+00
 -1      1864 2.02766E+01 5.43541E+00 0.00000E+00
 -1      1865 2.12993E+01 5.42460E+00 0.00000E+00
 -1      1866 2.06221E+01 4.53018E+00 0.00000E+00
 -1      1867 2.14106E+01 3.40621E+00 0.00000E+00
 -1      1868-1.92761E+01-5.24881E+00 0.00000E+00
 -1      1869-1.81093E+01-6.14400E+00 0.00000E+00
 -1      1870-1.98782E+01-6.84189E+00 0.00000E+00
 -1      1871-1.98400E+01-8.22292E+00 0.00000E+00
 -1      1872-1.74119E+01-9.78855E+00 0.00000E+00
 -1      1873-1.88920E+01-9.21822E+00 0.00000E+00
 -1      1874-1.72313E+01-8.30740E+00 0.00000E+00
 -1      1875 1.93471E+01-5.45914E+00 0.00000E+00
 -1      1876 2.02766E+01-5.43541E+00 0.00000E+00
 -1      1877 2.06221E+01-4.53018E+00 0.00000E+00
 -1      1878 2.12993E+01-5.42460E+00 0.00000E+00
 -1      1879 2.12988E+01-3.45268E+00 0.00000E+00
 -1      1880 1.80655E+01-6.07878E+00 0.00000E+00
 -1      1881 3.98098E+01-5.19374E+00 0.00000E+00
 -1      1882 4.10722E+01-4.59750E+00 0.00000E+00
 -1      1883 3.83451E+01-5.03045E+00 0.00000E+00
 -1      1884-9.89983E+00 1.73509E+01 0.00000E+00
 -1      1885-9.19101E+00 1.89035E+01 0.00000E+00
 -1      1886-8.45706E+00 1.71473E+01 0.00000E+00
 -1      1887-8.18104E+00 1.98525E+01 0.00000E+00
 -1      1888-5.36274E+00 1.92376E+01 0.00000E+00
 -1      1889-6.30127E+00 1.80566E+01 0.00000E+00
 -1      1890-6.80971E+00 1.98810E+01 0.00000E+00
 -1      1891 4.21106E+01 4.25692E+00 0.00000E+00
 -1      1892 4.41239E+01 2.87848E+00 0.00000E+00
 -1      1893 4.30043E+01 1.28646E+00 0.00000E+00
 -1      1894 2.18480E+01 6.82627E+00 0.00000E+00
 -1      1895-1.44138E+01-1.39684E+01 0.00000E+00
 -1      1896-1.29434E+01-1.45120E+01 0.00000E+00
 -1      1897-1.49559E+01-1.24948E+01 0.00000E+00
 -1      1898-1.72769E+00 1.94103E+01 0.00000E+00
 -1      1899-5.36274E+00-1.92376E+01 0.00000E+00
 -1      1900-3.85400E+00-1.90066E+01 0.00000E+00
 -1      1901-3.04534E-01-2.00712E+01 0.00000E+00
 -1      1902-1.72769E+00-1.94103E+01 0.00000E+00
 -1      1903 2.46499E+01-7.82076E+00 0.00000E+00
 -1      1904 2.72334E+01-5.40047E+00 0.00000E+00
 -1      1905 2.87642E+01-7.88765E-01 0.00000E+00
 -1      1906 2.87375E+01-1.80176E+00 0.00000E+00
 -1      1907 2.81436E+01-2.97946E+00 0.00000E+00
 -1      1908 2.91949E+01-2.76030E+00 0.00000E+00
 -1      1909 2.69280E+01-3.23687E+00 0.00000E+00
 -1      1910 2.56625E+01-3.24209E+00 0.00000E+00
 -1      1911 2.73855E+01-4.19541E+00 0.00000E+00
 -1      1912 2.20890E+01-2.08677E+00 0.00000E+00
 -1      1913 2.10646E+01-1.19299E+00 0.00000E+00
 -1      1914 2.22008E+01-8.93782E-01 0.00000E+00
 -1      1915 2.34801E+01-8.93782E-01 0.00000E+00
 -1      1916 2.24557E+01 2.26493E-15 0.00000E+00
 -1      1917 2.00549E+01-7.74511E-03 0.00000E+00
 -1      1918 2.11764E+01 1.14652E+00 0.00000E+00
 -1      1919 2.23105E+01 2.12472E+00 0.00000E+00
 -1      1920 2.23105E+01 9.78202E-01 0.00000E+00
 -1      1921 2.35898E+01 9.78202E-01 0.00000E+00
 -1      1922 2.83036E+01 9.94828E-01 0.00000E+00
 -1      1923 3.20172E+01-3.53923E+00 0.00000E+00
 -1      1924 3.03619E+01-3.22139E+00 0.00000E+00
 -1      1925 2.97681E+01-4.39909E+00 0.00000E+00
 -1      1926 6.90196E+00 1.98471E+01 0.00000E+00
 -1      1927 6.15368E+00 1.80953E+01 0.00000E+00
 -1      1928 8.28724E+00 1.97864E+01 0.00000E+00
 -1      1929 9.88437E+00 1.72687E+01 0.00000E+00
 -1      1930 8.39802E+00 1.71624E+01 0.00000E+00
 -1      1931 9.25160E+00 1.87875E+01 0.00000E+00
 -1      1932 1.78310E+01-1.06739E+01 0.00000E+00
 -1      1933 1.70486E+01-1.27756E+01 0.00000E+00
 -1      1934 1.91774E+01-1.09872E+01 0.00000E+00
 -1      1935 1.76379E+01-1.17696E+01 0.00000E+00
 -1      1936 4.24744E+01-3.97046E+00 0.00000E+00
 -1      1937 4.06875E+01-3.17964E+00 0.00000E+00
 -1      1938 3.78874E+01-1.44866E+00 0.00000E+00
 -1      1939 3.93176E+01-1.92168E+00 0.00000E+00
 -1      1940 3.78551E+01-3.33367E+00 0.00000E+00
 -1      1941 4.07198E+01-1.29464E+00 0.00000E+00
 -1      1942 3.69150E+01-4.55743E+00 0.00000E+00
 -1      1943 2.22135E+01-8.33661E+00 0.00000E+00
 -1      1944 2.20740E+01-9.02075E+00 0.00000E+00
 -1      1945 2.00621E+01-1.05078E+01 0.00000E+00
 -1      1946 2.09473E+01-1.01901E+01 0.00000E+00
 -1      1947 2.16166E+01-9.65901E+00 0.00000E+00
 -1      1948 6.48023E+01-4.48755E+00 0.00000E+00
 -1      1949 6.65987E+01-3.65860E+00 0.00000E+00
 -1      1950 6.52167E+01-1.71821E+00 0.00000E+00
 -1      1951 6.28202E+01-4.20484E+00 0.00000E+00
 -1      1952 6.28145E+01-2.71065E+00 0.00000E+00
 -1      1953 6.36013E+01-1.54446E+00 0.00000E+00
 -1      1954-1.90567E+01-3.68088E+00 0.00000E+00
 -1      1955 9.88437E+00-1.72687E+01 0.00000E+00
 -1      1956 4.41268E+01-2.86832E+00 0.00000E+00
 -1      1957 4.30072E+01-1.27630E+00 0.00000E+00
 -1      1958-3.85400E+00 1.90066E+01 0.00000E+00
 -1      1959 1.91774E+01 1.09872E+01 0.00000E+00
 -1      1960 1.78310E+01 1.06739E+01 0.00000E+00
 -1      1961 1.76379E+01 1.17696E+01 0.00000E+00
 -1      1962 1.70486E+01 1.27756E+01 0.00000E+00
 -1      1963 2.21939E+01-3.06280E+00 0.00000E+00
 -1      1964 2.33302E+01-2.76359E+00 0.00000E+00
 -1      1965 2.41902E+01-1.90946E+00 0.00000E+00
 -1      1966 2.42952E+01-2.88548E+00 0.00000E+00
 -1      1967 8.05359E+01 1.99820E+00 0.00000E+00
 -1      1968 8.22239E+01 2.73499E+00 0.00000E+00
 -1      1969 8.36757E+01 3.21650E+00 0.00000E+00
 -1      1970 2.73126E+01 2.16470E+00 0.00000E+00
 -1      1971 2.61194E+01 3.46021E+00 0.00000E+00
 -1      1972 2.76745E+01 3.28009E+00 0.00000E+00
 -1      1973 2.76559E+01 4.40535E+00 0.00000E+00
 -1      1974 4.07886E+01 4.81174E+00 0.00000E+00
 -1      1975 3.87939E+01 5.09071E+00 0.00000E+00
 -1      1976 3.80546E+01 3.21279E+00 0.00000E+00
 -1      1977 7.30274E+01 4.51611E+00 0.00000E+00
 -1      1978 2.40456E+01 4.69465E+00 0.00000E+00
 -1      1979 2.49856E+01 4.16560E+00 0.00000E+00
 -1      1980 2.31171E+01 4.76920E+00 0.00000E+00
 -1      1981 7.47899E+01 3.46591E+00 0.00000E+00
 -1      1982 4.07618E+01 3.12773E+00 0.00000E+00
 -1      1983 2.18480E+01-6.82627E+00 0.00000E+00
 -1      1984 2.20811E+01-7.60529E+00 0.00000E+00
 -1      1985 2.18445E+01-6.05315E+00 0.00000E+00
 -1      1986 2.21901E+01-5.14792E+00 0.00000E+00
 -1      1987 2.27388E+01-6.54960E+00 0.00000E+00
 -1      1988 2.18490E+01 6.05631E+00 0.00000E+00
 -1      1989 2.21946E+01 5.15108E+00 0.00000E+00
 -1      1990 3.58278E+01-1.43033E+00 0.00000E+00
 -1      1991 3.72902E+01-1.83343E-02 0.00000E+00
 -1      1992 3.80096E+01 1.35318E+00 0.00000E+00
 -1      1993 3.93948E+01 1.82294E+00 0.00000E+00
 -1      1994 4.07169E+01 1.26812E+00 0.00000E+00
 -1      1995 3.59500E+01 1.37152E+00 0.00000E+00
 -1      1996 4.16373E+01-1.83343E-02 0.00000E+00
 -1      1997 2.25400E+01-4.12949E+00 0.00000E+00
 -1      1998 2.23332E+01 3.02432E+00 0.00000E+00
 -1      1999 2.34673E+01 2.85600E+00 0.00000E+00
 -1      2000 2.25674E+01 4.13749E+00 0.00000E+00
 -1      2001 2.36207E+01-7.95173E+00 0.00000E+00
 -1      2002 2.46011E+01 2.15061E+00 0.00000E+00
 -1      2003 2.46237E+01 3.05021E+00 0.00000E+00
 -1      2004 5.29039E+00-1.92612E+01 0.00000E+00
 -1      2005 6.15368E+00-1.80953E+01 0.00000E+00
 -1      2006 6.90196E+00-1.98471E+01 0.00000E+00
 -1      2007 8.28724E+00-1.97864E+01 0.00000E+00
 -1      2008 3.69295E+00-1.90599E+01 0.00000E+00
 -1      2009 1.42757E+01 1.38098E+01 0.00000E+00
 -1      2010 1.58849E+01 1.32310E+01 0.00000E+00
 -1      2011 1.26608E+01 1.42299E+01 0.00000E+00
 -1      2012-9.89983E+00-1.73509E+01 0.00000E+00
 -1      2013-8.45706E+00-1.71473E+01 0.00000E+00
 -1      2014-9.19101E+00-1.89035E+01 0.00000E+00
 -1      2015-8.18104E+00-1.98525E+01 0.00000E+00
 -1      2016-1.08693E+01-1.60829E+01 0.00000E+00
 -1      2017-1.08693E+01 1.60829E+01 0.00000E+00
 -1      2018 3.53025E+01-3.85437E+00 0.00000E+00
 -1      2019 9.25160E+00-1.87875E+01 0.00000E+00
 -1      2020 8.39802E+00-1.71624E+01 0.00000E+00
 -1      2021 1.06398E+01 1.57447E+01 0.00000E+00
 -1      2022-1.63530E+01 1.05545E+01 0.00000E+00
 -1      2023-1.61745E+01-1.07072E+01 0.00000E+00
 -1      2024-6.80971E+00-1.98810E+01 0.00000E+00
 -1      2025-6.30127E+00-1.80566E+01 0.00000E+00
 -1      2026 2.28747E+01-8.05404E+00 0.00000E+00
 -1      2027 1.12105E+00-1.94155E+01 0.00000E+00
 -1      2028 2.34882E+01-7.22041E+00 0.00000E+00
 -1      2029 3.47621E+01-2.53946E+00 0.00000E+00
 -1      2030 3.36396E+01-3.53318E+00 0.00000E+00
 -1      2031 3.25575E+01-4.85413E+00 0.00000E+00
 -1      2032 3.17992E+01-6.07982E+00 0.00000E+00
 -1      2033 2.96159E+01-5.60415E+00 0.00000E+00
 -1      2034 3.06107E+01-6.25542E+00 0.00000E+00
 -1      2035 2.84490E+01-5.14306E+00 0.00000E+00
 -1      2036 2.27165E+01 1.06219E+01 8.33333E+00
 -1      2037 2.36061E+01 1.00446E+01 1.66667E+00
 -1      2038 2.27165E+01 1.06219E+01 1.66667E+00
 -1      2039 2.36061E+01 1.00446E+01 8.33333E+00
 -1      2040 2.31224E+01 1.02732E+01 6.66667E+00
 -1      2041 2.31224E+01 1.02732E+01 5.00000E+00
 -1      2042 2.31224E+01 1.02732E+01 3.33333E+00
 -1      2043 2.27165E+01-1.06219E+01 8.33333E+00
 -1      2044 2.36061E+01-1.00446E+01 1.66667E+00
 -1      2045 2.36061E+01-1.00446E+01 8.33333E+00
 -1      2046 2.31224E+01-1.02732E+01 3.33333E+00
 -1      2047 2.31224E+01-1.02732E+01 5.00000E+00
 -1      2048 2.27165E+01-1.06219E+01 1.66667E+00
 -1      2049 2.31224E+01-1.02732E+01 6.66667E+00
 -1      2050 2.57128E+01-3.17051E-15 1.00000E+01
 -1      2051 2.16448E+01 4.51937E+00 1.00000E+01
 -1      2052 2.16448E+01-4.51937E+00 1.00000E+01
 -1      2053 3.52306E+01 1.48134E-16 1.00000E+01
 -1      2054 1.98503E+01 8.06835E+00 1.00000E+01
 -1      2055 1.98503E+01-8.06835E+00 1.00000E+01
 -1      2056 6.95611E+01 1.30459E-01 1.00000E+01
 -1      2057 4.39248E+01 1.73685E-13 1.00000E+01
 -1      2058 7.70820E+01-4.27847E-17 1.00000E+01
 -1      2059 2.27423E+01 7.32272E+00 1.00000E+01
 -1      2060 2.64812E+01 4.57559E+00 1.00000E+01
 -1      2061 2.27423E+01-7.32272E+00 1.00000E+01
 -1      2062 2.61699E+01-4.45283E+00 1.00000E+01
 -1      2063 2.16964E+01 2.94994E-15 1.00000E+01
 -1      2064 2.97888E+01-1.58260E+00 1.00000E+01
 -1      2065 8.35410E+01-1.11499E+00 1.00000E+01
 -1      2066 2.58904E+01-6.96212E+00 1.00000E+01
 -1      2067 2.61914E+01 6.97756E+00 1.00000E+01
 -1      2068 3.10985E+01 3.64090E+00 1.00000E+01
 -1      2069 1.62915E+01 1.14563E+01 1.00000E+01
 -1      2070 1.62915E+01-1.14563E+01 1.00000E+01
 -1      2071 3.92853E+01-3.80668E+00 1.00000E+01
 -1      2072 3.94398E+01 3.68255E+00 1.00000E+01
 -1      2073 2.11409E+01-9.25615E+00 1.00000E+01
 -1      2074 2.11409E+01 9.25615E+00 1.00000E+01
 -1      2075 6.43028E+01-3.04244E+00 1.00000E+01
 -1      2076 6.40936E+01 2.67834E+00 1.00000E+01
 -1      2077 1.76476E+01-2.76395E+00 1.00000E+01
 -1      2078 1.76476E+01 2.76395E+00 1.00000E+01
 -1      2079-1.88406E+01 7.81202E+00 1.00000E+01
 -1      2080-1.87114E+01-7.73707E+00 1.00000E+01
 -1      2081-7.74824E+00 1.86999E+01 1.00000E+01
 -1      2082-7.74824E+00-1.86999E+01 1.00000E+01
 -1      2083 7.76525E+00 1.86812E+01 1.00000E+01
 -1      2084 7.76525E+00-1.86812E+01 1.00000E+01
 -1      2085 3.41799E+01-4.84808E+00 1.00000E+01
 -1      2086 2.84378E+00-2.06104E+01 1.00000E+01
 -1      2087 2.84378E+00 2.06104E+01 1.00000E+01
 -1      2088-1.25727E+01-1.65711E+01 1.00000E+01
 -1      2089-1.25727E+01 1.65711E+01 1.00000E+01
 -1      2090-2.06061E+01-2.81084E+00 1.00000E+01
 -1      2091 1.22487E+01-1.58459E+01 1.00000E+01
 -1      2092 1.22487E+01 1.58459E+01 1.00000E+01
 -1      2093 4.61640E+01-3.18404E+00 1.00000E+01
 -1      2094 4.61640E+01 3.18404E+00 1.00000E+01
 -1      2095 7.28976E+01 3.16381E+00 1.00000E+01
 -1      2096 7.27937E+01-3.13469E+00 1.00000E+01
 -1      2097-2.06021E+01 2.88895E+00 1.00000E+01
 -1      2098-1.65977E+01-1.25367E+01 1.00000E+01
 -1      2099-1.65977E+01 1.25367E+01 1.00000E+01
 -1      2100-2.85369E+00-2.06000E+01 1.00000E+01
 -1      2101-2.85369E+00 2.06000E+01 1.00000E+01
 -1      2102 1.89843E+01 1.20829E+01 1.00000E+01
 -1      2103 1.89843E+01-1.20829E+01 1.00000E+01
 -1      2104 2.33598E+01-1.87026E+00 1.00000E+01
 -1      2105 2.34446E+01 1.95640E+00 1.00000E+01
 -1      2106 8.07303E+01 3.67171E+00 1.00000E+01
 -1      2107 8.73724E+01 3.45153E+00 1.00000E+01
 -1      2108 3.09350E+01-4.86018E+00 1.00000E+01
 -1      2109 2.30072E+01 8.78536E+00 1.00000E+01
 -1      2110 2.30072E+01-8.78536E+00 1.00000E+01
 -1      2111 2.88677E+01 1.98458E+00 1.00000E+01
 -1      2112 3.54142E+01 5.56534E+00 1.00000E+01
 -1      2113 8.02760E+01-3.60461E+00 1.00000E+01
 -1      2114 1.70363E+01 5.78028E+00 1.00000E+01
 -1      2115 1.70363E+01-5.78028E+00 1.00000E+01
 -1      2116 6.95172E+01 4.83403E+00 1.00000E+01
 -1      2117 6.88947E+01-4.27476E+00 1.00000E+01
 -1      2118 2.46013E+01 5.63370E+00 1.00000E+01
 -1      2119 2.43840E+01-5.52331E+00 1.00000E+01
 -1      2120 4.77367E+01 2.60164E-13 1.00000E+01
 -1      2121 2.93070E+01 6.44617E+00 1.00000E+01
 -1      2122 7.66823E+01 3.76802E+00 1.00000E+01
 -1      2123 8.73781E+01-3.40926E+00 1.00000E+01
 -1      2124 2.76862E+01-2.02092E+00 1.00000E+01
 -1      2125 4.21374E+01 5.94093E+00 1.00000E+01
 -1      2126 4.28592E+01-5.38832E+00 1.00000E+01
 -1      2127 2.09537E+01-6.32982E+00 1.00000E+01
 -1      2128 2.09537E+01 6.32982E+00 1.00000E+01
 -1      2129 3.93499E+01-3.66686E-02 1.00000E+01
 -1      2130 2.10507E+01-2.36373E+00 1.00000E+01
 -1      2131 2.11764E+01 2.29304E+00 1.00000E+01
 -1      2132 6.13377E+01-5.36724E+00 1.00000E+01
 -1      2133 6.13018E+01 5.41125E+00 1.00000E+01
 -1      2134 2.51257E+01 8.52651E+00 1.00000E+01
 -1      2135 2.50656E+01-8.52342E+00 1.00000E+01
 -1      2136 4.94387E+01-5.70906E+00 1.00000E+01
 -1      2137 4.94387E+01 5.70906E+00 1.00000E+01
 -1      2138 1.72021E+01-8.46859E+00 1.00000E+01
 -1      2139 1.72021E+01 8.46859E+00 1.00000E+01
 -1      2140 2.57575E+01 2.34482E+00 1.00000E+01
 -1      2141 1.90365E+01-1.17820E-02 1.00000E+01
 -1      2142 7.59231E+01-4.07807E+00 1.00000E+01
 -1      2143 1.95994E+01-4.54100E+00 1.00000E+01
 -1      2144 1.95994E+01 4.54100E+00 1.00000E+01
 -1      2145 2.82969E+01-6.34812E+00 1.00000E+01
 -1      2146 6.03867E+00-2.10130E+01 1.00000E+01
 -1      2147 6.03867E+00 2.10130E+01 1.00000E+01
 -1      2148 2.37350E+01 3.81324E-15 1.00000E+01
 -1      2149 2.52832E+01-2.06366E+00 1.00000E+01
 -1      2150 1.54784E+01 1.50058E+01 1.00000E+01
 -1      2151 1.54784E+01-1.50058E+01 1.00000E+01
 -1      2152-1.06338E+01-1.91071E+01 1.00000E+01
 -1      2153-1.06338E+01 1.91071E+01 1.00000E+01
 -1      2154 3.74049E+01-6.25421E+00 1.00000E+01
 -1      2155-2.10451E+01-5.94670E+00 1.00000E+01
 -1      2156 1.07379E+01-1.88938E+01 1.00000E+01
 -1      2157 1.07379E+01 1.88938E+01 1.00000E+01
 -1      2158-2.10630E+01 5.97525E+00 1.00000E+01
 -1      2159 2.20922E+01-1.00619E+01 1.00000E+01
 -1      2160 2.20922E+01 1.00619E+01 1.00000E+01
 -1      2161-1.90942E+01 1.07119E+01 1.00000E+01
 -1      2162-1.90726E+01-1.06994E+01 1.00000E+01
 -1      2163-5.87117E+00 2.10621E+01 1.00000E+01
 -1      2164-5.87117E+00-2.10621E+01 1.00000E+01
 -1      2165 7.37622E+01 1.18120E-15 1.00000E+01
 -1      2166 8.03414E+01 3.24697E-01 1.00000E+01
 -1      2167 6.28999E+01-4.64786E-02 1.00000E+01
 -1      2168 8.36024E+01-4.40473E+00 1.00000E+01
 -1      2169 2.14199E+01-7.88787E+00 1.00000E+01
 -1      2170 2.14199E+01 7.88787E+00 1.00000E+01
 -1      2171 3.20413E+01 7.76889E-01 1.00000E+01
 -1      2172-2.19165E+01 3.42298E-02 1.00000E+01
 -1      2173-1.55135E+01-1.54838E+01 1.00000E+01
 -1      2174-1.55135E+01 1.54838E+01 1.00000E+01
 -1      2175-7.38561E-03-2.19219E+01 1.00000E+01
 -1      2176-7.38561E-03 2.19219E+01 1.00000E+01
 -1      2177 2.07538E+01-1.11241E+01 1.00000E+01
 -1      2178 1.93704E+01-9.89148E+00 1.00000E+01
 -1      2179 2.07538E+01 1.11241E+01 1.00000E+01
 -1      2180 1.93704E+01 9.89148E+00 1.00000E+01
 -1      2181 8.66862E+01-1.78061E-01 1.00000E+01
 -1      2182 3.81479E+01 6.49888E+00 1.00000E+01
 -1      2183 3.24916E+01 6.24907E+00 1.00000E+01
 -1      2184 1.30729E+01 1.26139E+01 1.00000E+01
 -1      2185 1.30729E+01-1.26139E+01 1.00000E+01
 -1      2186 2.41698E+01 7.13753E+00 1.00000E+01
 -1      2187 2.42342E+01-7.11810E+00 1.00000E+01
 -1      2188 3.30993E+01-2.21828E+00 1.00000E+01
 -1      2189 3.64250E+01-2.86065E+00 1.00000E+01
 -1      2190 6.53018E+01-5.93266E+00 1.00000E+01
 -1      2191 6.53805E+01 5.60993E+00 1.00000E+01
 -1      2192 4.54211E+00-1.75094E+01 1.00000E+01
 -1      2193 4.54211E+00 1.75094E+01 1.00000E+01
 -1      2194-9.16588E+00-1.55946E+01 1.00000E+01
 -1      2195-9.16588E+00 1.55946E+01 1.00000E+01
 -1      2196-1.75072E+01-4.55093E+00 1.00000E+01
 -1      2197 8.36338E+01 4.63473E+00 1.00000E+01
 -1      2198 9.03079E+00 1.56435E+01 1.00000E+01
 -1      2199 9.03079E+00-1.56435E+01 1.00000E+01
 -1      2200-1.79221E+01 4.87327E+00 1.00000E+01
 -1      2201-1.61083E+01 8.57234E+00 1.00000E+01
 -1      2202-1.57512E+01-8.87773E+00 1.00000E+01
 -1      2203-4.85430E+00 1.74132E+01 1.00000E+01
 -1      2204-4.85430E+00-1.74132E+01 1.00000E+01
 -1      2205 6.61306E+01-3.93976E-01 1.00000E+01
 -1      2206-1.82918E+01 6.16711E-01 1.00000E+01
 -1      2207-1.33140E+01-1.24529E+01 1.00000E+01
 -1      2208-1.33650E+01 1.24093E+01 1.00000E+01
 -1      2209-6.01682E-01-1.82206E+01 1.00000E+01
 -1      2210-6.01682E-01 1.82206E+01 1.00000E+01
 -1      2211 3.66694E+01 2.74303E+00 1.00000E+01
 -1      2212 8.96176E+01 6.55922E+00 1.00000E+01
 -1      2213 9.76370E+01 1.18796E+01 1.00000E+01
 -1      2214 1.10568E+02-6.29339E+00 1.00000E+01
 -1      2215 1.11923E+02 3.02289E+00 1.00000E+01
 -1      2216 1.11869E+02-2.58621E+00 1.00000E+01
 -1      2217 1.10222E+02 6.56406E+00 1.00000E+01
 -1      2218 9.37066E+01-1.05684E+01 1.00000E+01
 -1      2219 9.37066E+01 1.05684E+01 1.00000E+01
 -1      2220 9.74138E+01-1.18692E+01 1.00000E+01
 -1      2221 1.02363E+02-1.18796E+01 1.00000E+01
 -1      2222 1.06729E+02 1.00710E+01 1.00000E+01
 -1      2223 1.06293E+02-1.05684E+01 1.00000E+01
 -1      2224 8.96185E+01-6.55318E+00 1.00000E+01
 -1      2225 1.03023E+02 1.19231E+01 1.00000E+01
 -1      2226 2.77395E+01 5.07535E-03 1.00000E+01
 -1      2227 1.90948E+01 6.37728E+00 1.00000E+01
 -1      2228 1.90948E+01-6.37728E+00 1.00000E+01
 -1      2229 5.75521E+01-6.29782E+00 1.00000E+01
 -1      2230 5.75897E+01 6.25677E+00 1.00000E+01
 -1      2231 2.34899E+01 3.75560E+00 1.00000E+01
 -1      2232 2.35100E+01-3.79655E+00 1.00000E+01
 -1      2233 4.59911E+01-6.50004E+00 1.00000E+01
 -1      2234 4.57553E+01 6.74206E+00 1.00000E+01
 -1      2235 4.20897E+01-2.55261E+00 1.00000E+01
 -1      2236 4.20839E+01 2.57291E+00 1.00000E+01
 -1      2237 2.88306E+01 4.23511E+00 1.00000E+01
 -1      2238 3.02864E+01-7.65066E+00 1.00000E+01
 -1      2239 3.26633E+01-7.29947E+00 1.00000E+01
 -1      2240 6.13263E+01-2.37886E+00 1.00000E+01
 -1      2241 6.12931E+01 2.35977E+00 1.00000E+01
 -1      2242 8.80923E+00-2.08916E+01 1.00000E+01
 -1      2243 8.80923E+00 2.08916E+01 1.00000E+01
 -1      2244 1.78058E+01-1.40950E+01 1.00000E+01
 -1      2245 1.78058E+01 1.40950E+01 1.00000E+01
 -1      2246-8.61384E+00-2.10051E+01 1.00000E+01
 -1      2247-8.61384E+00 2.10051E+01 1.00000E+01
 -1      2248-2.09687E+01-8.70877E+00 1.00000E+01
 -1      2249-2.10025E+01 8.73197E+00 1.00000E+01
 -1      2250 2.86011E+01-3.93800E+00 1.00000E+01
 -1      2251 4.03343E+01-6.58080E+00 1.00000E+01
 -1      2252 8.37175E+01 1.79827E+00 1.00000E+01
 -1      2253 2.27443E+01 5.78280E+00 1.00000E+01
 -1      2254 2.27386E+01-5.77894E+00 1.00000E+01
 -1      2255 3.38243E+01 3.16254E+00 1.00000E+01
 -1      2256 6.69637E+01 2.46298E+00 1.00000E+01
 -1      2257 7.31572E+01 5.86841E+00 1.00000E+01
 -1      2258 7.30489E+01-5.84812E+00 1.00000E+01
 -1      2259 2.05768E+01 1.27878E+01 1.00000E+01
 -1      2260 2.15857E+01 1.10949E+01 1.00000E+01
 -1      2261 2.22549E+01 1.05638E+01 1.00000E+01
 -1      2262 2.26073E+01 1.01675E+01 1.00000E+01
 -1      2263 2.14230E+01 1.05930E+01 1.00000E+01
 -1      2264 2.15857E+01-1.10949E+01 1.00000E+01
 -1      2265 2.05768E+01-1.27878E+01 1.00000E+01
 -1      2266 2.26073E+01-1.01675E+01 1.00000E+01
 -1      2267 2.22549E+01-1.05638E+01 1.00000E+01
 -1      2268 2.14230E+01-1.05930E+01 1.00000E+01
 -1      2269 2.30648E+01 9.52927E+00 1.00000E+01
 -1      2270 2.35701E+01 9.36888E+00 1.00000E+01
 -1      2271 2.46294E+01 9.23946E+00 1.00000E+01
 -1      2272 2.65943E+01 9.16282E+00 1.00000E+01
 -1      2273 2.40665E+01 8.65593E+00 1.00000E+01
 -1      2274 2.35701E+01-9.36888E+00 1.00000E+01
 -1      2275 2.30648E+01-9.52927E+00 1.00000E+01
 -1      2276 2.65642E+01-9.16128E+00 1.00000E+01
 -1      2277 2.45993E+01-9.23791E+00 1.00000E+01
 -1      2278 2.40364E+01-8.65439E+00 1.00000E+01
 -1      2279 8.83136E+01 7.02961E+00 1.00000E+01
 -1      2280 8.95055E+01 8.58291E+00 1.00000E+01
 -1      2281 8.33568E+01 6.14400E+00 1.00000E+01
 -1      2282 8.53217E+01 6.06737E+00 1.00000E+01
 -1      2283 8.55031E+01 4.04313E+00 1.00000E+01
 -1      2284 8.71910E+01 5.47576E+00 1.00000E+01
 -1      2285 8.84950E+01 5.00537E+00 1.00000E+01
 -1      2286 8.53060E+01-5.95236E+00 1.00000E+01
 -1      2287 8.33411E+01-6.02900E+00 1.00000E+01
 -1      2288 8.95059E+01-8.57989E+00 1.00000E+01
 -1      2289 8.83140E+01-7.02659E+00 1.00000E+01
 -1      2290 8.71939E+01-5.45463E+00 1.00000E+01
 -1      2291 8.54903E+01-3.90699E+00 1.00000E+01
 -1      2292 8.84983E+01-4.98122E+00 1.00000E+01
 -1      2293 6.04905E+01 1.17989E+00 1.00000E+01
 -1      2294 5.96515E+01 2.92220E+00 1.00000E+01
 -1      2295 5.96681E+01-2.93174E+00 1.00000E+01
 -1      2296 6.05072E+01-1.18943E+00 1.00000E+01
 -1      2297 6.21131E+01-1.21267E+00 1.00000E+01
 -1      2298 6.12939E+01-2.32393E-02 1.00000E+01
 -1      2299 6.20965E+01 1.15665E+00 1.00000E+01
 -1      2300 1.63238E+01 1.38197E+00 1.00000E+01
 -1      2301 1.60682E+01 3.32312E+00 1.00000E+01
 -1      2302 1.60682E+01-3.32312E+00 1.00000E+01
 -1      2303 1.63238E+01-1.38197E+00 1.00000E+01
 -1      2304 1.83420E+01-1.38787E+00 1.00000E+01
 -1      2305 1.70182E+01-5.89099E-03 1.00000E+01
 -1      2306 1.83420E+01 1.37608E+00 1.00000E+01
 -1      2307 1.12500E+02-8.49831E-15 1.00000E+01
 -1      2308 1.13462E+02 1.51145E+00 1.00000E+01
 -1      2309 1.10962E+02 1.51145E+00 1.00000E+01
 -1      2310 1.13435E+02-1.29311E+00 1.00000E+01
 -1      2311 1.10935E+02-1.29311E+00 1.00000E+01
 -1      2312 1.10581E+02 3.42486E+00 1.00000E+01
 -1      2313 1.10554E+02-3.20652E+00 1.00000E+01
 -1      2314 1.78403E+01 1.57866E+01 1.00000E+01
 -1      2315 1.91028E+01 1.42733E+01 1.00000E+01
 -1      2316 1.96921E+01 1.32672E+01 1.00000E+01
 -1      2317 1.98690E+01 1.16035E+01 1.00000E+01
 -1      2318 1.83950E+01 1.30890E+01 1.00000E+01
 -1      2319 1.51920E+01 1.75381E+01 1.00000E+01
 -1      2320 1.66766E+01 1.62420E+01 1.00000E+01
 -1      2321 1.66421E+01 1.45504E+01 1.00000E+01
 -1      2322 1.11519E+01 2.05288E+01 1.00000E+01
 -1      2323 1.28218E+01 1.94821E+01 1.00000E+01
 -1      2324 1.35772E+01 1.79582E+01 1.00000E+01
 -1      2325 1.38636E+01 1.54258E+01 1.00000E+01
 -1      2326 1.14933E+01 1.73698E+01 1.00000E+01
 -1      2327 8.37387E+00 2.22988E+01 1.00000E+01
 -1      2328 1.01875E+01 2.15277E+01 1.00000E+01
 -1      2329 9.77359E+00 1.98927E+01 1.00000E+01
 -1      2330 5.07627E+00 2.28361E+01 1.00000E+01
 -1      2331 6.98859E+00 2.23596E+01 1.00000E+01
 -1      2332 7.42395E+00 2.09523E+01 1.00000E+01
 -1      2333 8.97952E-02 2.34606E+01 1.00000E+01
 -1      2334 2.05324E+00 2.32906E+01 1.00000E+01
 -1      2335 3.47882E+00 2.26348E+01 1.00000E+01
 -1      2336 4.44123E+00 2.08117E+01 1.00000E+01
 -1      2337 1.41820E+00 2.12662E+01 1.00000E+01
 -1      2338-1.87598E+00 2.33200E+01 1.00000E+01
 -1      2339-6.72710E+00 2.24421E+01 1.00000E+01
 -1      2340-4.80787E+00 2.28900E+01 1.00000E+01
 -1      2341-3.29913E+00 2.26590E+01 1.00000E+01
 -1      2342-1.43054E+00 2.12610E+01 1.00000E+01
 -1      2343-4.36243E+00 2.08310E+01 1.00000E+01
 -1      2344-9.92342E+00 2.16697E+01 1.00000E+01
 -1      2345-8.09843E+00 2.24137E+01 1.00000E+01
 -1      2346-7.24251E+00 2.10336E+01 1.00000E+01
 -1      2347-1.26188E+01 1.96991E+01 1.00000E+01
 -1      2348-1.09334E+01 2.07207E+01 1.00000E+01
 -1      2349-9.62381E+00 2.00561E+01 1.00000E+01
 -1      2350-1.65625E+01 1.66137E+01 1.00000E+01
 -1      2351-1.50586E+01 1.78875E+01 1.00000E+01
 -1      2352-1.40431E+01 1.60274E+01 1.00000E+01
 -1      2353-1.35882E+01 1.84311E+01 1.00000E+01
 -1      2354-1.16033E+01 1.78391E+01 1.00000E+01
 -1      2355-1.78474E+01 1.51194E+01 1.00000E+01
 -1      2356-2.06719E+01 1.10558E+01 1.00000E+01
 -1      2357-1.96378E+01 1.27335E+01 1.00000E+01
 -1      2358-1.83895E+01 1.36459E+01 1.00000E+01
 -1      2359-1.60556E+01 1.40102E+01 1.00000E+01
 -1      2360-1.78460E+01 1.16243E+01 1.00000E+01
 -1      2361-2.23836E+01 8.24647E+00 1.00000E+01
 -1      2362-2.16260E+01 1.00658E+01 1.00000E+01
 -1      2363-2.00483E+01 9.72192E+00 1.00000E+01
 -1      2364-2.28762E+01 4.95229E+00 1.00000E+01
 -1      2365-2.24139E+01 6.86812E+00 1.00000E+01
 -1      2366-2.10327E+01 7.35361E+00 1.00000E+01
 -1      2367-2.34583E+01 1.71149E-02 1.00000E+01
 -1      2368-2.33029E+01 1.98178E+00 1.00000E+01
 -1      2369-2.12593E+01 1.46159E+00 1.00000E+01
 -1      2370-2.26457E+01 3.40914E+00 1.00000E+01
 -1      2371-2.08325E+01 4.43210E+00 1.00000E+01
 -1      2372-2.33029E+01-1.94755E+00 1.00000E+01
 -1      2373-2.24050E+01-6.85384E+00 1.00000E+01
 -1      2374-2.28672E+01-4.93802E+00 1.00000E+01
 -1      2375-2.26477E+01-3.37008E+00 1.00000E+01
 -1      2376-2.12613E+01-1.38831E+00 1.00000E+01
 -1      2377-2.08256E+01-4.37877E+00 1.00000E+01
 -1      2378-2.16092E+01-1.00542E+01 1.00000E+01
 -1      2379-2.23668E+01-8.23487E+00 1.00000E+01
 -1      2380-2.10069E+01-7.32774E+00 1.00000E+01
 -1      2381-1.96270E+01-1.27272E+01 1.00000E+01
 -1      2382-2.06611E+01-1.10495E+01 1.00000E+01
 -1      2383-2.00207E+01-9.70407E+00 1.00000E+01
 -1      2384-1.65625E+01-1.66137E+01 1.00000E+01
 -1      2385-1.78474E+01-1.51194E+01 1.00000E+01
 -1      2386-1.60556E+01-1.40102E+01 1.00000E+01
 -1      2387-1.83895E+01-1.36459E+01 1.00000E+01
 -1      2388-1.78352E+01-1.16180E+01 1.00000E+01
 -1      2389-1.50586E+01-1.78875E+01 1.00000E+01
 -1      2390-1.09334E+01-2.07207E+01 1.00000E+01
 -1      2391-1.26188E+01-1.96991E+01 1.00000E+01
 -1      2392-1.35882E+01-1.84311E+01 1.00000E+01
 -1      2393-1.40431E+01-1.60274E+01 1.00000E+01
 -1      2394-1.16033E+01-1.78391E+01 1.00000E+01
 -1      2395-8.09843E+00-2.24137E+01 1.00000E+01
 -1      2396-9.92342E+00-2.16697E+01 1.00000E+01
 -1      2397-9.62381E+00-2.00561E+01 1.00000E+01
 -1      2398-4.80787E+00-2.28900E+01 1.00000E+01
 -1      2399-6.72710E+00-2.24421E+01 1.00000E+01
 -1      2400-7.24251E+00-2.10336E+01 1.00000E+01
 -1      2401 8.97952E-02-2.34606E+01 1.00000E+01
 -1      2402-1.87598E+00-2.33200E+01 1.00000E+01
 -1      2403-1.43054E+00-2.12610E+01 1.00000E+01
 -1      2404-3.29913E+00-2.26590E+01 1.00000E+01
 -1      2405-4.36243E+00-2.08310E+01 1.00000E+01
 -1      2406 2.05324E+00-2.32906E+01 1.00000E+01
 -1      2407 6.98859E+00-2.23596E+01 1.00000E+01
 -1      2408 5.07627E+00-2.28361E+01 1.00000E+01
 -1      2409 4.44123E+00-2.08117E+01 1.00000E+01
 -1      2410 3.47882E+00-2.26348E+01 1.00000E+01
 -1      2411 1.41820E+00-2.12662E+01 1.00000E+01
 -1      2412 1.01875E+01-2.15277E+01 1.00000E+01
 -1      2413 8.37387E+00-2.22988E+01 1.00000E+01
 -1      2414 7.42395E+00-2.09523E+01 1.00000E+01
 -1      2415 1.28218E+01-1.94821E+01 1.00000E+01
 -1      2416 1.11519E+01-2.05288E+01 1.00000E+01
 -1      2417 9.77359E+00-1.98927E+01 1.00000E+01
 -1      2418 1.66766E+01-1.62420E+01 1.00000E+01
 -1      2419 1.51920E+01-1.75381E+01 1.00000E+01
 -1      2420 1.38636E+01-1.54258E+01 1.00000E+01
 -1      2421 1.35772E+01-1.79582E+01 1.00000E+01
 -1      2422 1.14933E+01-1.73698E+01 1.00000E+01
 -1      2423 1.91028E+01-1.42733E+01 1.00000E+01
 -1      2424 1.78403E+01-1.57866E+01 1.00000E+01
 -1      2425 1.66421E+01-1.45504E+01 1.00000E+01
 -1      2426 1.98690E+01-1.16035E+01 1.00000E+01
 -1      2427 1.96921E+01-1.32672E+01 1.00000E+01
 -1      2428 1.83950E+01-1.30890E+01 1.00000E+01
 -1      2429 1.07115E+02 1.15307E+01 1.00000E+01
 -1      2430 1.08668E+02 1.03388E+01 1.00000E+01
 -1      2431 1.10414E+02 8.58533E+00 1.00000E+01
 -1      2432 1.11606E+02 7.03203E+00 1.00000E+01
 -1      2433 1.08646E+02 6.81756E+00 1.00000E+01
 -1      2434 1.08839E+02 8.83883E+00 1.00000E+01
 -1      2435 1.06900E+02 8.57105E+00 1.00000E+01
 -1      2436 1.03453E+02 1.32060E+01 1.00000E+01
 -1      2437 1.05261E+02 1.24567E+01 1.00000E+01
 -1      2438 1.04876E+02 1.09971E+01 1.00000E+01
 -1      2439 1.01511E+02 1.34615E+01 1.00000E+01
 -1      2440 9.68774E+01 1.31842E+01 1.00000E+01
 -1      2441 9.88185E+01 1.34398E+01 1.00000E+01
 -1      2442 1.00000E+02 1.25000E+01 1.00000E+01
 -1      2443 9.88185E+01 1.09398E+01 1.00000E+01
 -1      2444 1.01511E+02 1.09615E+01 1.00000E+01
 -1      2445 9.31033E+01 1.17794E+01 1.00000E+01
 -1      2446 9.49122E+01 1.25286E+01 1.00000E+01
 -1      2447 9.56718E+01 1.12240E+01 1.00000E+01
 -1      2448 9.15500E+01 1.05875E+01 1.00000E+01
 -1      2449 9.11612E+01 8.83883E+00 1.00000E+01
 -1      2450 9.12733E+01 6.81514E+00 1.00000E+01
 -1      2451 9.33178E+01 8.81974E+00 1.00000E+01
 -1      2452 5.77998E+01 4.87069E+00 1.00000E+01
 -1      2453 5.59145E+01 5.30101E+00 1.00000E+01
 -1      2454 5.96559E+01 4.44793E+00 1.00000E+01
 -1      2455 5.94457E+01 5.83401E+00 1.00000E+01
 -1      2456 6.12974E+01 3.88551E+00 1.00000E+01
 -1      2457 5.18390E+01 5.02716E+00 1.00000E+01
 -1      2458 5.03270E+01 3.82144E+00 1.00000E+01
 -1      2459 5.29404E+01 6.61236E+00 1.00000E+01
 -1      2460 5.49053E+01 6.53573E+00 1.00000E+01
 -1      2461 5.05401E+01 7.29427E+00 1.00000E+01
 -1      2462 5.65805E+01 7.49149E+00 1.00000E+01
 -1      2463 4.94761E+01 9.66908E-01 1.00000E+01
 -1      2464 4.94761E+01-9.66908E-01 1.00000E+01
 -1      2465 4.86897E+01 2.55893E+00 1.00000E+01
 -1      2466 4.69504E+01 1.59202E+00 1.00000E+01
 -1      2467 4.78013E+01 4.44655E+00 1.00000E+01
 -1      2468 5.03270E+01-3.82144E+00 1.00000E+01
 -1      2469 5.18390E+01-5.02716E+00 1.00000E+01
 -1      2470 4.69504E+01-1.59202E+00 1.00000E+01
 -1      2471 4.86897E+01-2.55893E+00 1.00000E+01
 -1      2472 4.78013E+01-4.44655E+00 1.00000E+01
 -1      2473 5.58957E+01-5.32154E+00 1.00000E+01
 -1      2474 5.77810E+01-4.89122E+00 1.00000E+01
 -1      2475 5.49053E+01-6.53573E+00 1.00000E+01
 -1      2476 5.29404E+01-6.61236E+00 1.00000E+01
 -1      2477 5.05401E+01-7.29427E+00 1.00000E+01
 -1      2478 5.65617E+01-7.51201E+00 1.00000E+01
 -1      2479 5.94449E+01-5.83253E+00 1.00000E+01
 -1      2480 5.96738E+01-4.42593E+00 1.00000E+01
 -1      2481 6.13320E+01-3.87305E+00 1.00000E+01
 -1      2482 1.57626E+01 4.83128E+00 1.00000E+01
 -1      2483 1.50133E+01 6.64014E+00 1.00000E+01
 -1      2484 1.73419E+01 4.27212E+00 1.00000E+01
 -1      2485 1.30317E+01 1.00569E+01 1.00000E+01
 -1      2486 1.18398E+01 1.16102E+01 1.00000E+01
 -1      2487 1.50963E+01 7.98430E+00 1.00000E+01
 -1      2488 1.67468E+01 9.96245E+00 1.00000E+01
 -1      2489 1.46409E+01 9.47815E+00 1.00000E+01
 -1      2490 1.46822E+01 1.20351E+01 1.00000E+01
 -1      2491 1.71192E+01 7.12444E+00 1.00000E+01
 -1      2492 9.81869E+00 1.31251E+01 1.00000E+01
 -1      2493 8.26539E+00 1.43170E+01 1.00000E+01
 -1      2494 1.10519E+01 1.41287E+01 1.00000E+01
 -1      2495 6.45654E+00 1.50662E+01 1.00000E+01
 -1      2496 4.21220E+00 1.59991E+01 1.00000E+01
 -1      2497 2.27106E+00 1.62547E+01 1.00000E+01
 -1      2498 6.78645E+00 1.65765E+01 1.00000E+01
 -1      2499-3.00841E-01 1.66103E+01 1.00000E+01
 -1      2500-2.24198E+00 1.63547E+01 1.00000E+01
 -1      2501 1.97022E+00 1.78650E+01 1.00000E+01
 -1      2502-4.36830E+00 1.59511E+01 1.00000E+01
 -1      2503-6.17715E+00 1.52018E+01 1.00000E+01
 -1      2504-2.72799E+00 1.78169E+01 1.00000E+01
 -1      2505-8.33294E+00 1.42925E+01 1.00000E+01
 -1      2506-9.88624E+00 1.31006E+01 1.00000E+01
 -1      2507-7.01009E+00 1.65039E+01 1.00000E+01
 -1      2508-1.19858E+01 1.15080E+01 1.00000E+01
 -1      2509-1.31777E+01 9.95465E+00 1.00000E+01
 -1      2510-1.12654E+01 1.40020E+01 1.00000E+01
 -1      2511-1.45493E+01 8.03617E+00 1.00000E+01
 -1      2512-1.52986E+01 6.22731E+00 1.00000E+01
 -1      2513-1.47366E+01 1.04908E+01 1.00000E+01
 -1      2514-1.63904E+01 2.24950E+00 1.00000E+01
 -1      2515-1.66459E+01 3.08356E-01 1.00000E+01
 -1      2516-1.70152E+01 6.72281E+00 1.00000E+01
 -1      2517-1.62055E+01 4.37778E+00 1.00000E+01
 -1      2518-1.81070E+01 2.74499E+00 1.00000E+01
 -1      2519-1.62536E+01-2.27546E+00 1.00000E+01
 -1      2520-1.59981E+01-4.21661E+00 1.00000E+01
 -1      2521-1.78995E+01-1.96711E+00 1.00000E+01
 -1      2522-1.51200E+01-6.38001E+00 1.00000E+01
 -1      2523-1.43708E+01-8.18886E+00 1.00000E+01
 -1      2524-1.66292E+01-6.71433E+00 1.00000E+01
 -1      2525-1.31522E+01-9.97647E+00 1.00000E+01
 -1      2526-1.19603E+01-1.15298E+01 1.00000E+01
 -1      2527-1.45326E+01-1.06653E+01 1.00000E+01
 -1      2528-9.88624E+00-1.31006E+01 1.00000E+01
 -1      2529-8.33294E+00-1.42925E+01 1.00000E+01
 -1      2530-1.12399E+01-1.40238E+01 1.00000E+01
 -1      2531-6.17715E+00-1.52018E+01 1.00000E+01
 -1      2532-4.36830E+00-1.59511E+01 1.00000E+01
 -1      2533-7.01009E+00-1.65039E+01 1.00000E+01
 -1      2534-2.24198E+00-1.63547E+01 1.00000E+01
 -1      2535-3.00841E-01-1.66103E+01 1.00000E+01
 -1      2536-2.72799E+00-1.78169E+01 1.00000E+01
 -1      2537 2.27106E+00-1.62547E+01 1.00000E+01
 -1      2538 4.21220E+00-1.59991E+01 1.00000E+01
 -1      2539 1.97022E+00-1.78650E+01 1.00000E+01
 -1      2540 6.45654E+00-1.50662E+01 1.00000E+01
 -1      2541 8.26539E+00-1.43170E+01 1.00000E+01
 -1      2542 6.78645E+00-1.65765E+01 1.00000E+01
 -1      2543 9.81869E+00-1.31251E+01 1.00000E+01
 -1      2544 1.18398E+01-1.16102E+01 1.00000E+01
 -1      2545 1.30317E+01-1.00569E+01 1.00000E+01
 -1      2546 1.10519E+01-1.41287E+01 1.00000E+01
 -1      2547 1.50133E+01-6.64014E+00 1.00000E+01
 -1      2548 1.57626E+01-4.83128E+00 1.00000E+01
 -1      2549 1.50963E+01-7.98430E+00 1.00000E+01
 -1      2550 1.71192E+01-7.12444E+00 1.00000E+01
 -1      2551 1.46409E+01-9.47815E+00 1.00000E+01
 -1      2552 1.67468E+01-9.96245E+00 1.00000E+01
 -1      2553 1.46822E+01-1.20351E+01 1.00000E+01
 -1      2554 1.73419E+01-4.27212E+00 1.00000E+01
 -1      2555 2.25497E+01 9.42361E+00 1.00000E+01
 -1      2556 2.25497E+01-9.42361E+00 1.00000E+01
 -1      2557 2.86849E+01 8.12265E+00 1.00000E+01
 -1      2558 3.06498E+01 8.04601E+00 1.00000E+01
 -1      2559 2.71271E+01 8.38834E+00 1.00000E+01
 -1      2560 2.77492E+01 6.71186E+00 1.00000E+01
 -1      2561 2.56586E+01 7.75203E+00 1.00000E+01
 -1      2562 3.22421E+01 7.94746E+00 1.00000E+01
 -1      2563 3.42070E+01 7.87082E+00 1.00000E+01
 -1      2564 3.08993E+01 6.34762E+00 1.00000E+01
 -1      2565 3.70352E+01 7.99573E+00 1.00000E+01
 -1      2566 3.90001E+01 7.91909E+00 1.00000E+01
 -1      2567 3.56683E+01 7.52896E+00 1.00000E+01
 -1      2568 3.67810E+01 6.03211E+00 1.00000E+01
 -1      2569 3.39529E+01 5.90720E+00 1.00000E+01
 -1      2570 4.09948E+01 7.64012E+00 1.00000E+01
 -1      2571 4.29597E+01 7.56348E+00 1.00000E+01
 -1      2572 4.01426E+01 6.21990E+00 1.00000E+01
 -1      2573 4.47686E+01 7.96405E+00 1.00000E+01
 -1      2574 4.67335E+01 7.88741E+00 1.00000E+01
 -1      2575 4.39463E+01 6.34150E+00 1.00000E+01
 -1      2576 4.85752E+01 7.37091E+00 1.00000E+01
 -1      2577 4.75970E+01 6.22556E+00 1.00000E+01
 -1      2578 5.85454E+01 7.41485E+00 1.00000E+01
 -1      2579 6.04015E+01 6.99209E+00 1.00000E+01
 -1      2580 6.23664E+01 6.91545E+00 1.00000E+01
 -1      2581 6.44057E+01 7.01479E+00 1.00000E+01
 -1      2582 6.63706E+01 6.93816E+00 1.00000E+01
 -1      2583 6.33411E+01 5.51059E+00 1.00000E+01
 -1      2584 6.84390E+01 6.55020E+00 1.00000E+01
 -1      2585 7.04039E+01 6.47357E+00 1.00000E+01
 -1      2586 6.74489E+01 5.22198E+00 1.00000E+01
 -1      2587 7.22238E+01 6.99075E+00 1.00000E+01
 -1      2588 7.41887E+01 6.91412E+00 1.00000E+01
 -1      2589 7.13372E+01 5.35122E+00 1.00000E+01
 -1      2590 7.59513E+01 5.86392E+00 1.00000E+01
 -1      2591 7.79162E+01 5.78728E+00 1.00000E+01
 -1      2592 7.49197E+01 4.81821E+00 1.00000E+01
 -1      2593 8.13919E+01 6.22064E+00 1.00000E+01
 -1      2594 7.87063E+01 3.71986E+00 1.00000E+01
 -1      2595 7.99402E+01 5.73913E+00 1.00000E+01
 -1      2596 8.21821E+01 4.15322E+00 1.00000E+01
 -1      2597 3.11396E+01-8.64826E+00 1.00000E+01
 -1      2598 2.91747E+01-8.72490E+00 1.00000E+01
 -1      2599 2.69767E+01-8.38062E+00 1.00000E+01
 -1      2600 2.54780E+01-7.74277E+00 1.00000E+01
 -1      2601 2.81799E+01-8.07363E+00 1.00000E+01
 -1      2602 2.70936E+01-6.65512E+00 1.00000E+01
 -1      2603 2.92916E+01-6.99939E+00 1.00000E+01
 -1      2604 3.42929E+01-8.39603E+00 1.00000E+01
 -1      2605 3.23280E+01-8.47266E+00 1.00000E+01
 -1      2606 3.14749E+01-7.47507E+00 1.00000E+01
 -1      2607 3.86286E+01-7.79676E+00 1.00000E+01
 -1      2608 3.66637E+01-7.87339E+00 1.00000E+01
 -1      2609 3.57924E+01-5.55115E+00 1.00000E+01
 -1      2610 3.50512E+01-7.17033E+00 1.00000E+01
 -1      2611 3.34216E+01-6.07378E+00 1.00000E+01
 -1      2612 4.20582E+01-7.88341E+00 1.00000E+01
 -1      2613 4.00933E+01-7.96005E+00 1.00000E+01
 -1      2614 3.88696E+01-6.41750E+00 1.00000E+01
 -1      2615 4.68515E+01-7.76640E+00 1.00000E+01
 -1      2616 4.48866E+01-7.84304E+00 1.00000E+01
 -1      2617 4.44252E+01-5.94418E+00 1.00000E+01
 -1      2618 4.33206E+01-7.28717E+00 1.00000E+01
 -1      2619 4.15967E+01-5.98456E+00 1.00000E+01
 -1      2620 4.85752E+01-7.37091E+00 1.00000E+01
 -1      2621 4.77149E+01-6.10455E+00 1.00000E+01
 -1      2622 5.85266E+01-7.43538E+00 1.00000E+01
 -1      2623 6.23843E+01-6.89345E+00 1.00000E+01
 -1      2624 6.04194E+01-6.97008E+00 1.00000E+01
 -1      2625 6.63313E+01-7.09952E+00 1.00000E+01
 -1      2626 6.43664E+01-7.17616E+00 1.00000E+01
 -1      2627 6.33198E+01-5.64995E+00 1.00000E+01
 -1      2628 7.00926E+01-6.19393E+00 1.00000E+01
 -1      2629 6.81277E+01-6.27057E+00 1.00000E+01
 -1      2630 6.70982E+01-5.10371E+00 1.00000E+01
 -1      2631 7.41346E+01-6.90397E+00 1.00000E+01
 -1      2632 7.21697E+01-6.98061E+00 1.00000E+01
 -1      2633 7.09718E+01-5.06144E+00 1.00000E+01
 -1      2634 7.75366E+01-5.94231E+00 1.00000E+01
 -1      2635 7.55717E+01-6.01895E+00 1.00000E+01
 -1      2636 7.44860E+01-4.96309E+00 1.00000E+01
 -1      2637 8.16779E+01-5.62894E+00 1.00000E+01
 -1      2638 7.97130E+01-5.70558E+00 1.00000E+01
 -1      2639 7.80996E+01-3.84134E+00 1.00000E+01
 -1      2640 8.19392E+01-4.00467E+00 1.00000E+01
 -1      2641 9.31033E+01-1.17794E+01 1.00000E+01
 -1      2642 9.15500E+01-1.05875E+01 1.00000E+01
 -1      2643 9.11612E+01-8.83883E+00 1.00000E+01
 -1      2644 9.33178E+01-8.81974E+00 1.00000E+01
 -1      2645 9.12737E+01-6.81212E+00 1.00000E+01
 -1      2646 9.49122E+01-1.25286E+01 1.00000E+01
 -1      2647 9.87069E+01-1.34346E+01 1.00000E+01
 -1      2648 9.67657E+01-1.31790E+01 1.00000E+01
 -1      2649 9.55602E+01-1.12188E+01 1.00000E+01
 -1      2650 1.03123E+02-1.31842E+01 1.00000E+01
 -1      2651 1.01181E+02-1.34398E+01 1.00000E+01
 -1      2652 9.87069E+01-1.09346E+01 1.00000E+01
 -1      2653 1.00000E+02-1.25000E+01 1.00000E+01
 -1      2654 1.01181E+02-1.09398E+01 1.00000E+01
 -1      2655 1.06897E+02-1.17794E+01 1.00000E+01
 -1      2656 1.05088E+02-1.25286E+01 1.00000E+01
 -1      2657 1.04328E+02-1.12240E+01 1.00000E+01
 -1      2658 1.08450E+02-1.05875E+01 1.00000E+01
 -1      2659 1.11779E+02-6.89670E+00 1.00000E+01
 -1      2660 1.10588E+02-8.45000E+00 1.00000E+01
 -1      2661 1.08839E+02-8.83883E+00 1.00000E+01
 -1      2662 1.08820E+02-6.68223E+00 1.00000E+01
 -1      2663 1.06682E+02-8.81974E+00 1.00000E+01
 -1      2664 1.12529E+02-5.08784E+00 1.00000E+01
 -1      2665 1.13179E+02-3.23425E+00 1.00000E+01
 -1      2666 1.11219E+02-4.43980E+00 1.00000E+01
 -1      2667 1.13206E+02 3.45259E+00 1.00000E+01
 -1      2668 1.12457E+02 5.26145E+00 1.00000E+01
 -1      2669 1.11072E+02 4.79348E+00 1.00000E+01
 -1      2670 1.09730E+02 5.19545E+00 1.00000E+01
 -1      2671 1.05278E+02 9.65491E+00 1.00000E+01
 -1      2672 1.03425E+02 1.05809E+01 1.00000E+01
 -1      2673 9.69051E+01 1.05592E+01 1.00000E+01
 -1      2674 9.49399E+01 9.90360E+00 1.00000E+01
 -1      2675 9.01894E+01 5.19303E+00 1.00000E+01
 -1      2676 8.90668E+01 3.63918E+00 1.00000E+01
 -1      2677 8.86862E+01 1.72576E+00 1.00000E+01
 -1      2678 8.86891E+01-1.70463E+00 1.00000E+01
 -1      2679 8.90697E+01-3.61805E+00 1.00000E+01
 -1      2680 8.83431E+01-8.90307E-02 1.00000E+01
 -1      2681 8.70322E+01-1.79366E+00 1.00000E+01
 -1      2682 8.70293E+01 1.63673E+00 1.00000E+01
 -1      2683 9.01898E+01-5.19001E+00 1.00000E+01
 -1      2684 9.49399E+01-9.90360E+00 1.00000E+01
 -1      2685 9.67935E+01-1.05540E+01 1.00000E+01
 -1      2686 1.03095E+02-1.05592E+01 1.00000E+01
 -1      2687 1.05060E+02-9.90360E+00 1.00000E+01
 -1      2688 1.09904E+02-5.06011E+00 1.00000E+01
 -1      2689-8.45706E+00-1.71473E+01 1.00000E+01
 -1      2690-9.89983E+00-1.73509E+01 1.00000E+01
 -1      2691-9.19101E+00-1.89035E+01 1.00000E+01
 -1      2692-8.18104E+00-1.98525E+01 1.00000E+01
 -1      2693-6.80971E+00-1.98810E+01 1.00000E+01
 -1      2694-5.36274E+00-1.92376E+01 1.00000E+01
 -1      2695-6.30127E+00-1.80566E+01 1.00000E+01
 -1      2696-1.81093E+01-6.14400E+00 1.00000E+01
 -1      2697-1.92761E+01-5.24881E+00 1.00000E+01
 -1      2698-1.98782E+01-6.84189E+00 1.00000E+01
 -1      2699-1.98400E+01-8.22292E+00 1.00000E+01
 -1      2700-1.88920E+01-9.21822E+00 1.00000E+01
 -1      2701-1.74119E+01-9.78855E+00 1.00000E+01
 -1      2702-1.72313E+01-8.30740E+00 1.00000E+01
 -1      2703 8.35717E+01-2.75986E+00 1.00000E+01
 -1      2704 8.54596E+01-2.26213E+00 1.00000E+01
 -1      2705 8.51136E+01-6.46527E-01 1.00000E+01
 -1      2706 8.36293E+01 3.41639E-01 1.00000E+01
 -1      2707 8.20295E+01 1.06148E+00 1.00000E+01
 -1      2708 8.19412E+01-3.95147E-01 1.00000E+01
 -1      2709 8.52019E+01 8.10104E-01 1.00000E+01
 -1      2710 8.03087E+01-1.63996E+00 1.00000E+01
 -1      2711 8.19085E+01-2.35980E+00 1.00000E+01
 -1      2712 6.92279E+01-2.07215E+00 1.00000E+01
 -1      2713 7.08442E+01-3.70472E+00 1.00000E+01
 -1      2714 7.11774E+01-1.50212E+00 1.00000E+01
 -1      2715 6.78458E+01-1.31759E-01 1.00000E+01
 -1      2716 6.75126E+01-2.33437E+00 1.00000E+01
 -1      2717 7.32779E+01-1.56735E+00 1.00000E+01
 -1      2718 7.16616E+01 6.52293E-02 1.00000E+01
 -1      2719 7.12293E+01 1.64713E+00 1.00000E+01
 -1      2720 7.12074E+01 3.99892E+00 1.00000E+01
 -1      2721 6.95392E+01 2.48225E+00 1.00000E+01
 -1      2722 7.33299E+01 1.58190E+00 1.00000E+01
 -1      2723 6.82405E+01 3.64850E+00 1.00000E+01
 -1      2724 6.82624E+01 1.29672E+00 1.00000E+01
 -1      2725 6.65471E+01 1.03450E+00 1.00000E+01
 -1      2726 2.52769E+01-4.98807E+00 1.00000E+01
 -1      2727 2.51372E+01-6.24271E+00 1.00000E+01
 -1      2728 2.60301E+01-5.70747E+00 1.00000E+01
 -1      2729 2.48399E+01-4.12469E+00 1.00000E+01
 -1      2730 2.39470E+01-4.65993E+00 1.00000E+01
 -1      2731 2.43091E+01-6.32070E+00 1.00000E+01
 -1      2732 2.50623E+01-7.04011E+00 1.00000E+01
 -1      2733 2.31243E+01-4.78775E+00 1.00000E+01
 -1      2734 2.35613E+01-5.65112E+00 1.00000E+01
 -1      2735 2.34864E+01-6.44852E+00 1.00000E+01
 -1      2736-1.74744E+01 8.19218E+00 1.00000E+01
 -1      2737-1.76012E+01 9.64211E+00 1.00000E+01
 -1      2738-1.89674E+01 9.26194E+00 1.00000E+01
 -1      2739-1.99215E+01 8.27199E+00 1.00000E+01
 -1      2740-1.99518E+01 6.89364E+00 1.00000E+01
 -1      2741-1.94925E+01 5.42426E+00 1.00000E+01
 -1      2742-1.83813E+01 6.34265E+00 1.00000E+01
 -1      2743 1.86235E+01-3.65247E+00 1.00000E+01
 -1      2744 2.03251E+01-3.45236E+00 1.00000E+01
 -1      2745 1.93491E+01-2.56384E+00 1.00000E+01
 -1      2746 1.83179E+01-5.16064E+00 1.00000E+01
 -1      2747 2.02766E+01-5.43541E+00 1.00000E+01
 -1      2748 1.93471E+01-5.45914E+00 1.00000E+01
 -1      2749 2.00243E+01-6.35355E+00 1.00000E+01
 -1      2750 2.06221E+01-4.53018E+00 1.00000E+01
 -1      2751 2.12993E+01-5.42460E+00 1.00000E+01
 -1      2752 2.13478E+01-3.44155E+00 1.00000E+01
 -1      2753 1.80655E+01-6.07878E+00 1.00000E+01
 -1      2754 2.00436E+01-1.18776E+00 1.00000E+01
 -1      2755 2.47462E+01 1.17241E+00 1.00000E+01
 -1      2756 2.47239E+01 3.21365E-16 1.00000E+01
 -1      2757 2.57352E+01 1.17241E+00 1.00000E+01
 -1      2758 2.45091E+01-1.03183E+00 1.00000E+01
 -1      2759 2.54980E+01-1.03183E+00 1.00000E+01
 -1      2760 2.67262E+01 2.53768E-03 1.00000E+01
 -1      2761 2.67485E+01 1.17495E+00 1.00000E+01
 -1      2762 2.64847E+01-2.04229E+00 1.00000E+01
 -1      2763 2.66995E+01-1.01046E+00 1.00000E+01
 -1      2764 2.77128E+01-1.00792E+00 1.00000E+01
 -1      2765 2.36728E+01 5.70825E+00 1.00000E+01
 -1      2766 2.31171E+01 4.76920E+00 1.00000E+01
 -1      2767 2.40456E+01 4.69465E+00 1.00000E+01
 -1      2768 2.25674E+01 4.13749E+00 1.00000E+01
 -1      2769 2.21946E+01 5.15108E+00 1.00000E+01
 -1      2770 2.43856E+01 6.38561E+00 1.00000E+01
 -1      2771 2.34571E+01 6.46016E+00 1.00000E+01
 -1      2772 2.18490E+01 6.05631E+00 1.00000E+01
 -1      2773 2.12993E+01 5.42460E+00 1.00000E+01
 -1      2774 2.18480E+01 6.82627E+00 1.00000E+01
 -1      2775 2.27433E+01 6.55276E+00 1.00000E+01
 -1      2776 2.34561E+01 7.23012E+00 1.00000E+01
 -1      2777 3.09151E+01-4.02858E-01 1.00000E+01
 -1      2778 3.04545E+01 1.38073E+00 1.00000E+01
 -1      2779 2.93283E+01 2.00988E-01 1.00000E+01
 -1      2780 2.83036E+01 9.94828E-01 1.00000E+01
 -1      2781 2.87642E+01-7.88765E-01 1.00000E+01
 -1      2782 3.14440E+01-1.90044E+00 1.00000E+01
 -1      2783 3.25703E+01-7.20694E-01 1.00000E+01
 -1      2784 2.87375E+01-1.80176E+00 1.00000E+01
 -1      2785 2.81436E+01-2.97946E+00 1.00000E+01
 -1      2786 2.91949E+01-2.76030E+00 1.00000E+01
 -1      2787 3.03619E+01-3.22139E+00 1.00000E+01
 -1      2788 3.20172E+01-3.53923E+00 1.00000E+01
 -1      2789 2.97681E+01-4.39909E+00 1.00000E+01
 -1      2790 6.90196E+00 1.98471E+01 1.00000E+01
 -1      2791 5.29039E+00 1.92612E+01 1.00000E+01
 -1      2792 6.15368E+00 1.80953E+01 1.00000E+01
 -1      2793 8.28724E+00 1.97864E+01 1.00000E+01
 -1      2794 8.39802E+00 1.71624E+01 1.00000E+01
 -1      2795 9.88437E+00 1.72687E+01 1.00000E+01
 -1      2796 9.25160E+00 1.87875E+01 1.00000E+01
 -1      2797-1.49814E+01 1.24730E+01 1.00000E+01
 -1      2798-1.44393E+01 1.39466E+01 1.00000E+01
 -1      2799-1.63530E+01 1.05545E+01 1.00000E+01
 -1      2800 1.26608E+01 1.42299E+01 1.00000E+01
 -1      2801 1.42757E+01 1.38098E+01 1.00000E+01
 -1      2802 1.06398E+01 1.57447E+01 1.00000E+01
 -1      2803 2.72334E+01-5.40047E+00 1.00000E+01
 -1      2804 2.84490E+01-5.14306E+00 1.00000E+01
 -1      2805 2.73855E+01-4.19541E+00 1.00000E+01
 -1      2806 2.69280E+01-3.23687E+00 1.00000E+01
 -1      2807 2.57265E+01-3.25824E+00 1.00000E+01
 -1      2808 2.43966E+01-2.93010E+00 1.00000E+01
 -1      2809 2.20811E+01-7.60529E+00 1.00000E+01
 -1      2810 2.22135E+01-8.33661E+00 1.00000E+01
 -1      2811 2.28747E+01-8.05404E+00 1.00000E+01
 -1      2812 2.36207E+01-7.95173E+00 1.00000E+01
 -1      2813 2.34882E+01-7.22041E+00 1.00000E+01
 -1      2814 2.18480E+01-6.82627E+00 1.00000E+01
 -1      2815 2.11868E+01-7.10885E+00 1.00000E+01
 -1      2816 2.27404E+01-6.55083E+00 1.00000E+01
 -1      2817 2.18461E+01-6.05438E+00 1.00000E+01
 -1      2818 2.46499E+01-7.82076E+00 1.00000E+01
 -1      2819 2.12804E+01 8.57201E+00 1.00000E+01
 -1      2820 2.22135E+01 8.33661E+00 1.00000E+01
 -1      2821 2.20740E+01 9.02075E+00 1.00000E+01
 -1      2822 2.16166E+01 9.65901E+00 1.00000E+01
 -1      2823 2.06351E+01 7.97811E+00 1.00000E+01
 -1      2824 2.04956E+01 8.66225E+00 1.00000E+01
 -1      2825 2.02557E+01 9.57381E+00 1.00000E+01
 -1      2826 1.96104E+01 8.97992E+00 1.00000E+01
 -1      2827 2.09473E+01 1.01901E+01 1.00000E+01
 -1      2828 2.00621E+01 1.05078E+01 1.00000E+01
 -1      2829 3.98098E+01-5.19374E+00 1.00000E+01
 -1      2830 4.10722E+01-4.59750E+00 1.00000E+01
 -1      2831 4.24744E+01-3.97046E+00 1.00000E+01
 -1      2832 4.06875E+01-3.17964E+00 1.00000E+01
 -1      2833 3.93176E+01-1.92168E+00 1.00000E+01
 -1      2834 3.78874E+01-1.44866E+00 1.00000E+01
 -1      2835 3.78551E+01-3.33367E+00 1.00000E+01
 -1      2836 4.07198E+01-1.29464E+00 1.00000E+01
 -1      2837 3.83451E+01-5.03045E+00 1.00000E+01
 -1      2838 3.69150E+01-4.55743E+00 1.00000E+01
 -1      2839 2.16166E+01-9.65901E+00 1.00000E+01
 -1      2840 2.20740E+01-9.02075E+00 1.00000E+01
 -1      2841 2.12804E+01-8.57201E+00 1.00000E+01
 -1      2842 2.02557E+01-9.57381E+00 1.00000E+01
 -1      2843 2.00621E+01-1.05078E+01 1.00000E+01
 -1      2844 2.09473E+01-1.01901E+01 1.00000E+01
 -1      2845 1.96104E+01-8.97992E+00 1.00000E+01
 -1      2846 2.04956E+01-8.66225E+00 1.00000E+01
 -1      2847 2.06351E+01-7.97811E+00 1.00000E+01
 -1      2848 4.59596E+01 4.96305E+00 1.00000E+01
 -1      2849 4.41507E+01 4.56248E+00 1.00000E+01
 -1      2850-9.19101E+00 1.89035E+01 1.00000E+01
 -1      2851-9.89983E+00 1.73509E+01 1.00000E+01
 -1      2852-8.45706E+00 1.71473E+01 1.00000E+01
 -1      2853-8.18104E+00 1.98525E+01 1.00000E+01
 -1      2854-6.30127E+00 1.80566E+01 1.00000E+01
 -1      2855-5.36274E+00 1.92376E+01 1.00000E+01
 -1      2856-6.80971E+00 1.98810E+01 1.00000E+01
 -1      2857 4.45116E+01-4.28618E+00 1.00000E+01
 -1      2858 4.60776E+01-4.84204E+00 1.00000E+01
 -1      2859-2.01042E+01 3.25470E-01 1.00000E+01
 -1      2860-1.94469E+01 1.75283E+00 1.00000E+01
 -1      2861-1.92621E+01 3.88111E+00 1.00000E+01
 -1      2862 1.82863E+01 9.18004E+00 1.00000E+01
 -1      2863 1.78310E+01 1.06739E+01 1.00000E+01
 -1      2864 1.58849E+01 1.32310E+01 1.00000E+01
 -1      2865 1.70486E+01 1.27756E+01 1.00000E+01
 -1      2866 1.91774E+01 1.09872E+01 1.00000E+01
 -1      2867 1.76379E+01 1.17696E+01 1.00000E+01
 -1      2868 2.55413E+01 5.10465E+00 1.00000E+01
 -1      2869 2.49856E+01 4.16560E+00 1.00000E+01
 -1      2870 2.34673E+01 2.85600E+00 1.00000E+01
 -1      2871 2.23332E+01 3.02432E+00 1.00000E+01
 -1      2872 2.23105E+01 2.12472E+00 1.00000E+01
 -1      2873 2.46011E+01 2.15061E+00 1.00000E+01
 -1      2874 2.46237E+01 3.05021E+00 1.00000E+01
 -1      2875 2.14106E+01 3.40621E+00 1.00000E+01
 -1      2876 2.61194E+01 3.46021E+00 1.00000E+01
 -1      2877 3.17950E+01 4.94498E+00 1.00000E+01
 -1      2878 3.02028E+01 5.04353E+00 1.00000E+01
 -1      2879 2.90688E+01 5.34064E+00 1.00000E+01
 -1      2880 2.99646E+01 3.93800E+00 1.00000E+01
 -1      2881 2.99831E+01 2.81274E+00 1.00000E+01
 -1      2882 3.15699E+01 2.20889E+00 1.00000E+01
 -1      2883 2.88492E+01 3.10984E+00 1.00000E+01
 -1      2884 3.29328E+01 1.96971E+00 1.00000E+01
 -1      2885 3.24614E+01 3.40172E+00 1.00000E+01
 -1      2886 3.31579E+01 4.70580E+00 1.00000E+01
 -1      2887 7.29213E+01-4.49140E+00 1.00000E+01
 -1      2888 7.43584E+01-3.60638E+00 1.00000E+01
 -1      2889 6.48023E+01-4.48755E+00 1.00000E+01
 -1      2890 6.65987E+01-3.65860E+00 1.00000E+01
 -1      2891 6.52167E+01-1.71821E+00 1.00000E+01
 -1      2892 2.63363E+01 5.77658E+00 1.00000E+01
 -1      2893 2.53963E+01 6.30563E+00 1.00000E+01
 -1      2894 2.51806E+01 7.05754E+00 1.00000E+01
 -1      2895 4.50444E+01-1.59202E+00 1.00000E+01
 -1      2896 4.58308E+01 2.16924E-13 1.00000E+01
 -1      2897 4.50444E+01 1.59202E+00 1.00000E+01
 -1      2898 2.78941E+01 5.51088E+00 1.00000E+01
 -1      2899 2.76559E+01 4.40535E+00 1.00000E+01
 -1      2900 4.21106E+01 4.25692E+00 1.00000E+01
 -1      2901 4.41239E+01 2.87848E+00 1.00000E+01
 -1      2902 4.07886E+01 4.81174E+00 1.00000E+01
 -1      2903 3.87939E+01 5.09071E+00 1.00000E+01
 -1      2904 4.07618E+01 3.12773E+00 1.00000E+01
 -1      2905 4.41268E+01-2.86832E+00 1.00000E+01
 -1      2906 4.30072E+01-1.27630E+00 1.00000E+01
 -1      2907 1.91774E+01-1.09872E+01 1.00000E+01
 -1      2908 1.76379E+01-1.17696E+01 1.00000E+01
 -1      2909 1.78310E+01-1.06739E+01 1.00000E+01
 -1      2910 1.70486E+01-1.27756E+01 1.00000E+01
 -1      2911 2.28747E+01 8.05404E+00 1.00000E+01
 -1      2912 2.20811E+01 7.60529E+00 1.00000E+01
 -1      2913 2.35885E+01 7.96144E+00 1.00000E+01
 -1      2914 2.46478E+01 7.83202E+00 1.00000E+01
 -1      2915 2.73126E+01 2.16470E+00 1.00000E+01
 -1      2916 2.76745E+01 3.28009E+00 1.00000E+01
 -1      2917 1.80655E+01 6.07878E+00 1.00000E+01
 -1      2918 1.81485E+01 7.42293E+00 1.00000E+01
 -1      2919 1.86235E+01 3.65247E+00 1.00000E+01
 -1      2920 1.83179E+01 5.16064E+00 1.00000E+01
 -1      2921 1.93471E+01 5.45914E+00 1.00000E+01
 -1      2922 2.25705E+01 9.78202E-01 1.00000E+01
 -1      2923 2.14364E+01 1.14652E+00 1.00000E+01
 -1      2924 2.35898E+01 9.78202E-01 1.00000E+01
 -1      2925 2.27157E+01 3.38159E-15 1.00000E+01
 -1      2926-1.29434E+01-1.45120E+01 1.00000E+01
 -1      2927-1.44138E+01-1.39684E+01 1.00000E+01
 -1      2928-1.08693E+01-1.60829E+01 1.00000E+01
 -1      2929-1.29689E+01 1.44902E+01 1.00000E+01
 -1      2930-1.08693E+01 1.60829E+01 1.00000E+01
 -1      2931-1.94490E+01-1.09706E+00 1.00000E+01
 -1      2932-1.90567E+01-3.68088E+00 1.00000E+01
 -1      2933 3.69295E+00 1.90599E+01 1.00000E+01
 -1      2934-3.04534E-01 2.00712E+01 1.00000E+01
 -1      2935 1.12105E+00 1.94155E+01 1.00000E+01
 -1      2936-3.04534E-01-2.00712E+01 1.00000E+01
 -1      2937-1.72769E+00-1.94103E+01 1.00000E+01
 -1      2938-3.85400E+00-1.90066E+01 1.00000E+01
 -1      2939-1.49559E+01-1.24948E+01 1.00000E+01
 -1      2940-1.61745E+01-1.07072E+01 1.00000E+01
 -1      2941 7.48427E+01-2.03903E+00 1.00000E+01
 -1      2942 4.30043E+01 1.28646E+00 1.00000E+01
 -1      2943 2.04020E+01 7.19909E+00 1.00000E+01
 -1      2944 2.11868E+01 7.10885E+00 1.00000E+01
 -1      2945 1.82863E+01-9.18004E+00 1.00000E+01
 -1      2946 1.85262E+01-8.26847E+00 1.00000E+01
 -1      2947 2.04020E+01-7.19909E+00 1.00000E+01
 -1      2948 1.94726E+01-7.22282E+00 1.00000E+01
 -1      2949 2.21917E+01-5.14916E+00 1.00000E+01
 -1      2950 2.02766E+01 5.43541E+00 1.00000E+01
 -1      2951 2.06221E+01 4.53018E+00 1.00000E+01
 -1      2952 1.94726E+01 7.22282E+00 1.00000E+01
 -1      2953 2.00243E+01 6.35355E+00 1.00000E+01
 -1      2954 2.96159E+01-5.60415E+00 1.00000E+01
 -1      2955 3.06107E+01-6.25542E+00 1.00000E+01
 -1      2956 3.17992E+01-6.07982E+00 1.00000E+01
 -1      2957 4.16373E+01-1.83343E-02 1.00000E+01
 -1      2958 4.07169E+01 1.26812E+00 1.00000E+01
 -1      2959 3.80546E+01 3.21279E+00 1.00000E+01
 -1      2960 3.80096E+01 1.35318E+00 1.00000E+01
 -1      2961 3.93948E+01 1.82294E+00 1.00000E+01
 -1      2962 3.58278E+01-1.43033E+00 1.00000E+01
 -1      2963 3.72902E+01-1.83343E-02 1.00000E+01
 -1      2964 3.59500E+01 1.37152E+00 1.00000E+01
 -1      2965 2.03664E+01-5.89099E-03 1.00000E+01
 -1      2966 2.13736E+01-1.18187E+00 1.00000E+01
 -1      2967 2.25774E+01-4.15796E+00 1.00000E+01
 -1      2968 2.22803E+01-3.08014E+00 1.00000E+01
 -1      2969 2.22052E+01-2.11700E+00 1.00000E+01
 -1      2970 2.25281E+01-9.35131E-01 1.00000E+01
 -1      2971 2.34349E+01-2.83340E+00 1.00000E+01
 -1      2972 2.01064E+01 1.14063E+00 1.00000E+01
 -1      2973 1.94120E+01 2.52850E+00 1.00000E+01
 -1      2974 2.03879E+01 3.41702E+00 1.00000E+01
 -1      2975 6.28202E+01-4.20484E+00 1.00000E+01
 -1      2976 6.28145E+01-2.71065E+00 1.00000E+01
 -1      2977 1.81485E+01-7.42293E+00 1.00000E+01
 -1      2978 5.29039E+00-1.92612E+01 1.00000E+01
 -1      2979 3.69295E+00-1.90599E+01 1.00000E+01
 -1      2980 6.15368E+00-1.80953E+01 1.00000E+01
 -1      2981 6.90196E+00-1.98471E+01 1.00000E+01
 -1      2982 8.28724E+00-1.97864E+01 1.00000E+01
 -1      2983 2.35474E+01-9.35131E-01 1.00000E+01
 -1      2984 2.43215E+01-1.96696E+00 1.00000E+01
 -1      2985 1.85262E+01 8.26847E+00 1.00000E+01
 -1      2986 3.53025E+01-3.85437E+00 1.00000E+01
 -1      2987 3.36396E+01-3.53318E+00 1.00000E+01
 -1      2988 3.25575E+01-4.85413E+00 1.00000E+01
 -1      2989 3.47621E+01-2.53946E+00 1.00000E+01
 -1      2990 1.12105E+00-1.94155E+01 1.00000E+01
 -1      2991 7.54221E+01 5.69208E-16 1.00000E+01
 -1      2992 7.68821E+01 1.88401E+00 1.00000E+01
 -1      2993 7.52222E+01 1.88401E+00 1.00000E+01
 -1      2994 7.85119E+01 2.04636E+00 1.00000E+01
 -1      2995 7.87117E+01 1.62349E-01 1.00000E+01
 -1      2996 7.65026E+01-2.03903E+00 1.00000E+01
 -1      2997 7.86790E+01-1.80231E+00 1.00000E+01
 -1      2998 3.60418E+01 4.15419E+00 1.00000E+01
 -1      2999 3.74086E+01 4.62096E+00 1.00000E+01
 -1      3000 3.46192E+01 4.36394E+00 1.00000E+01
 -1      3001 3.52468E+01 2.95279E+00 1.00000E+01
 -1      3002 7.47899E+01 3.46591E+00 1.00000E+01
 -1      3003 7.30274E+01 4.51611E+00 1.00000E+01
 -1      3004 6.55287E+01 2.57066E+00 1.00000E+01
 -1      3005 6.61721E+01 4.03645E+00 1.00000E+01
 -1      3006 6.47370E+01 4.14414E+00 1.00000E+01
 -1      3007 6.51121E+01 1.14218E+00 1.00000E+01
 -1      3008 6.26977E+01 4.04480E+00 1.00000E+01
 -1      3009 6.26933E+01 2.51906E+00 1.00000E+01
 -1      3010 6.34968E+01 1.31593E+00 1.00000E+01
 -1      3011 6.45152E+01-2.20227E-01 1.00000E+01
 -1      3012 1.42757E+01-1.38098E+01 1.00000E+01
 -1      3013 1.58849E+01-1.32310E+01 1.00000E+01
 -1      3014 3.36360E+01 3.88444E-01 1.00000E+01
 -1      3015 3.41649E+01-1.10914E+00 1.00000E+01
 -1      3016 3.45274E+01 1.58127E+00 1.00000E+01
 -1      3017-1.72769E+00 1.94103E+01 1.00000E+01
 -1      3018 8.05359E+01 1.99820E+00 1.00000E+01
 -1      3019 8.55449E+01 2.62490E+00 1.00000E+01
 -1      3020 8.36757E+01 3.21650E+00 1.00000E+01
 -1      3021 8.22239E+01 2.73499E+00 1.00000E+01
 -1      3022 9.25160E+00-1.87875E+01 1.00000E+01
 -1      3023 9.88437E+00-1.72687E+01 1.00000E+01
 -1      3024 8.39802E+00-1.71624E+01 1.00000E+01
 -1      3025 6.36013E+01-1.54446E+00 1.00000E+01
 -1      3026 1.26608E+01-1.42299E+01 1.00000E+01
 -1      3027 1.06398E+01-1.57447E+01 1.00000E+01
 -1      3028-3.85400E+00 1.90066E+01 1.00000E+01
 -1      3029 2.89211E+01 9.76566E+00 5.00000E+00
 -1      3030 8.22216E+01 7.68675E+00 5.00000E+00
 -1      3031 5.36065E+01 8.80284E+00 5.00000E+00
 -1      3032 6.53958E+01 8.34301E+00 5.00000E+00
 -1      3033 7.32554E+01 8.03646E+00 5.00000E+00
 -1      3034 4.18171E+01 9.26267E+00 5.00000E+00
 -1      3035 3.45657E+01 9.54550E+00 5.11976E+00
 -1      3036 5.89185E+01 8.59565E+00 5.03330E+00
 -1      3037 4.82944E+01 9.01003E+00 4.96670E+00
 -1      3038 7.78928E+01 7.85559E+00 4.29779E+00
 -1      3039 6.86706E+01 8.21529E+00 3.20805E+00
 -1      3040 3.80087E+01 9.41121E+00 3.33868E+00
 -1      3041 6.23775E+01 8.46074E+00 3.18359E+00
 -1      3042 4.48355E+01 9.14494E+00 6.81641E+00
 -1      3043 4.49612E+01 9.14004E+00 3.11960E+00
 -1      3044 6.22517E+01 8.46565E+00 6.88040E+00
 -1      3045 3.79850E+01 9.41213E+00 7.04565E+00
 -1      3046 6.93256E+01 8.18974E+00 7.13494E+00
 -1      3047 3.09013E+01 9.68843E+00 6.90701E+00
 -1      3048 3.08067E+01 9.69211E+00 3.13969E+00
 -1      3049 7.64901E+01 7.91030E+00 7.39414E+00
 -1      3050 5.56636E+01 8.72260E+00 2.98342E+00
 -1      3051 5.13320E+01 8.89155E+00 3.30669E+00
 -1      3052 5.12680E+01 8.89405E+00 6.78995E+00
 -1      3053 5.56431E+01 8.72340E+00 7.00492E+00
 -1      3054 8.41244E+01 7.61253E+00 7.24667E+00
 -1      3055 2.70184E+01 9.83987E+00 7.24667E+00
 -1      3056 2.70184E+01 9.83987E+00 2.75333E+00
 -1      3057 8.41244E+01 7.61253E+00 2.75333E+00
 -1      3058 8.01663E+01 7.76691E+00 7.18039E+00
 -1      3059 8.11149E+01 7.72991E+00 2.23599E+00
 -1      3060 7.52618E+01 7.95821E+00 2.62115E+00
 -1      3061 6.53958E+01 8.34301E+00 2.11333E+00
 -1      3062 6.53958E+01 8.34301E+00 7.88667E+00
 -1      3063 7.31164E+01 8.04189E+00 7.90582E+00
 -1      3064 4.18171E+01 9.26267E+00 2.11333E+00
 -1      3065 4.18171E+01 9.26267E+00 7.88667E+00
 -1      3066 8.50333E+01 7.57708E+00 5.00000E+00
 -1      3067 2.61095E+01 9.87532E+00 5.00000E+00
 -1      3068 3.42230E+01 9.55887E+00 2.25994E+00
 -1      3069 3.42734E+01 9.55690E+00 7.81448E+00
 -1      3070 2.55757E+01 9.89614E+00 1.37667E+00
 -1      3071 2.75406E+01 9.81950E+00 1.37667E+00
 -1      3072 2.55757E+01 9.89614E+00 3.04333E+00
 -1      3073 8.36021E+01 7.63290E+00 1.37667E+00
 -1      3074 8.55670E+01 7.55627E+00 1.37667E+00
 -1      3075 8.55670E+01 7.55627E+00 3.04333E+00
 -1      3076 2.55757E+01 9.89614E+00 8.62333E+00
 -1      3077 2.55757E+01 9.89614E+00 6.95667E+00
 -1      3078 2.75406E+01 9.81950E+00 8.62333E+00
 -1      3079 8.55670E+01 7.55627E+00 8.62333E+00
 -1      3080 8.36021E+01 7.63290E+00 8.62333E+00
 -1      3081 8.55670E+01 7.55627E+00 6.95667E+00
 -1      3082 2.94348E+01 9.74562E+00 1.56985E+00
 -1      3083 3.13997E+01 9.66898E+00 1.56985E+00
 -1      3084 2.89126E+01 9.76599E+00 2.94651E+00
 -1      3085 3.31078E+01 9.60236E+00 1.12997E+00
 -1      3086 3.50727E+01 9.52572E+00 1.12997E+00
 -1      3087 3.25149E+01 9.62549E+00 2.69982E+00
 -1      3088 3.69656E+01 9.45189E+00 1.66934E+00
 -1      3089 3.89305E+01 9.37526E+00 1.66934E+00
 -1      3090 3.61159E+01 9.48504E+00 2.79931E+00
 -1      3091 4.08347E+01 9.30099E+00 1.05667E+00
 -1      3092 4.27996E+01 9.22435E+00 1.05667E+00
 -1      3093 3.99129E+01 9.33694E+00 2.72601E+00
 -1      3094 4.43716E+01 9.16303E+00 1.55980E+00
 -1      3095 4.63365E+01 9.08639E+00 1.55980E+00
 -1      3096 4.33892E+01 9.20135E+00 2.61647E+00
 -1      3097 4.95219E+01 8.96215E+00 1.65334E+00
 -1      3098 5.14868E+01 8.88552E+00 1.65334E+00
 -1      3099 4.80031E+01 9.02139E+00 2.48335E+00
 -1      3100 4.98132E+01 8.95079E+00 4.13669E+00
 -1      3101 4.66278E+01 9.07503E+00 4.04315E+00
 -1      3102 5.56175E+01 8.72440E+00 1.49171E+00
 -1      3103 5.36526E+01 8.80104E+00 1.49171E+00
 -1      3104 5.34978E+01 8.80708E+00 3.14505E+00
 -1      3105 5.75824E+01 8.64777E+00 1.49171E+00
 -1      3106 6.09393E+01 8.51683E+00 1.59180E+00
 -1      3107 6.29042E+01 8.44020E+00 1.59180E+00
 -1      3108 5.92099E+01 8.58429E+00 2.51665E+00
 -1      3109 6.06480E+01 8.52820E+00 4.10844E+00
 -1      3110 5.72911E+01 8.65913E+00 4.00836E+00
 -1      3111 6.44134E+01 8.38133E+00 1.05667E+00
 -1      3112 6.63783E+01 8.30470E+00 1.05667E+00
 -1      3113 6.38867E+01 8.40188E+00 2.64846E+00
 -1      3114 6.80157E+01 8.24083E+00 1.60402E+00
 -1      3115 6.99806E+01 8.16419E+00 1.60402E+00
 -1      3116 6.70332E+01 8.27915E+00 2.66069E+00
 -1      3117 7.32762E+01 8.03565E+00 1.31058E+00
 -1      3118 7.52411E+01 7.95902E+00 1.31058E+00
 -1      3119 7.22729E+01 8.07478E+00 2.50000E+00
 -1      3120 7.42586E+01 7.99733E+00 3.81058E+00
 -1      3121 7.09630E+01 8.12587E+00 4.10402E+00
 -1      3122 7.72059E+01 7.88238E+00 1.31058E+00
 -1      3123 8.01325E+01 7.76823E+00 1.11799E+00
 -1      3124 8.20974E+01 7.69159E+00 1.11799E+00
 -1      3125 7.65773E+01 7.90690E+00 3.45947E+00
 -1      3126 7.85215E+01 7.83107E+00 2.14889E+00
 -1      3127 7.95039E+01 7.79275E+00 3.26689E+00
 -1      3128 8.26197E+01 7.67122E+00 2.49466E+00
 -1      3129 2.51213E+01 9.91386E+00 5.83333E+00
 -1      3130 2.51213E+01 9.91386E+00 4.16667E+00
 -1      3131 2.65639E+01 9.85760E+00 3.87667E+00
 -1      3132 2.65639E+01 9.85760E+00 6.12333E+00
 -1      3133 3.14470E+01 9.66714E+00 8.45350E+00
 -1      3134 2.94821E+01 9.74378E+00 8.45350E+00
 -1      3135 2.89598E+01 9.76415E+00 7.07684E+00
 -1      3136 3.50979E+01 9.52474E+00 8.90724E+00
 -1      3137 3.31331E+01 9.60138E+00 8.90724E+00
 -1      3138 3.25873E+01 9.62266E+00 7.36075E+00
 -1      3139 3.89186E+01 9.37572E+00 8.52282E+00
 -1      3140 3.69537E+01 9.45236E+00 8.52282E+00
 -1      3141 3.61292E+01 9.48452E+00 7.43006E+00
 -1      3142 4.27996E+01 9.22435E+00 8.94333E+00
 -1      3143 4.08347E+01 9.30099E+00 8.94333E+00
 -1      3144 3.99011E+01 9.33740E+00 7.46616E+00
 -1      3145 4.62736E+01 9.08885E+00 8.40821E+00
 -1      3146 4.43087E+01 9.16549E+00 8.40821E+00
 -1      3147 4.33263E+01 9.20380E+00 7.35154E+00
 -1      3148 5.14548E+01 8.88676E+00 8.39497E+00
 -1      3149 4.94899E+01 8.96340E+00 8.39497E+00
 -1      3150 4.80031E+01 9.02139E+00 7.48335E+00
 -1      3151 4.65649E+01 9.07749E+00 5.89156E+00
 -1      3152 4.97812E+01 8.95204E+00 5.87833E+00
 -1      3153 5.56073E+01 8.72480E+00 8.50246E+00
 -1      3154 5.36424E+01 8.80144E+00 8.50246E+00
 -1      3155 5.34556E+01 8.80873E+00 6.89743E+00
 -1      3156 5.75721E+01 8.64817E+00 8.50246E+00
 -1      3157 6.28413E+01 8.44265E+00 8.44020E+00
 -1      3158 6.08764E+01 8.51929E+00 8.44020E+00
 -1      3159 5.92099E+01 8.58429E+00 7.51665E+00
 -1      3160 5.72808E+01 8.65953E+00 6.01911E+00
 -1      3161 6.05851E+01 8.53065E+00 5.95685E+00
 -1      3162 6.63783E+01 8.30470E+00 8.94333E+00
 -1      3163 6.44134E+01 8.38133E+00 8.94333E+00
 -1      3164 6.38238E+01 8.40433E+00 7.38353E+00
 -1      3165 7.03081E+01 8.15142E+00 8.56747E+00
 -1      3166 6.83432E+01 8.22806E+00 8.56747E+00
 -1      3167 6.73607E+01 8.26638E+00 7.51080E+00
 -1      3168 7.41683E+01 8.00086E+00 8.95291E+00
 -1      3169 7.22034E+01 8.07749E+00 8.95291E+00
 -1      3170 7.12210E+01 8.11581E+00 7.52038E+00
 -1      3171 7.78201E+01 7.85843E+00 8.69707E+00
 -1      3172 7.58552E+01 7.93506E+00 8.69707E+00
 -1      3173 7.48032E+01 7.97609E+00 7.64998E+00
 -1      3174 8.16231E+01 7.71009E+00 8.59019E+00
 -1      3175 7.96582E+01 7.78673E+00 8.59019E+00
 -1      3176 7.83282E+01 7.83861E+00 7.28726E+00
 -1      3177 8.21454E+01 7.68972E+00 7.21353E+00
 -1      3178 8.60214E+01 7.53854E+00 4.16667E+00
 -1      3179 8.60214E+01 7.53854E+00 5.83333E+00
 -1      3180 8.45788E+01 7.59481E+00 3.87667E+00
 -1      3181 8.45788E+01 7.59481E+00 6.12333E+00
 -1      3182 7.31859E+01 8.03918E+00 6.45291E+00
 -1      3183 7.48727E+01 7.97338E+00 6.19707E+00
 -1      3184 7.12905E+01 8.11310E+00 6.06747E+00
 -1      3185 5.13000E+01 8.89280E+00 5.04832E+00
 -1      3186 4.48984E+01 9.14249E+00 4.96801E+00
 -1      3187 7.55741E+01 7.94602E+00 4.64889E+00
 -1      3188 5.24692E+01 8.84720E+00 4.15334E+00
 -1      3189 5.24373E+01 8.84844E+00 5.89497E+00
 -1      3190 5.46351E+01 8.76272E+00 3.99171E+00
 -1      3191 3.44196E+01 9.55120E+00 6.46712E+00
 -1      3192 3.62754E+01 9.47882E+00 6.08270E+00
 -1      3193 3.27335E+01 9.61696E+00 6.01338E+00
 -1      3194 3.99011E+01 9.33740E+00 6.02282E+00
 -1      3195 4.18171E+01 9.26267E+00 6.44333E+00
 -1      3196 4.33263E+01 9.20380E+00 5.90821E+00
 -1      3197 3.79969E+01 9.41167E+00 5.19216E+00
 -1      3198 3.62872E+01 9.47835E+00 4.22922E+00
 -1      3199 3.43943E+01 9.55218E+00 3.68985E+00
 -1      3200 3.26862E+01 9.61880E+00 4.12973E+00
 -1      3201 3.08540E+01 9.69027E+00 5.02335E+00
 -1      3202 3.99129E+01 9.33694E+00 4.16934E+00
 -1      3203 6.53958E+01 8.34301E+00 3.55667E+00
 -1      3204 6.38867E+01 8.40188E+00 4.09179E+00
 -1      3205 6.70332E+01 8.27915E+00 4.10402E+00
 -1      3206 4.33892E+01 9.20135E+00 4.05980E+00
 -1      3207 4.18171E+01 9.26267E+00 3.55667E+00
 -1      3208 7.71915E+01 7.88294E+00 5.84596E+00
 -1      3209 7.90296E+01 7.81125E+00 5.73909E+00
 -1      3210 8.00572E+01 7.77117E+00 4.64889E+00
 -1      3211 8.11940E+01 7.72683E+00 6.09019E+00
 -1      3212 8.16683E+01 7.70833E+00 3.61800E+00
 -1      3213 6.38238E+01 8.40433E+00 5.94020E+00
 -1      3214 6.53958E+01 8.34301E+00 6.44333E+00
 -1      3215 6.73607E+01 8.26638E+00 6.06747E+00
 -1      3216 2.79697E+01 9.80276E+00 3.87667E+00
 -1      3217 2.75153E+01 9.82049E+00 5.00000E+00
 -1      3218 2.79697E+01 9.80276E+00 6.12333E+00
 -1      3219 6.23146E+01 8.46319E+00 5.03199E+00
 -1      3220 6.89981E+01 8.20251E+00 5.17149E+00
 -1      3221 5.56534E+01 8.72300E+00 4.99417E+00
 -1      3222 8.31730E+01 7.64964E+00 6.12333E+00
 -1      3223 8.31730E+01 7.64964E+00 3.87667E+00
 -1      3224 8.36274E+01 7.63192E+00 5.00000E+00
 -1      3225 5.46248E+01 8.76312E+00 6.00246E+00
 -1      3226 2.98639E+01 9.72888E+00 4.06985E+00
 -1      3227 2.99112E+01 9.72704E+00 5.95350E+00
 -1      3228 2.89211E+01-9.76566E+00 5.00000E+00
 -1      3229 8.22216E+01-7.68675E+00 5.00000E+00
 -1      3230 6.53958E+01-8.34301E+00 5.00000E+00
 -1      3231 3.75558E+01-9.42887E+00 5.15208E+00
 -1      3232 4.96767E+01-8.95612E+00 5.00000E+00
 -1      3233 5.75363E+01-8.64957E+00 5.00000E+00
 -1      3234 7.32554E+01-8.03646E+00 5.00000E+00
 -1      3235 4.31994E+01-9.20875E+00 5.03330E+00
 -1      3236 7.78928E+01-7.85559E+00 4.29779E+00
 -1      3237 3.31709E+01-9.59990E+00 4.29948E+00
 -1      3238 6.14660E+01-8.49629E+00 6.49836E+00
 -1      3239 5.36065E+01-8.80284E+00 6.49836E+00
 -1      3240 6.93256E+01-8.18974E+00 6.49836E+00
 -1      3241 4.66584E+01-9.07384E+00 3.18359E+00
 -1      3242 4.65326E+01-9.07875E+00 6.88040E+00
 -1      3243 5.36065E+01-8.80284E+00 2.96072E+00
 -1      3244 6.14660E+01-8.49629E+00 2.96072E+00
 -1      3245 6.88578E+01-8.20799E+00 3.03427E+00
 -1      3246 3.45610E+01-9.54568E+00 7.41060E+00
 -1      3247 7.64901E+01-7.91030E+00 7.39414E+00
 -1      3248 4.01209E+01-9.32883E+00 3.32742E+00
 -1      3249 4.03763E+01-9.31886E+00 6.89074E+00
 -1      3250 2.70184E+01-9.83987E+00 7.24667E+00
 -1      3251 8.41244E+01-7.61253E+00 2.75333E+00
 -1      3252 8.41244E+01-7.61253E+00 7.24667E+00
 -1      3253 2.70184E+01-9.83987E+00 2.75333E+00
 -1      3254 8.01663E+01-7.76691E+00 7.18039E+00
 -1      3255 3.09764E+01-9.68549E+00 7.18039E+00
 -1      3256 8.11149E+01-7.72991E+00 2.23599E+00
 -1      3257 2.99771E+01-9.72447E+00 2.28143E+00
 -1      3258 7.52618E+01-7.95821E+00 2.62115E+00
 -1      3259 3.59161E+01-9.49283E+00 2.88917E+00
 -1      3260 5.75363E+01-8.64957E+00 7.88667E+00
 -1      3261 5.75363E+01-8.64957E+00 2.11333E+00
 -1      3262 6.53958E+01-8.34301E+00 7.88667E+00
 -1      3263 4.96767E+01-8.95612E+00 2.11333E+00
 -1      3264 6.53958E+01-8.34301E+00 2.11333E+00
 -1      3265 4.96767E+01-8.95612E+00 7.88667E+00
 -1      3266 7.32554E+01-8.03646E+00 7.88667E+00
 -1      3267 3.77133E+01-9.42273E+00 7.85316E+00
 -1      3268 8.50333E+01-7.57708E+00 5.00000E+00
 -1      3269 2.61095E+01-9.87532E+00 5.00000E+00
 -1      3270 2.75406E+01-9.81950E+00 1.37667E+00
 -1      3271 2.55757E+01-9.89614E+00 1.37667E+00
 -1      3272 2.55757E+01-9.89614E+00 3.04333E+00
 -1      3273 8.55670E+01-7.55627E+00 1.37667E+00
 -1      3274 8.36021E+01-7.63290E+00 1.37667E+00
 -1      3275 8.55670E+01-7.55627E+00 3.04333E+00
 -1      3276 2.55757E+01-9.89614E+00 6.95667E+00
 -1      3277 2.55757E+01-9.89614E+00 8.62333E+00
 -1      3278 2.75406E+01-9.81950E+00 8.62333E+00
 -1      3279 8.36021E+01-7.63290E+00 8.62333E+00
 -1      3280 8.55670E+01-7.55627E+00 8.62333E+00
 -1      3281 8.55670E+01-7.55627E+00 6.95667E+00
 -1      3282 3.09849E+01-9.68516E+00 1.14072E+00
 -1      3283 2.90200E+01-9.76180E+00 1.14072E+00
 -1      3284 2.84978E+01-9.78217E+00 2.51738E+00
 -1      3285 3.59193E+01-9.49270E+00 1.44458E+00
 -1      3286 3.39544E+01-9.56934E+00 1.44458E+00
 -1      3287 3.45435E+01-9.54636E+00 3.59433E+00
 -1      3288 3.25818E+01-9.62288E+00 2.14974E+00
 -1      3289 3.15740E+01-9.66218E+00 3.29046E+00
 -1      3290 3.78842E+01-9.41607E+00 1.44458E+00
 -1      3291 4.19515E+01-9.25743E+00 1.66371E+00
 -1      3292 3.99866E+01-9.33407E+00 1.66371E+00
 -1      3293 3.80185E+01-9.41083E+00 3.10830E+00
 -1      3294 4.71851E+01-9.05330E+00 1.59180E+00
 -1      3295 4.52202E+01-9.12994E+00 1.59180E+00
 -1      3296 4.34907E+01-9.19739E+00 2.51665E+00
 -1      3297 4.16602E+01-9.26879E+00 4.18036E+00
 -1      3298 4.49289E+01-9.14130E+00 4.10844E+00
 -1      3299 5.06591E+01-8.91780E+00 1.05667E+00
 -1      3300 4.86943E+01-8.99443E+00 1.05667E+00
 -1      3301 4.81675E+01-9.01498E+00 2.64846E+00
 -1      3302 5.45889E+01-8.76452E+00 1.48036E+00
 -1      3303 5.26240E+01-8.84116E+00 1.48036E+00
 -1      3304 5.16416E+01-8.87948E+00 2.53703E+00
 -1      3305 5.85187E+01-8.61125E+00 1.05667E+00
 -1      3306 5.65538E+01-8.68788E+00 1.05667E+00
 -1      3307 5.55714E+01-8.72620E+00 2.53703E+00
 -1      3308 6.24485E+01-8.45797E+00 1.48036E+00
 -1      3309 6.04836E+01-8.53461E+00 1.48036E+00
 -1      3310 5.95012E+01-8.57293E+00 2.53703E+00
 -1      3311 6.63783E+01-8.30470E+00 1.05667E+00
 -1      3312 6.44134E+01-8.38133E+00 1.05667E+00
 -1      3313 6.34309E+01-8.41965E+00 2.53703E+00
 -1      3314 7.00741E+01-8.16054E+00 1.51713E+00
 -1      3315 6.81092E+01-8.23718E+00 1.51713E+00
 -1      3316 6.71268E+01-8.27550E+00 2.57380E+00
 -1      3317 7.52411E+01-7.95902E+00 1.31058E+00
 -1      3318 7.32762E+01-8.03565E+00 1.31058E+00
 -1      3319 7.42586E+01-7.99733E+00 3.81058E+00
 -1      3320 7.22729E+01-8.07478E+00 2.50000E+00
 -1      3321 7.10566E+01-8.12222E+00 4.01713E+00
 -1      3322 7.72059E+01-7.88238E+00 1.31058E+00
 -1      3323 8.20974E+01-7.69159E+00 1.11799E+00
 -1      3324 8.01325E+01-7.76823E+00 1.11799E+00
 -1      3325 7.85215E+01-7.83107E+00 2.14889E+00
 -1      3326 7.65773E+01-7.90690E+00 3.45947E+00
 -1      3327 7.95039E+01-7.79275E+00 3.26689E+00
 -1      3328 8.26197E+01-7.67122E+00 2.49466E+00
 -1      3329 2.51213E+01-9.91386E+00 4.16667E+00
 -1      3330 2.51213E+01-9.91386E+00 5.83333E+00
 -1      3331 2.65639E+01-9.85760E+00 3.87667E+00
 -1      3332 2.65639E+01-9.85760E+00 6.12333E+00
 -1      3333 2.95197E+01-9.74231E+00 8.59019E+00
 -1      3334 3.14845E+01-9.66567E+00 8.59019E+00
 -1      3335 2.89974E+01-9.76268E+00 7.21353E+00
 -1      3336 3.32768E+01-9.59577E+00 8.70530E+00
 -1      3337 3.52417E+01-9.51913E+00 8.70530E+00
 -1      3338 3.27687E+01-9.61559E+00 7.29549E+00
 -1      3339 3.68179E+01-9.45765E+00 8.92658E+00
 -1      3340 3.87828E+01-9.38102E+00 8.92658E+00
 -1      3341 3.61371E+01-9.48421E+00 7.63188E+00
 -1      3342 4.01143E+01-9.32908E+00 8.44537E+00
 -1      3343 4.20792E+01-9.25245E+00 8.44537E+00
 -1      3344 3.90448E+01-9.37080E+00 7.37195E+00
 -1      3345 4.51573E+01-9.13239E+00 8.44020E+00
 -1      3346 4.71222E+01-9.05575E+00 8.44020E+00
 -1      3347 4.17879E+01-9.26381E+00 5.96202E+00
 -1      3348 4.34907E+01-9.19739E+00 7.51665E+00
 -1      3349 4.48660E+01-9.14375E+00 5.95685E+00
 -1      3350 4.86943E+01-8.99443E+00 8.94333E+00
 -1      3351 5.06591E+01-8.91780E+00 8.94333E+00
 -1      3352 4.81047E+01-9.01743E+00 7.38353E+00
 -1      3353 5.26240E+01-8.84116E+00 8.24918E+00
 -1      3354 5.45889E+01-8.76452E+00 8.24918E+00
 -1      3355 5.16416E+01-8.87948E+00 7.19251E+00
 -1      3356 5.65538E+01-8.68788E+00 8.94333E+00
 -1      3357 5.85187E+01-8.61125E+00 8.94333E+00
 -1      3358 5.55714E+01-8.72620E+00 7.19251E+00
 -1      3359 6.04836E+01-8.53461E+00 8.24918E+00
 -1      3360 6.24485E+01-8.45797E+00 8.24918E+00
 -1      3361 5.95012E+01-8.57293E+00 7.19251E+00
 -1      3362 6.44134E+01-8.38133E+00 8.94333E+00
 -1      3363 6.63783E+01-8.30470E+00 8.94333E+00
 -1      3364 6.34309E+01-8.41965E+00 7.19251E+00
 -1      3365 6.83432E+01-8.22806E+00 8.24918E+00
 -1      3366 7.03081E+01-8.15142E+00 8.24918E+00
 -1      3367 6.73607E+01-8.26638E+00 7.19251E+00
 -1      3368 7.22729E+01-8.07478E+00 8.94333E+00
 -1      3369 7.42378E+01-7.99815E+00 8.94333E+00
 -1      3370 7.12905E+01-8.11310E+00 7.19251E+00
 -1      3371 7.58552E+01-7.93506E+00 8.69707E+00
 -1      3372 7.78201E+01-7.85843E+00 8.69707E+00
 -1      3373 7.48727E+01-7.97338E+00 7.64040E+00
 -1      3374 7.96582E+01-7.78673E+00 8.59019E+00
 -1      3375 8.16231E+01-7.71009E+00 8.59019E+00
 -1      3376 7.83282E+01-7.83861E+00 7.28726E+00
 -1      3377 8.21454E+01-7.68972E+00 7.21353E+00
 -1      3378 8.60214E+01-7.53854E+00 5.83333E+00
 -1      3379 8.60214E+01-7.53854E+00 4.16667E+00
 -1      3380 8.45788E+01-7.59481E+00 3.87667E+00
 -1      3381 8.45788E+01-7.59481E+00 6.12333E+00
 -1      3382 7.32554E+01-8.03646E+00 6.44333E+00
 -1      3383 7.12905E+01-8.11310E+00 5.74918E+00
 -1      3384 6.90917E+01-8.19886E+00 4.76631E+00
 -1      3385 6.71268E+01-8.27550E+00 4.01713E+00
 -1      3386 6.73607E+01-8.26638E+00 5.74918E+00
 -1      3387 6.53958E+01-8.34301E+00 6.44333E+00
 -1      3388 3.88383E+01-9.37885E+00 4.23975E+00
 -1      3389 4.02486E+01-9.32384E+00 5.10908E+00
 -1      3390 3.89660E+01-9.37387E+00 6.02141E+00
 -1      3391 3.67359E+01-9.46085E+00 4.02062E+00
 -1      3392 4.81675E+01-9.01498E+00 4.09179E+00
 -1      3393 4.96767E+01-8.95612E+00 3.55667E+00
 -1      3394 4.81047E+01-9.01743E+00 5.94020E+00
 -1      3395 4.65955E+01-9.07629E+00 5.03199E+00
 -1      3396 7.55741E+01-7.94602E+00 4.64889E+00
 -1      3397 2.79697E+01-9.80276E+00 6.12333E+00
 -1      3398 2.75153E+01-9.82049E+00 5.00000E+00
 -1      3399 2.99488E+01-9.72558E+00 6.09019E+00
 -1      3400 7.90296E+01-7.81125E+00 5.73909E+00
 -1      3401 7.71915E+01-7.88294E+00 5.84596E+00
 -1      3402 7.48727E+01-7.97338E+00 6.19707E+00
 -1      3403 8.11940E+01-7.72683E+00 6.09019E+00
 -1      3404 8.00572E+01-7.77117E+00 4.64889E+00
 -1      3405 8.16683E+01-7.70833E+00 3.61800E+00
 -1      3406 8.36274E+01-7.63192E+00 5.00000E+00
 -1      3407 8.31730E+01-7.64964E+00 6.12333E+00
 -1      3408 8.31730E+01-7.64964E+00 3.87667E+00
 -1      3409 2.79697E+01-9.80276E+00 3.87667E+00
 -1      3410 2.94491E+01-9.74506E+00 3.64072E+00
 -1      3411 5.16416E+01-8.87948E+00 5.74918E+00
 -1      3412 4.96767E+01-8.95612E+00 6.44333E+00
 -1      3413 3.10460E+01-9.68278E+00 4.64974E+00
 -1      3414 3.20737E+01-9.64270E+00 5.73994E+00
 -1      3415 6.34309E+01-8.41965E+00 5.74918E+00
 -1      3416 5.95012E+01-8.57293E+00 5.74918E+00
 -1      3417 5.75363E+01-8.64957E+00 6.44333E+00
 -1      3418 5.95012E+01-8.57293E+00 3.98036E+00
 -1      3419 6.14660E+01-8.49629E+00 4.72954E+00
 -1      3420 6.34309E+01-8.41965E+00 3.98036E+00
 -1      3421 6.53958E+01-8.34301E+00 3.55667E+00
 -1      3422 5.16416E+01-8.87948E+00 3.98036E+00
 -1      3423 5.36065E+01-8.80284E+00 4.72954E+00
 -1      3424 5.55714E+01-8.72620E+00 5.74918E+00
 -1      3425 5.55714E+01-8.72620E+00 3.98036E+00
 -1      3426 3.76345E+01-9.42580E+00 6.50262E+00
 -1      3427 3.60584E+01-9.48728E+00 6.28134E+00
 -1      3428 3.38659E+01-9.57279E+00 5.85504E+00
 -1      3429 5.75363E+01-8.64957E+00 3.55667E+00
 -1      3430 3.53633E+01-9.51439E+00 4.72578E+00
 -1      3431 1.10607E+02-1.06066E+01 5.00000E+00
 -1      3432 1.14489E+02 3.88229E+00 5.00000E+00
 -1      3433 8.91456E+01 1.03529E+01 5.00265E+00
 -1      3434 9.24776E+01 1.29774E+01 5.01100E+00
 -1      3435 1.12767E+02-7.87465E+00 5.00000E+00
 -1      3436 1.07500E+02-1.29904E+01 5.00000E+00
 -1      3437 1.04635E+02-1.42658E+01 5.00000E+00
 -1      3438 9.56895E+01 1.43673E+01 5.00376E+00
 -1      3439 9.91982E+01 1.49786E+01 5.00095E+00
 -1      3440 1.10584E+02 1.06291E+01 5.00001E+00
 -1      3441 1.12988E+02 7.50459E+00 5.00000E+00
 -1      3442 1.14979E+02 7.85039E-01 5.00000E+00
 -1      3443 1.14154E+02-4.96595E+00 5.00000E+00
 -1      3444 9.86492E+01-1.49391E+01 5.00000E+00
 -1      3445 9.38554E+01-1.36837E+01 4.90777E+00
 -1      3446 1.03444E+02 1.45993E+01 5.00021E+00
 -1      3447 1.07402E+02 1.30462E+01 5.00004E+00
 -1      3448 9.10345E+01-1.20258E+01 6.85189E+00
 -1      3449 1.14852E+02-2.09994E+00 6.78571E+00
 -1      3450 1.14849E+02-2.12022E+00 3.11224E+00
 -1      3451 1.11789E+02-9.27498E+00 7.50000E+00
 -1      3452 1.11789E+02-9.27498E+00 2.50000E+00
 -1      3453 1.13858E+02 5.74107E+00 7.50000E+00
 -1      3454 1.13858E+02 5.74107E+00 2.50000E+00
 -1      3455 1.11896E+02 9.13645E+00 7.50000E+00
 -1      3456 1.01785E+02-1.48934E+01 6.78571E+00
 -1      3457 1.11896E+02 9.13645E+00 2.50000E+00
 -1      3458 1.01760E+02-1.48964E+01 3.11224E+00
 -1      3459 1.09107E+02-1.19187E+01 7.50000E+00
 -1      3460 1.09107E+02-1.19187E+01 2.50000E+00
 -1      3461 1.14857E+02 2.06408E+00 7.38095E+00
 -1      3462 1.14858E+02 2.06070E+00 2.60204E+00
 -1      3463 1.09099E+02 1.19252E+01 7.50001E+00
 -1      3464 1.05830E+02-1.38209E+01 7.38095E+00
 -1      3465 1.09099E+02 1.19252E+01 2.50001E+00
 -1      3466 1.05826E+02-1.38225E+01 2.60204E+00
 -1      3467 9.40804E+01 1.37825E+01 2.50547E+00
 -1      3468 9.07927E+01 1.18417E+01 2.36430E+00
 -1      3469 9.40804E+01 1.37825E+01 7.50547E+00
 -1      3470 9.07927E+01 1.18417E+01 7.64208E+00
 -1      3471 1.05529E+02 1.39439E+01 2.50006E+00
 -1      3472 1.05529E+02 1.39439E+01 7.50006E+00
 -1      3473 9.15542E+01-1.23963E+01 2.92281E+00
 -1      3474 9.76782E+01 1.48192E+01 2.50172E+00
 -1      3475 1.13734E+02-6.03090E+00 7.38095E+00
 -1      3476 9.72694E+01-1.47494E+01 7.36558E+00
 -1      3477 1.13733E+02-6.03402E+00 2.60204E+00
 -1      3478 9.72653E+01-1.47486E+01 2.58667E+00
 -1      3479 9.76782E+01 1.48192E+01 7.50172E+00
 -1      3480 1.01652E+02 1.49088E+01 2.50049E+00
 -1      3481 9.40031E+01-1.37491E+01 7.90617E+00
 -1      3482 9.40890E+01-1.37862E+01 1.96283E+00
 -1      3483 1.01652E+02 1.49088E+01 7.50049E+00
 -1      3484 8.87891E+01-9.96573E+00 4.14225E+00
 -1      3485 8.84954E+01-9.62513E+00 7.55442E+00
 -1      3486 8.85356E+01 9.67302E+00 7.86228E+00
 -1      3487 8.85356E+01 9.67302E+00 2.14006E+00
 -1      3488 8.79669E+01-8.95571E+00 1.86890E+00
 -1      3489 8.77244E+01 8.62034E+00 1.07003E+00
 -1      3490 8.89546E+01 1.01489E+01 1.07003E+00
 -1      3491 8.77244E+01 8.62034E+00 2.73670E+00
 -1      3492 8.86501E+01-9.80713E+00 9.34449E-01
 -1      3493 8.74671E+01-8.24177E+00 9.34449E-01
 -1      3494 8.74671E+01-8.24177E+00 2.60112E+00
 -1      3495 8.89546E+01 1.01489E+01 8.93114E+00
 -1      3496 8.77244E+01 8.62034E+00 8.93114E+00
 -1      3497 8.77244E+01 8.62034E+00 7.26447E+00
 -1      3498 8.77065E+01-8.59473E+00 8.77721E+00
 -1      3499 8.89335E+01-1.01258E+01 8.77721E+00
 -1      3500 8.77065E+01-8.59473E+00 7.11054E+00
 -1      3501 9.20216E+01-1.27022E+01 1.46141E+00
 -1      3502 9.04319E+01-1.15521E+01 1.46141E+00
 -1      3503 9.00968E+01-1.12662E+01 3.53253E+00
 -1      3504 8.90865E+01-1.02906E+01 2.07113E+00
 -1      3505 8.83670E+01-9.46965E+00 3.00558E+00
 -1      3506 9.50908E+01-1.41739E+01 9.81414E-01
 -1      3507 9.32827E+01-1.34119E+01 9.81414E-01
 -1      3508 9.27881E+01-1.31525E+01 2.44282E+00
 -1      3509 9.86269E+01-1.49370E+01 1.29333E+00
 -1      3510 9.66890E+01-1.46300E+01 1.29333E+00
 -1      3511 9.56505E+01-1.43555E+01 2.27475E+00
 -1      3512 1.02828E+02-1.47309E+01 1.55612E+00
 -1      3513 1.00882E+02-1.49741E+01 1.55612E+00
 -1      3514 9.95071E+01-1.49919E+01 2.84946E+00
 -1      3515 1.06676E+02-1.34325E+01 1.30102E+00
 -1      3516 1.04865E+02-1.41890E+01 1.30102E+00
 -1      3517 1.03831E+02-1.45026E+01 2.85714E+00
 -1      3518 1.09879E+02-1.12876E+01 1.25000E+00
 -1      3519 1.08321E+02-1.24805E+01 1.25000E+00
 -1      3520 1.07527E+02-1.29748E+01 2.55102E+00
 -1      3521 1.12421E+02-8.40898E+00 1.25000E+00
 -1      3522 1.11217E+02-9.95835E+00 1.25000E+00
 -1      3523 1.10531E+02-1.06813E+01 2.50000E+00
 -1      3524 1.14152E+02-4.97254E+00 1.30102E+00
 -1      3525 1.13382E+02-6.77719E+00 1.30102E+00
 -1      3526 1.12863E+02-7.71597E+00 2.55102E+00
 -1      3527 1.14962E+02-1.06278E+00 1.55612E+00
 -1      3528 1.14696E+02-3.00666E+00 1.55612E+00
 -1      3529 1.14424E+02-4.11517E+00 2.85714E+00
 -1      3530 1.14702E+02 2.97721E+00 1.30102E+00
 -1      3531 1.14964E+02 1.03280E+00 1.30102E+00
 -1      3532 1.15000E+02-3.00540E-02 2.85714E+00
 -1      3533 1.13453E+02 6.63473E+00 1.25000E+00
 -1      3534 1.14204E+02 4.82201E+00 1.25000E+00
 -1      3535 1.14475E+02 3.93279E+00 2.55102E+00
 -1      3536 1.11276E+02 9.89257E+00 1.25000E+00
 -1      3537 1.12470E+02 8.33619E+00 1.25000E+00
 -1      3538 1.12989E+02 7.50313E+00 2.50000E+00
 -1      3539 1.08316E+02 1.24834E+01 1.25001E+00
 -1      3540 1.09875E+02 1.12911E+01 1.25001E+00
 -1      3541 1.10590E+02 1.06233E+01 2.50001E+00
 -1      3542 1.04713E+02 1.42402E+01 1.25003E+00
 -1      3543 1.06532E+02 1.35032E+01 1.25003E+00
 -1      3544 1.07383E+02 1.30572E+01 2.50004E+00
 -1      3545 1.00827E+02 1.49772E+01 1.25024E+00
 -1      3546 1.02775E+02 1.47411E+01 1.25024E+00
 -1      3547 1.03623E+02 1.45560E+01 2.50028E+00
 -1      3548 9.68936E+01 1.46748E+01 1.25086E+00
 -1      3549 9.88356E+01 1.49547E+01 1.25086E+00
 -1      3550 9.96620E+01 1.49962E+01 2.50110E+00
 -1      3551 9.32785E+01 1.34098E+01 1.25274E+00
 -1      3552 9.50863E+01 1.41724E+01 1.25274E+00
 -1      3553 9.58468E+01 1.44136E+01 2.50360E+00
 -1      3554 9.00738E+01 1.12459E+01 1.18215E+00
 -1      3555 9.16266E+01 1.24453E+01 1.18215E+00
 -1      3556 9.23745E+01 1.29171E+01 2.43489E+00
 -1      3557 8.96074E+01 1.08164E+01 2.25218E+00
 -1      3558 1.09875E+02 1.12911E+01 8.75000E+00
 -1      3559 1.08316E+02 1.24834E+01 8.75000E+00
 -1      3560 1.12470E+02 8.33619E+00 8.75000E+00
 -1      3561 1.11276E+02 9.89257E+00 8.75000E+00
 -1      3562 1.10590E+02 1.06233E+01 7.50001E+00
 -1      3563 1.06532E+02 1.35032E+01 8.75003E+00
 -1      3564 1.04713E+02 1.42402E+01 8.75003E+00
 -1      3565 1.07383E+02 1.30572E+01 7.50004E+00
 -1      3566 1.02775E+02 1.47411E+01 8.75025E+00
 -1      3567 1.00827E+02 1.49772E+01 8.75025E+00
 -1      3568 1.03623E+02 1.45560E+01 7.50028E+00
 -1      3569 9.88356E+01 1.49547E+01 8.75086E+00
 -1      3570 9.68936E+01 1.46748E+01 8.75086E+00
 -1      3571 9.96620E+01 1.49962E+01 7.50110E+00
 -1      3572 9.50863E+01 1.41724E+01 8.75274E+00
 -1      3573 9.32785E+01 1.34098E+01 8.75274E+00
 -1      3574 9.58468E+01 1.44136E+01 7.50360E+00
 -1      3575 9.16266E+01 1.24453E+01 8.82104E+00
 -1      3576 9.00738E+01 1.12459E+01 8.82104E+00
 -1      3577 9.23745E+01 1.29171E+01 7.57377E+00
 -1      3578 8.96074E+01 1.08164E+01 7.75218E+00
 -1      3579 9.01883E+01-1.13459E+01 8.42594E+00
 -1      3580 9.17531E+01-1.25295E+01 8.42594E+00
 -1      3581 8.96948E+01-1.08997E+01 7.20315E+00
 -1      3582 9.32409E+01-1.33908E+01 8.95308E+00
 -1      3583 9.50466E+01-1.41585E+01 8.95308E+00
 -1      3584 9.24694E+01-1.29726E+01 7.37903E+00
 -1      3585 9.66910E+01-1.46305E+01 8.68279E+00
 -1      3586 9.86290E+01-1.49372E+01 8.68279E+00
 -1      3587 9.56077E+01-1.43425E+01 7.63587E+00
 -1      3588 1.00894E+02-1.49733E+01 8.39286E+00
 -1      3589 1.02841E+02-1.47286E+01 8.39286E+00
 -1      3590 9.95216E+01-1.49924E+01 7.07565E+00
 -1      3591 1.04867E+02-1.41883E+01 8.69048E+00
 -1      3592 1.06678E+02-1.34316E+01 8.69048E+00
 -1      3593 1.03845E+02-1.44989E+01 7.08333E+00
 -1      3594 1.08321E+02-1.24805E+01 8.75000E+00
 -1      3595 1.09879E+02-1.12876E+01 8.75000E+00
 -1      3596 1.07529E+02-1.29737E+01 7.44048E+00
 -1      3597 1.11217E+02-9.95835E+00 8.75000E+00
 -1      3598 1.12421E+02-8.40898E+00 8.75000E+00
 -1      3599 1.10531E+02-1.06813E+01 7.50000E+00
 -1      3600 1.13382E+02-6.77566E+00 8.69048E+00
 -1      3601 1.14152E+02-4.97093E+00 8.69048E+00
 -1      3602 1.12864E+02-7.71451E+00 7.44048E+00
 -1      3603 1.14698E+02-2.99663E+00 8.39286E+00
 -1      3604 1.14963E+02-1.05257E+00 8.39286E+00
 -1      3605 1.14428E+02-4.10368E+00 7.08333E+00
 -1      3606 1.14964E+02 1.03450E+00 8.69048E+00
 -1      3607 1.14701E+02 2.97888E+00 8.69048E+00
 -1      3608 1.15000E+02-1.81068E-02 7.08333E+00
 -1      3609 1.14204E+02 4.82201E+00 8.75000E+00
 -1      3610 1.13453E+02 6.63473E+00 8.75000E+00
 -1      3611 1.14475E+02 3.93444E+00 7.44048E+00
 -1      3612 1.12989E+02 7.50313E+00 7.50000E+00
 -1      3613 8.79926E+01 8.99009E+00 4.16799E+00
 -1      3614 8.79926E+01 8.99009E+00 5.83466E+00
 -1      3615 8.88354E+01 1.00176E+01 3.57136E+00
 -1      3616 8.88354E+01 1.00176E+01 6.43247E+00
 -1      3617 8.78367E+01-8.77807E+00 3.73779E+00
 -1      3618 8.78367E+01-8.77807E+00 5.40446E+00
 -1      3619 8.86410E+01-9.79653E+00 5.84834E+00
 -1      3620 9.39292E+01-1.37166E+01 6.40697E+00
 -1      3621 9.55305E+01-1.43187E+01 6.13667E+00
 -1      3622 9.23996E+01-1.29319E+01 5.87983E+00
 -1      3623 9.39720E+01-1.37355E+01 3.43530E+00
 -1      3624 9.26765E+01-1.30907E+01 3.91529E+00
 -1      3625 9.55285E+01-1.43180E+01 3.74722E+00
 -1      3626 1.12298E+02-8.58875E+00 6.25000E+00
 -1      3627 1.13283E+02-6.96958E+00 6.19048E+00
 -1      3628 1.13539E+02-6.45767E+00 5.00000E+00
 -1      3629 1.13954E+02-5.50243E+00 6.19048E+00
 -1      3630 1.13282E+02-6.97109E+00 3.80102E+00
 -1      3631 1.12298E+02-8.58875E+00 3.75000E+00
 -1      3632 1.13954E+02-5.50402E+00 3.80102E+00
 -1      3633 1.11217E+02-9.95835E+00 6.25000E+00
 -1      3634 1.11766E+02-9.30353E+00 5.00000E+00
 -1      3635 1.11217E+02-9.95835E+00 3.75000E+00
 -1      3636 1.06678E+02-1.34316E+01 6.19048E+00
 -1      3637 1.05237E+02-1.40561E+01 6.19048E+00
 -1      3638 1.06101E+02-1.37032E+01 5.00000E+00
 -1      3639 1.05235E+02-1.40568E+01 3.80102E+00
 -1      3640 1.06676E+02-1.34325E+01 3.80102E+00
 -1      3641 1.08321E+02-1.24805E+01 6.25000E+00
 -1      3642 1.09131E+02-1.19003E+01 5.00000E+00
 -1      3643 1.09879E+02-1.12876E+01 6.25000E+00
 -1      3644 1.08321E+02-1.24805E+01 3.75000E+00
 -1      3645 1.09879E+02-1.12876E+01 3.75000E+00
 -1      3646 1.13452E+02 6.63711E+00 6.25000E+00
 -1      3647 1.12469E+02 8.33839E+00 6.25000E+00
 -1      3648 1.11265E+02 9.90453E+00 6.25000E+00
 -1      3649 1.11889E+02 9.14614E+00 5.00000E+00
 -1      3650 1.13857E+02 5.74270E+00 5.00000E+00
 -1      3651 1.14204E+02 4.82201E+00 6.25000E+00
 -1      3652 1.14204E+02 4.82201E+00 3.75000E+00
 -1      3653 1.13452E+02 6.63711E+00 3.75000E+00
 -1      3654 1.12469E+02 8.33839E+00 3.75000E+00
 -1      3655 1.11265E+02 9.90453E+00 3.75000E+00
 -1      3656 1.14985E+02-6.60518E-01 5.89286E+00
 -1      3657 1.14932E+02 1.42587E+00 6.19048E+00
 -1      3658 1.14701E+02 2.97888E+00 6.19048E+00
 -1      3659 1.14815E+02 2.34652E+00 5.00000E+00
 -1      3660 1.14932E+02 1.42417E+00 3.80102E+00
 -1      3661 1.14985E+02-6.70749E-01 4.05612E+00
 -1      3662 1.14702E+02 2.97721E+00 3.80102E+00
 -1      3663 1.14851E+02-2.11008E+00 4.94898E+00
 -1      3664 9.32669E+01 1.34039E+01 6.25823E+00
 -1      3665 9.16159E+01 1.24381E+01 6.32654E+00
 -1      3666 9.66762E+01 1.46271E+01 6.25274E+00
 -1      3667 9.48766E+01 1.40979E+01 6.25462E+00
 -1      3668 9.40428E+01 1.37663E+01 5.00738E+00
 -1      3669 8.99416E+01 1.11278E+01 6.32236E+00
 -1      3670 9.07183E+01 1.17835E+01 5.00682E+00
 -1      3671 1.09863E+02 1.13016E+01 6.25001E+00
 -1      3672 9.79571E+01-1.48602E+01 6.18279E+00
 -1      3673 1.00218E+02-1.49984E+01 5.89286E+00
 -1      3674 1.01772E+02-1.48949E+01 4.94898E+00
 -1      3675 1.00206E+02-1.49986E+01 4.05612E+00
 -1      3676 1.03225E+02-1.46491E+01 5.89286E+00
 -1      3677 1.03213E+02-1.46518E+01 4.05612E+00
 -1      3678 9.12924E+01-1.22138E+01 4.88735E+00
 -1      3679 8.98594E+01-1.10529E+01 5.49707E+00
 -1      3680 9.48766E+01 1.40979E+01 3.75462E+00
 -1      3681 9.66762E+01 1.46271E+01 3.75274E+00
 -1      3682 9.74256E+01 1.47774E+01 5.00236E+00
 -1      3683 9.84362E+01 1.49183E+01 3.75133E+00
 -1      3684 1.00426E+02 1.49939E+01 3.75072E+00
 -1      3685 9.16159E+01 1.24381E+01 3.68765E+00
 -1      3686 9.32669E+01 1.34039E+01 3.75823E+00
 -1      3687 8.99416E+01 1.11278E+01 3.68348E+00
 -1      3688 1.14574E+02-3.55015E+00 5.89286E+00
 -1      3689 9.62001E+01-1.45107E+01 4.95388E+00
 -1      3690 9.79550E+01-1.48599E+01 3.79333E+00
 -1      3691 1.01335E+02 1.49405E+01 5.00058E+00
 -1      3692 1.02553E+02 1.47812E+01 3.75035E+00
 -1      3693 1.00426E+02 1.49939E+01 6.25072E+00
 -1      3694 1.02553E+02 1.47812E+01 6.25035E+00
 -1      3695 1.04498E+02 1.43096E+01 3.75014E+00
 -1      3696 1.05479E+02 1.39637E+01 5.00012E+00
 -1      3697 1.06481E+02 1.35276E+01 3.75005E+00
 -1      3698 1.04498E+02 1.43096E+01 6.25014E+00
 -1      3699 1.06481E+02 1.35276E+01 6.25005E+00
 -1      3700 1.14571E+02-3.56010E+00 4.05612E+00
 -1      3701 9.84362E+01 1.49183E+01 6.25133E+00
 -1      3702 1.08270E+02 1.25145E+01 6.25003E+00
 -1      3703 1.09074E+02 1.19441E+01 5.00002E+00
 -1      3704 1.09863E+02 1.13016E+01 3.75001E+00
 -1      3705 1.08270E+02 1.25145E+01 3.75003E+00
 -1      3706 5.08789E+01-9.61194E-01 3.35359E+00
 -1      3707 5.08315E+01 7.13171E-01 6.36176E+00
 -1      3708 5.57205E+01 4.43003E+00 3.91537E+00
 -1      3709 5.20152E+01-3.08596E+00 6.70188E+00
 -1      3710 5.18665E+01 2.92316E+00 3.39337E+00
 -1      3711 5.77516E+01 3.67582E+00 6.44543E+00
 -1      3712 5.25872E+01 3.58817E+00 6.90845E+00
 -1      3713 5.31637E+01-3.94853E+00 3.62132E+00
 -1      3714 5.91896E+01 2.04801E+00 7.33954E+00
 -1      3715 5.90876E+01 2.23421E+00 3.38478E+00
 -1      3716 5.56006E+01 4.44164E+00 7.58747E+00
 -1      3717 5.92471E+01-1.93285E+00 3.84459E+00
 -1      3718 5.71430E+01-4.02605E+00 3.86106E+00
 -1      3719 5.55766E+01-4.44357E+00 6.87460E+00
 -1      3720 5.86826E+01-2.81984E+00 6.96893E+00
 -1      3721 5.95353E+01 1.15674E+00 1.69239E+00
 -1      3722 5.86071E+01 2.90974E+00 1.69239E+00
 -1      3723 5.87160E+01-2.77847E+00 1.92229E+00
 -1      3724 5.95764E+01-9.91253E-01 1.92229E+00
 -1      3725 5.95764E+01-9.91253E-01 3.58896E+00
 -1      3726 5.95353E+01 1.15674E+00 3.35906E+00
 -1      3727 5.86755E+01 2.82850E+00 8.66977E+00
 -1      3728 5.95616E+01 1.05389E+00 8.66977E+00
 -1      3729 5.94291E+01-1.49686E+00 8.48446E+00
 -1      3730 5.83639E+01-3.17012E+00 8.48446E+00
 -1      3731 5.95616E+01 1.05389E+00 7.00310E+00
 -1      3732 5.94291E+01-1.49686E+00 6.81780E+00
 -1      3733 5.49162E+01 4.44586E+00 8.79373E+00
 -1      3734 5.68764E+01 4.14217E+00 8.79373E+00
 -1      3735 5.67260E+01 4.19880E+00 7.01645E+00
 -1      3736 5.78825E+01 3.58255E+00 8.22272E+00
 -1      3737 5.85713E+01 2.95086E+00 6.89249E+00
 -1      3738 5.33742E+01 4.05180E+00 8.45423E+00
 -1      3739 5.18001E+01 2.84491E+00 8.45423E+00
 -1      3740 5.40165E+01 4.28832E+00 7.24796E+00
 -1      3741 5.09794E+01 1.33734E+00 8.18088E+00
 -1      3742 5.08202E+01-6.39804E-01 8.18088E+00
 -1      3743 5.14272E+01 2.32294E+00 6.63510E+00
 -1      3744 5.30350E+01-3.87845E+00 8.35094E+00
 -1      3745 5.15697E+01-2.54155E+00 8.35094E+00
 -1      3746 5.09758E+01-1.32584E+00 6.53182E+00
 -1      3747 5.68652E+01-4.14659E+00 8.43730E+00
 -1      3748 5.49042E+01-4.44500E+00 8.43730E+00
 -1      3749 5.36435E+01-4.16467E+00 6.78824E+00
 -1      3750 5.72959E+01-3.94981E+00 6.92177E+00
 -1      3751 5.49763E+01 4.44971E+00 1.95769E+00
 -1      3752 5.69322E+01 4.11956E+00 1.95769E+00
 -1      3753 5.76657E+01 3.73328E+00 3.65008E+00
 -1      3754 5.15080E+01 2.45021E+00 1.69669E+00
 -1      3755 5.29398E+01 3.82294E+00 1.69669E+00
 -1      3756 5.36080E+01 4.15099E+00 3.65437E+00
 -1      3757 5.10190E+01-1.45725E+00 1.67679E+00
 -1      3758 5.08038E+01 5.14594E-01 1.67679E+00
 -1      3759 5.09115E+01 1.09826E+00 3.37348E+00
 -1      3760 5.20271E+01-3.09830E+00 1.81066E+00
 -1      3761 5.36887E+01-4.18162E+00 1.81066E+00
 -1      3762 5.16908E+01-2.70766E+00 3.48745E+00
 -1      3763 5.57180E+01-4.43031E+00 1.93053E+00
 -1      3764 5.75920E+01-3.78027E+00 1.93053E+00
 -1      3765 5.51442E+01-4.45615E+00 3.74119E+00
 -1      3766 5.83744E+01-3.15973E+00 3.85282E+00
 -1      3767 5.95764E+01-9.91253E-01 5.25563E+00
 -1      3768 5.95353E+01 1.15674E+00 5.02573E+00
 -1      3769 5.89911E+01-2.39305E+00 5.40676E+00
 -1      3770 5.91397E+01 2.14172E+00 5.36216E+00
 -1      3771 5.43353E+01-4.36606E+00 5.24796E+00
 -1      3772 5.25545E+01-3.56382E+00 5.16160E+00
 -1      3773 5.07758E+01-1.26261E-01 4.85767E+00
 -1      3774 5.13007E+01-2.10182E+00 5.02773E+00
 -1      3775 5.79798E+01-3.50844E+00 5.41499E+00
 -1      3776 5.85000E+01 3.02958E+00 4.91511E+00
 -1      3777 5.67826E+01 4.17822E+00 5.18040E+00
 -1      3778 5.40745E+01 4.30434E+00 5.41191E+00
 -1      3779 5.56606E+01 4.43624E+00 5.75142E+00
 -1      3780 5.22085E+01 3.27554E+00 5.15091E+00
 -1      3781 5.11948E+01 1.89039E+00 4.87756E+00
 -1      3782 5.63790E+01-4.30662E+00 5.36783E+00
 -1      3783-1.49281E+01-1.46655E+00 6.84997E+00
 -1      3784-1.49530E+01 1.18636E+00 3.29334E+00
 -1      3785 9.92345E+00 1.12483E+01 6.63170E+00
 -1      3786-1.18287E+01 9.22403E+00 2.91100E+00
 -1      3787 1.14511E+01-9.68882E+00 5.91471E+00
 -1      3788 1.38446E+01 5.77301E+00 6.38677E+00
 -1      3789-1.36521E+01-6.21453E+00 3.39594E+00
 -1      3790-1.39135E+01 5.60475E+00 6.91422E+00
 -1      3791 1.40433E+01-5.27130E+00 2.87685E+00
 -1      3792-5.72674E+00 1.38638E+01 4.12749E+00
 -1      3793 8.65711E+00-1.22497E+01 6.54752E+00
 -1      3794-8.52052E+00 1.23451E+01 7.20619E+00
 -1      3795 1.47821E+01-2.54771E+00 5.83877E+00
 -1      3796 2.46313E+00 1.47964E+01 7.04752E+00
 -1      3797-1.34506E+01 6.63935E+00 3.62860E+00
 -1      3798-1.23254E+01-8.54892E+00 6.66220E+00
 -1      3799-1.48456E+01 2.14641E+00 6.71407E+00
 -1      3800-2.12628E+00 1.48485E+01 6.44724E+00
 -1      3801-1.17129E+01-9.37059E+00 2.81020E+00
 -1      3802 1.22161E+01 8.70445E+00 7.06327E+00
 -1      3803 1.35525E+01-6.42889E+00 6.32788E+00
 -1      3804-5.67610E+00-1.38846E+01 2.77532E+00
 -1      3805-1.45188E+01 3.76890E+00 3.91703E+00
 -1      3806-5.34070E+00 1.40170E+01 7.59370E+00
 -1      3807 1.22856E+01-8.60598E+00 2.95033E+00
 -1      3808-2.43655E+00-1.48008E+01 3.44330E+00
 -1      3809 1.11606E+00 1.49584E+01 3.71246E+00
 -1      3810-1.41140E+01-5.07875E+00 6.67227E+00
 -1      3811-9.63917E+00-1.14929E+01 6.71228E+00
 -1      3812 9.72221E+00-1.14227E+01 2.92075E+00
 -1      3813 1.47043E+01 2.96388E+00 3.44047E+00
 -1      3814-9.45194E+00 1.16474E+01 3.67665E+00
 -1      3815-1.17859E+01 9.27867E+00 6.33381E+00
 -1      3816 5.89278E+00-1.37940E+01 3.93411E+00
 -1      3817 1.66539E+00-1.49073E+01 3.42403E+00
 -1      3818 2.75780E+00-1.47443E+01 6.91985E+00
 -1      3819-1.47695E+01-2.61935E+00 3.36859E+00
 -1      3820 1.19438E+01 9.07446E+00 3.59390E+00
 -1      3821 5.81158E+00-1.38284E+01 7.48030E+00
 -1      3822-8.62969E+00-1.22690E+01 3.37637E+00
 -1      3823-1.28766E+00-1.49446E+01 6.95794E+00
 -1      3824 1.48124E+01-2.36478E+00 2.40979E+00
 -1      3825 6.41796E+00 1.35576E+01 6.74976E+00
 -1      3826-2.15635E+00 1.48442E+01 2.85744E+00
 -1      3827 8.72403E+00 1.22021E+01 3.40493E+00
 -1      3828 1.37827E+01 5.91912E+00 2.58939E+00
 -1      3829 5.11446E+00 1.41011E+01 3.48578E+00
 -1      3830-5.70970E+00-1.38708E+01 6.18075E+00
 -1      3831 1.48477E+01 2.13216E+00 6.63787E+00
 -1      3832 1.46038E+01 3.42478E+00 1.72024E+00
 -1      3833 1.49259E+01 1.48930E+00 1.72024E+00
 -1      3834 1.46703E+01-3.12772E+00 1.20490E+00
 -1      3835 1.49530E+01-1.18610E+00 1.20490E+00
 -1      3836 1.49530E+01-1.18610E+00 2.87156E+00
 -1      3837 1.49259E+01 1.48930E+00 3.38690E+00
 -1      3838 1.46944E+01 3.01257E+00 8.31894E+00
 -1      3839 1.49619E+01 1.06880E+00 8.31894E+00
 -1      3840 1.46507E+01-3.21834E+00 7.91939E+00
 -1      3841 1.49454E+01-1.27851E+00 7.91939E+00
 -1      3842 1.49619E+01 1.06880E+00 6.65227E+00
 -1      3843 1.49454E+01-1.27851E+00 6.25272E+00
 -1      3844 1.41725E+01 4.91340E+00 1.29470E+00
 -1      3845 1.34099E+01 6.72124E+00 1.29470E+00
 -1      3846 1.43199E+01 4.46533E+00 3.01493E+00
 -1      3847 1.13012E+01 9.86322E+00 1.79695E+00
 -1      3848 1.24919E+01 8.30373E+00 1.79695E+00
 -1      3849 1.29597E+01 7.55296E+00 3.09164E+00
 -1      3850 9.69818E+00 1.14431E+01 1.70246E+00
 -1      3851 8.12159E+00 1.26111E+01 1.70246E+00
 -1      3852 1.04516E+01 1.07594E+01 3.49941E+00
 -1      3853 6.33163E+00 1.35982E+01 1.74289E+00
 -1      3854 4.50255E+00 1.43083E+01 1.74289E+00
 -1      3855 6.98409E+00 1.32749E+01 3.44535E+00
 -1      3856 5.58415E-01 1.49896E+01 1.85623E+00
 -1      3857 2.51017E+00 1.47885E+01 1.85623E+00
 -1      3858 3.14461E+00 1.46667E+01 3.59912E+00
 -1      3859-1.08099E+00 1.49610E+01 1.42872E+00
 -1      3860-3.02454E+00 1.46919E+01 1.42872E+00
 -1      3861-5.23273E-01 1.49909E+01 3.28495E+00
 -1      3862-4.81467E+00 1.42063E+01 2.06374E+00
 -1      3863-6.62777E+00 1.34563E+01 2.06374E+00
 -1      3864-3.97191E+00 1.44646E+01 3.49246E+00
 -1      3865-1.00428E+01 1.11419E+01 1.83832E+00
 -1      3866-8.50253E+00 1.23575E+01 1.83832E+00
 -1      3867-7.66982E+00 1.28908E+01 3.90207E+00
 -1      3868-1.12389E+01 9.93412E+00 1.45550E+00
 -1      3869-1.24394E+01 8.38216E+00 1.45550E+00
 -1      3870-1.07091E+01 1.05031E+01 3.29382E+00
 -1      3871-1.40376E+01 5.28637E+00 1.81430E+00
 -1      3872-1.32275E+01 7.07342E+00 1.81430E+00
 -1      3873-1.27055E+01 7.97304E+00 3.26980E+00
 -1      3874-1.47825E+01 2.54493E+00 1.64667E+00
 -1      3875-1.49882E+01 5.93647E-01 1.64667E+00
 -1      3876-1.47924E+01 2.48712E+00 3.60519E+00
 -1      3877-1.45040E+01 3.82562E+00 1.95851E+00
 -1      3878-1.40582E+01 5.23146E+00 3.77281E+00
 -1      3879-1.49423E+01-1.31473E+00 1.68429E+00
 -1      3880-1.46428E+01-3.25384E+00 1.68429E+00
 -1      3881-1.49826E+01-7.22342E-01 3.33097E+00
 -1      3882-1.41187E+01-5.06571E+00 1.69797E+00
 -1      3883-1.33367E+01-6.86524E+00 1.69797E+00
 -1      3884-1.43241E+01-4.45214E+00 3.38226E+00
 -1      3885-1.11768E+01-1.00039E+01 1.40510E+00
 -1      3886-1.23870E+01-8.45944E+00 1.40510E+00
 -1      3887-1.27803E+01-7.85265E+00 3.10307E+00
 -1      3888-8.07290E+00-1.26423E+01 1.68819E+00
 -1      3889-9.65399E+00-1.14804E+01 1.68819E+00
 -1      3890-1.02740E+01-1.09291E+01 3.09329E+00
 -1      3891-6.60321E+00-1.34684E+01 1.38766E+00
 -1      3892-4.78874E+00-1.42151E+01 1.38766E+00
 -1      3893-7.19836E+00-1.31599E+01 3.07585E+00
 -1      3894-1.22234E+00-1.49501E+01 1.72165E+00
 -1      3895-3.16326E+00-1.46627E+01 1.72165E+00
 -1      3896-4.08211E+00-1.44339E+01 3.10931E+00
 -1      3897 2.78172E+00-1.47398E+01 1.71201E+00
 -1      3898 8.33986E-01-1.49768E+01 1.71201E+00
 -1      3899-3.89237E-01-1.49949E+01 3.43367E+00
 -1      3900 6.70844E+00-1.34163E+01 1.96705E+00
 -1      3901 4.89987E+00-1.41771E+01 1.96705E+00
 -1      3902 3.81986E+00-1.45055E+01 3.67907E+00
 -1      3903 1.01726E+01-1.10235E+01 1.46038E+00
 -1      3904 8.64671E+00-1.22570E+01 1.46038E+00
 -1      3905 7.89701E+00-1.27529E+01 3.42743E+00
 -1      3906 1.26501E+01-8.06070E+00 1.47516E+00
 -1      3907 1.14897E+01-9.64291E+00 1.47516E+00
 -1      3908 1.10937E+01-1.00960E+01 2.93554E+00
 -1      3909 1.35627E+01-6.40732E+00 1.43842E+00
 -1      3910 1.42830E+01-4.58221E+00 1.43842E+00
 -1      3911 1.32696E+01-6.99407E+00 2.91359E+00
 -1      3912 1.45009E+01-3.83736E+00 2.64332E+00
 -1      3913 1.34452E+01 6.65024E+00 8.19338E+00
 -1      3914 1.41982E+01 4.83839E+00 8.19338E+00
 -1      3915 1.44612E+01 3.98428E+00 6.51232E+00
 -1      3916 1.14509E+01 9.68900E+00 8.53163E+00
 -1      3917 1.26176E+01 8.11147E+00 8.53163E+00
 -1      3918 1.31125E+01 7.28438E+00 6.72502E+00
 -1      3919 8.75516E+00 1.21798E+01 8.31585E+00
 -1      3920 1.02700E+01 1.09328E+01 8.31585E+00
 -1      3921 1.11426E+01 1.00420E+01 6.84749E+00
 -1      3922 5.17113E+00 1.40805E+01 8.37488E+00
 -1      3923 6.96476E+00 1.32850E+01 8.37488E+00
 -1      3924 8.25189E+00 1.25262E+01 6.69073E+00
 -1      3925 1.23577E+00 1.49490E+01 8.52376E+00
 -1      3926 3.17643E+00 1.46598E+01 8.52376E+00
 -1      3927 4.48353E+00 1.43143E+01 6.89864E+00
 -1      3928-3.00966E+00 1.46950E+01 8.22362E+00
 -1      3929-1.06584E+00 1.49621E+01 8.22362E+00
 -1      3930 1.70429E-01 1.49990E+01 6.74738E+00
 -1      3931-4.61752E+00 1.42716E+01 8.79685E+00
 -1      3932-6.44084E+00 1.35468E+01 8.79685E+00
 -1      3933-3.75657E+00 1.45220E+01 7.02047E+00
 -1      3934-9.60298E+00 1.15231E+01 8.60310E+00
 -1      3935-8.01676E+00 1.26780E+01 8.60310E+00
 -1      3936-6.98085E+00 1.32766E+01 7.39995E+00
 -1      3937-1.24200E+01 8.41092E+00 8.16690E+00
 -1      3938-1.12159E+01 9.96010E+00 8.16690E+00
 -1      3939-1.02683E+01 1.09344E+01 6.77000E+00
 -1      3940-1.42273E+01 4.75223E+00 8.45711E+00
 -1      3941-1.34853E+01 6.56861E+00 8.45711E+00
 -1      3942-1.29803E+01 7.51737E+00 6.62402E+00
 -1      3943-1.49614E+01 1.07598E+00 8.35704E+00
 -1      3944-1.46929E+01 3.01962E+00 8.35704E+00
 -1      3945-1.44832E+01 3.90350E+00 6.81415E+00
 -1      3946-1.47580E+01-2.68342E+00 8.42498E+00
 -1      3947-1.49820E+01-7.34156E-01 8.42498E+00
 -1      3948-1.49961E+01 3.42425E-01 6.78202E+00
 -1      3949-1.43140E+01-4.48444E+00 8.33613E+00
 -1      3950-1.36062E+01-6.31442E+00 8.33613E+00
 -1      3951-1.46330E+01-3.29787E+00 6.76112E+00
 -1      3952-1.26688E+01-8.03135E+00 8.33110E+00
 -1      3953-1.15121E+01-9.61624E+00 8.33110E+00
 -1      3954-1.33331E+01-6.87227E+00 6.66723E+00
 -1      3955-8.60223E+00-1.22883E+01 8.35614E+00
 -1      3956-1.01326E+01-1.10603E+01 8.35614E+00
 -1      3957-1.10805E+01-1.01105E+01 6.68724E+00
 -1      3958-6.61951E+00-1.34604E+01 8.09037E+00
 -1      3959-4.80594E+00-1.42093E+01 8.09037E+00
 -1      3960-7.76599E+00-1.28331E+01 6.44651E+00
 -1      3961-2.59500E+00-1.47738E+01 8.47897E+00
 -1      3962-6.44426E-01-1.49862E+01 8.47897E+00
 -1      3963-3.53964E+00-1.45764E+01 6.56934E+00
 -1      3964 1.38482E+00-1.49359E+01 8.45993E+00
 -1      3965 3.32250E+00-1.46274E+01 8.45993E+00
 -1      3966 7.41862E-01-1.49816E+01 6.93889E+00
 -1      3967 6.66897E+00-1.34360E+01 8.74015E+00
 -1      3968 4.85817E+00-1.41915E+01 8.74015E+00
 -1      3969 4.30909E+00-1.43677E+01 7.20007E+00
 -1      3970 9.66683E+00-1.14696E+01 8.27376E+00
 -1      3971 8.08704E+00-1.26333E+01 8.27376E+00
 -1      3972 7.27729E+00-1.31164E+01 7.01391E+00
 -1      3973 1.22696E+01-8.62880E+00 7.95736E+00
 -1      3974 1.10384E+01-1.01565E+01 7.95736E+00
 -1      3975 1.01353E+01-1.10578E+01 6.23112E+00
 -1      3976 1.40784E+01-5.17680E+00 8.16394E+00
 -1      3977 1.32822E+01-6.97011E+00 8.16394E+00
 -1      3978 1.26076E+01-8.12706E+00 6.12130E+00
 -1      3979 1.42996E+01-4.53021E+00 6.08333E+00
 -1      3980 1.49619E+01 1.06880E+00 4.98560E+00
 -1      3981 1.49454E+01-1.27851E+00 4.58605E+00
 -1      3982 1.47818E+01 2.54903E+00 5.03917E+00
 -1      3983 1.47975E+01-2.45629E+00 4.12428E+00
 -1      3984-5.69291E+00-1.38777E+01 4.47803E+00
 -1      3985-7.21429E+00-1.31512E+01 4.77856E+00
 -1      3986-4.09958E+00-1.44289E+01 4.81202E+00
 -1      3987-9.14267E+00-1.18917E+01 5.04433E+00
 -1      3988-1.07286E+01-1.04831E+01 4.76124E+00
 -1      3989-1.44940E+01-3.86298E+00 5.02043E+00
 -1      3990-1.48600E+01-2.04449E+00 5.10928E+00
 -1      3991-1.49993E+01-1.40645E-01 5.07166E+00
 -1      3992-1.49071E+01 1.66725E+00 5.00371E+00
 -1      3993-1.26871E+01 8.00242E+00 4.98121E+00
 -1      3994-1.18073E+01 9.25137E+00 4.62241E+00
 -1      3995-1.06847E+01 1.05279E+01 5.00523E+00
 -1      3996-1.20262E+01-8.96499E+00 4.73620E+00
 -1      3997-5.08094E-01 1.49914E+01 5.07985E+00
 -1      3998 1.79143E+00 1.48926E+01 5.37999E+00
 -1      3999 3.80471E+00 1.45095E+01 5.26665E+00
 -1      4000 5.77261E+00 1.38447E+01 5.11777E+00
 -1      4001 1.43434E+01 4.38954E+00 4.91362E+00
 -1      4002 1.89787E-01-1.49988E+01 5.19098E+00
 -1      4003-1.86349E+00-1.48838E+01 5.20062E+00
 -1      4004-1.38947E+01-5.65136E+00 5.03410E+00
 -1      4005-1.30411E+01-7.41147E+00 5.02907E+00
 -1      4006 1.38139E+01 5.84615E+00 4.48808E+00
 -1      4007 1.29994E+01 7.48432E+00 4.99033E+00
 -1      4008 1.20814E+01 8.89050E+00 5.32858E+00
 -1      4009 2.21310E+00-1.48358E+01 5.17194E+00
 -1      4010 4.35131E+00-1.43550E+01 5.42698E+00
 -1      4011 5.85221E+00-1.38113E+01 5.70720E+00
 -1      4012-1.47046E+01 2.96217E+00 5.31555E+00
 -1      4013-1.36919E+01 6.12642E+00 5.27141E+00
 -1      4014-1.42458E+01 4.69658E+00 5.41563E+00
 -1      4015 1.06221E+01-1.05911E+01 4.41773E+00
 -1      4016 1.18807E+01-9.15691E+00 4.43252E+00
 -1      4017 1.38100E+01-5.85524E+00 4.60237E+00
 -1      4018 1.29648E+01-7.54407E+00 4.63911E+00
 -1      4019-5.53425E+00 1.39417E+01 5.86059E+00
 -1      4020-3.95726E+00 1.44686E+01 5.28736E+00
 -1      4021-2.14132E+00 1.48464E+01 4.65234E+00
 -1      4022 1.44769E+01-3.92692E+00 4.35781E+00
 -1      4023-7.16399E+00 1.31787E+01 5.66684E+00
 -1      4024-8.99300E+00 1.20052E+01 5.44142E+00
 -1      4025 9.19896E+00-1.18482E+01 4.73414E+00
 -1      4026 7.31581E+00-1.30950E+01 5.24082E+00
 -1      4027 1.09875E+01 1.02115E+01 5.11280E+00
 -1      4028 7.60128E+00 1.29314E+01 5.07734E+00
 -1      4029 9.33593E+00 1.17405E+01 5.01832E+00
 -1      4030 9.02216E+01-2.09344E+00 3.10548E+00
 -1      4031 1.05672E+02 8.23565E+00 3.45624E+00
 -1      4032 1.08171E+02-5.76550E+00 6.39466E+00
 -1      4033 1.07873E+02 6.16609E+00 6.50122E+00
 -1      4034 9.33786E+01 7.49384E+00 6.68445E+00
 -1      4035 9.31196E+01-7.25671E+00 4.70045E+00
 -1      4036 9.47893E+01-8.53514E+00 7.27003E+00
 -1      4037 1.04885E+02-8.72539E+00 6.08751E+00
 -1      4038 9.62528E+01-9.27137E+00 4.55656E+00
 -1      4039 1.09539E+02 3.00230E+00 5.69450E+00
 -1      4040 9.11758E+01 4.70461E+00 5.30267E+00
 -1      4041 9.60066E+01 9.16801E+00 4.83248E+00
 -1      4042 9.82526E+01-9.84614E+00 7.22604E+00
 -1      4043 9.12480E+01-4.83755E+00 2.94773E+00
 -1      4044 9.10857E+01-4.53162E+00 6.36949E+00
 -1      4045 1.02895E+02 9.57175E+00 5.69225E+00
 -1      4046 1.02358E+02 9.71813E+00 2.14361E+00
 -1      4047 1.05616E+02 8.27441E+00 7.12994E+00
 -1      4048 9.17906E+01 5.71018E+00 7.95971E+00
 -1      4049 9.51462E+01-8.74304E+00 2.26957E+00
 -1      4050 9.30082E+01 7.14949E+00 2.80576E+00
 -1      4051 1.08465E+02 5.32316E+00 2.72666E+00
 -1      4052 9.00645E+01-1.13429E+00 6.52396E+00
 -1      4053 9.01997E+01 1.98853E+00 6.84103E+00
 -1      4054 9.96112E+01 9.99244E+00 7.10095E+00
 -1      4055 9.00797E+01 1.26018E+00 3.62886E+00
 -1      4056 9.96003E+01 9.99201E+00 3.28889E+00
 -1      4057 1.09681E+02 2.50415E+00 2.25172E+00
 -1      4058 1.08719E+02-4.89672E+00 3.22782E+00
 -1      4059 1.01556E+02-9.87825E+00 7.49501E+00
 -1      4060 1.09714E+02-2.37504E+00 6.62367E+00
 -1      4061 1.06902E+02-7.23627E+00 3.71165E+00
 -1      4062 1.00983E+02-9.95161E+00 3.78101E+00
 -1      4063 1.04801E+02-8.77216E+00 2.79213E+00
 -1      4064 1.09848E+02 1.73525E+00 8.09029E+00
 -1      4065 9.76518E+01-9.72038E+00 2.12143E+00
 -1      4066 1.09739E+02-2.26849E+00 2.63696E+00
 -1      4067 1.09521E+02-3.05792E+00 1.31848E+00
 -1      4068 1.09935E+02-1.14171E+00 1.31848E+00
 -1      4069 1.09483E+02 3.17322E+00 1.12586E+00
 -1      4070 1.09920E+02 1.26217E+00 1.12586E+00
 -1      4071 1.09920E+02 1.26217E+00 2.79253E+00
 -1      4072 1.09935E+02-1.14171E+00 2.98515E+00
 -1      4073 1.09601E+02 2.79769E+00 9.04515E+00
 -1      4074 1.09962E+02 8.70937E-01 9.04515E+00
 -1      4075 1.09504E+02-3.11002E+00 8.31183E+00
 -1      4076 1.09928E+02-1.19611E+00 8.31183E+00
 -1      4077 1.09962E+02 8.70937E-01 7.37848E+00
 -1      4078 1.09928E+02-1.19611E+00 6.64517E+00
 -1      4079 1.05997E+02-8.00252E+00 1.39606E+00
 -1      4080 1.04320E+02-9.01864E+00 1.39606E+00
 -1      4081 1.00492E+02-9.98790E+00 1.89051E+00
 -1      4082 1.02431E+02-9.70002E+00 1.89051E+00
 -1      4083 1.02951E+02-9.55457E+00 3.28657E+00
 -1      4084 1.07970E+02-6.04036E+00 1.61391E+00
 -1      4085 1.08995E+02-4.36951E+00 1.61391E+00
 -1      4086 1.06987E+02-7.15417E+00 1.85582E+00
 -1      4087 1.05902E+02-8.07285E+00 3.25189E+00
 -1      4088 1.07898E+02-6.13415E+00 3.46974E+00
 -1      4089 1.09322E+02-3.61874E+00 2.93239E+00
 -1      4090 1.06035E+02-7.97347E+00 8.04376E+00
 -1      4091 1.04364E+02-8.99767E+00 8.04376E+00
 -1      4092 1.03272E+02-9.44963E+00 6.79126E+00
 -1      4093 1.02710E+02-9.62574E+00 8.74750E+00
 -1      4094 1.07649E+02-6.44179E+00 8.19733E+00
 -1      4095 1.06694E+02-7.42930E+00 6.24109E+00
 -1      4096 1.04843E+02-8.74887E+00 4.43982E+00
 -1      4097 1.02997E+02-9.54021E+00 4.93426E+00
 -1      4098 1.01270E+02-9.91907E+00 5.63801E+00
 -1      4099 1.05941E+02-8.04426E+00 4.89958E+00
 -1      4100 1.07572E+02-6.53176E+00 5.05316E+00
 -1      4101 1.08884E+02 4.59131E+00 1.36333E+00
 -1      4102 1.07817E+02 6.23621E+00 1.36333E+00
 -1      4103 1.09182E+02 3.96059E+00 2.48919E+00
 -1      4104 1.06398E+02 7.68525E+00 1.72812E+00
 -1      4105 1.04776E+02 8.78581E+00 1.72812E+00
 -1      4106 1.07217E+02 6.92177E+00 3.09145E+00
 -1      4107 1.03101E+02 9.50689E+00 1.07180E+00
 -1      4108 1.01187E+02 9.92928E+00 1.07180E+00
 -1      4109 1.04083E+02 9.12860E+00 2.79992E+00
 -1      4110 9.78534E+01 9.76689E+00 1.64444E+00
 -1      4111 9.98001E+01 9.99800E+00 1.64444E+00
 -1      4112 1.00988E+02 9.95103E+00 2.71625E+00
 -1      4113 9.29685E+01 7.11039E+00 1.40288E+00
 -1      4114 9.44908E+01 8.34555E+00 1.40288E+00
 -1      4115 9.44154E+01 8.29534E+00 3.81912E+00
 -1      4116 9.60897E+01 9.20378E+00 2.41624E+00
 -1      4117 9.77651E+01 9.74706E+00 4.06068E+00
 -1      4118 9.17164E+01 5.60198E+00 1.40288E+00
 -1      4119 9.03349E+01 2.56623E+00 1.81443E+00
 -1      4120 9.00200E+01 6.31348E-01 1.81443E+00
 -1      4121 9.09578E+01 4.27076E+00 2.65134E+00
 -1      4122 9.04708E+01 3.03233E+00 4.46576E+00
 -1      4123 9.19981E+01 5.99745E+00 4.05422E+00
 -1      4124 9.04520E+01-2.97241E+00 1.55274E+00
 -1      4125 9.00555E+01-1.05256E+00 1.55274E+00
 -1      4126 9.00089E+01-4.22624E-01 3.36717E+00
 -1      4127 9.09904E+01-4.33902E+00 1.47387E+00
 -1      4128 9.20100E+01-6.01333E+00 1.47387E+00
 -1      4129 9.06337E+01-3.50328E+00 3.02661E+00
 -1      4130 9.39792E+01-7.98440E+00 1.13479E+00
 -1      4131 9.56526E+01-9.00557E+00 1.13479E+00
 -1      4132 9.30236E+01-7.16452E+00 2.35022E+00
 -1      4133 9.40860E+01-8.06380E+00 3.48501E+00
 -1      4134 9.20907E+01-6.11911E+00 3.82409E+00
 -1      4135 9.88176E+01-9.92985E+00 1.06071E+00
 -1      4136 9.69031E+01-9.50838E+00 1.06071E+00
 -1      4137 9.63660E+01-9.31633E+00 2.19550E+00
 -1      4138 9.93075E+01-9.97599E+00 2.95122E+00
 -1      4139 1.07486E+02 6.63070E+00 8.25061E+00
 -1      4140 1.08635E+02 5.04293E+00 8.25061E+00
 -1      4141 1.09398E+02 3.41786E+00 7.84725E+00
 -1      4142 1.09714E+02 2.37383E+00 6.89240E+00
 -1      4143 1.08848E+02 4.65926E+00 6.09786E+00
 -1      4144 1.06372E+02 7.70718E+00 8.56497E+00
 -1      4145 1.04746E+02 8.80215E+00 8.56497E+00
 -1      4146 1.06826E+02 7.30792E+00 6.81558E+00
 -1      4147 1.01760E+02 9.84393E+00 8.55047E+00
 -1      4148 9.98056E+01 9.99811E+00 8.55047E+00
 -1      4149 1.04304E+02 9.02616E+00 6.41110E+00
 -1      4150 1.03365E+02 9.41681E+00 7.84612E+00
 -1      4151 1.01271E+02 9.91894E+00 6.39660E+00
 -1      4152 9.78588E+01 9.76807E+00 8.55047E+00
 -1      4153 9.31505E+01 7.28592E+00 8.34222E+00
 -1      4154 9.47036E+01 8.48219E+00 8.34222E+00
 -1      4155 9.60897E+01 9.20378E+00 7.41624E+00
 -1      4156 9.77705E+01 9.74829E+00 5.96671E+00
 -1      4157 9.46270E+01 8.43391E+00 5.75846E+00
 -1      4158 9.23295E+01 6.41592E+00 8.97985E+00
 -1      4159 9.12252E+01 4.79620E+00 8.97985E+00
 -1      4160 9.25312E+01 6.64958E+00 7.32208E+00
 -1      4161 9.04362E+01 2.92121E+00 8.42052E+00
 -1      4162 9.00500E+01 9.99269E-01 8.42052E+00
 -1      4163 9.14684E+01 5.21646E+00 6.63119E+00
 -1      4164 9.09578E+01 4.27076E+00 7.65133E+00
 -1      4165 9.05892E+01 3.38197E+00 6.07185E+00
 -1      4166 9.03188E+01-2.50490E+00 8.26198E+00
 -1      4167 9.00162E+01-5.68065E-01 8.26198E+00
 -1      4168 9.00094E+01 4.32434E-01 6.68249E+00
 -1      4169 9.09166E+01-4.18238E+00 8.18475E+00
 -1      4170 9.19071E+01-5.87409E+00 8.18475E+00
 -1      4171 9.04233E+01-2.87860E+00 6.44673E+00
 -1      4172 9.54676E+01-8.91386E+00 8.63501E+00
 -1      4173 9.38156E+01-7.85835E+00 8.63501E+00
 -1      4174 9.19860E+01-5.98125E+00 5.53497E+00
 -1      4175 9.30236E+01-7.16452E+00 7.35022E+00
 -1      4176 9.39207E+01-7.93994E+00 5.98524E+00
 -1      4177 9.71964E+01-9.59894E+00 8.61302E+00
 -1      4178 9.91229E+01-9.96146E+00 8.61302E+00
 -1      4179 9.64597E+01-9.35235E+00 7.24803E+00
 -1      4180 1.00780E+02-9.96952E+00 8.74750E+00
 -1      4181 9.99028E+01-9.99953E+00 7.36052E+00
 -1      4182 1.08759E+02-4.82581E+00 8.19733E+00
 -1      4183 1.09102E+02-4.14277E+00 6.50916E+00
 -1      4184 1.09928E+02-1.19611E+00 4.97850E+00
 -1      4185 1.09884E+02 1.51877E+00 4.51392E+00
 -1      4186 1.09884E+02 1.51877E+00 6.18058E+00
 -1      4187 1.09613E+02 2.75415E+00 3.97311E+00
 -1      4188 1.09727E+02-2.32180E+00 4.63032E+00
 -1      4189 9.21523E+01 6.19788E+00 5.99356E+00
 -1      4190 1.02627E+02 9.64868E+00 3.91793E+00
 -1      4191 1.04335E+02 9.01133E+00 4.57424E+00
 -1      4192 1.01265E+02 9.91963E+00 4.49057E+00
 -1      4193 9.01330E+01 1.62546E+00 5.23494E+00
 -1      4194 9.31913E+01 7.32401E+00 4.74510E+00
 -1      4195 9.69440E+01-9.52161E+00 3.33899E+00
 -1      4196 9.85765E+01-9.89816E+00 4.16879E+00
 -1      4197 9.96140E+01-9.99255E+00 5.50352E+00
 -1      4198 9.72377E+01-9.61091E+00 5.89130E+00
 -1      4199 1.05644E+02 8.25508E+00 5.29309E+00
 -1      4200 1.06851E+02 7.28444E+00 4.97873E+00
 -1      4201 1.08180E+02 5.75227E+00 4.61394E+00
 -1      4202 9.56914E+01-9.02418E+00 3.41307E+00
 -1      4203 9.45915E+01-8.41121E+00 4.62850E+00
 -1      4204 9.55059E+01-8.93327E+00 5.91329E+00
 -1      4205 1.09077E+02 4.19718E+00 4.21058E+00
 -1      4206 9.00002E+01 6.33975E-02 5.07641E+00
 -1      4207 9.01314E+01-1.61577E+00 4.81472E+00
 -1      4208 1.09302E+02-3.66974E+00 4.92575E+00
 -1      4209 9.96057E+01 9.99222E+00 5.19492E+00
 -1      4210 1.08456E+02-5.33816E+00 4.81124E+00
 -1      4211 9.05745E+01-3.34059E+00 4.73749E+00
 -1      4212 9.11655E+01-4.68529E+00 4.65861E+00
 -1      4213 2.16988E+01-5.57714E+00 5.00039E+00
 -1      4214 2.17031E+01 5.57878E+00 5.00000E+00
 -1      4215 2.43979E+01-1.20673E+00 5.01324E+00
 -1      4216 2.74689E+01 3.11503E+00 5.00000E+00
 -1      4217 2.93127E+01-2.81969E+00 5.00000E+00
 -1      4218 1.97406E+01 8.71484E-01 5.00000E+00
 -1      4219 3.28146E+01 5.02036E+00 5.11795E+00
 -1      4220 2.55130E+01 6.66899E+00 6.07519E+00
 -1      4221 2.60032E+01-5.57214E+00 4.22480E+00
 -1      4222 2.42693E+01 2.96837E+00 6.18816E+00
 -1      4223-1.85678E+01-7.79980E+00 5.00000E+00
 -1      4224 2.45466E+01 4.43302E+00 3.29537E+00
 -1      4225 3.54117E+01-1.63663E+00 4.88675E+00
 -1      4226-1.92586E+01 6.94911E+00 5.03363E+00
 -1      4227 9.00442E+00 1.77574E+01 5.00000E+00
 -1      4228 1.79037E+01 9.17616E+00 5.21579E+00
 -1      4229 2.42561E+01-6.31573E+00 6.85604E+00
 -1      4230 1.85933E+01-8.71217E+00 4.24786E+00
 -1      4231 3.91248E+01 1.41726E+00 5.15357E+00
 -1      4232 2.33958E+01-6.54663E+00 2.77921E+00
 -1      4233 6.46059E+01 3.68320E-01 5.27169E+00
 -1      4234 8.55628E+01 2.44948E+00 5.16772E+00
 -1      4235 7.25225E+00-1.89554E+01 5.00000E+00
 -1      4236-7.68620E+00 1.88200E+01 5.00000E+00
 -1      4237 2.02401E+01-7.99909E+00 7.34573E+00
 -1      4238 2.05569E+01 7.29736E+00 2.81738E+00
 -1      4239 4.04694E+01-2.69189E+00 5.00000E+00
 -1      4240 2.09741E+01 6.88278E+00 7.33281E+00
 -1      4241 1.89083E+01 5.33855E+00 6.82453E+00
 -1      4242 1.85804E+01-3.00254E+00 4.04271E+00
 -1      4243 8.34909E+01-2.59555E+00 5.00000E+00
 -1      4244-8.47359E+00-1.82372E+01 4.99500E+00
 -1      4245-2.09526E+00 2.00013E+01 5.00000E+00
 -1      4246-1.98276E+01 1.40048E+00 5.08164E+00
 -1      4247 4.34549E+01 4.10924E+00 5.00000E+00
 -1      4248 1.87937E+01 4.28706E+00 3.44194E+00
 -1      4249 2.11527E+01-2.25030E+00 6.54734E+00
 -1      4250 2.42113E+01 7.20475E+00 2.83283E+00
 -1      4251-1.56866E+01-1.20185E+01 5.00000E+00
 -1      4252-1.64365E+01 1.11074E+01 4.97501E+00
 -1      4253 1.80866E+00-2.01756E+01 5.01412E+00
 -1      4254-1.25700E+01 1.57800E+01 5.02930E+00
 -1      4255 4.62341E+01-9.28038E-02 5.10331E+00
 -1      4256 3.99743E+00 1.94048E+01 5.00000E+00
 -1      4257 2.78236E+01 6.55349E+00 3.48646E+00
 -1      4258 3.06838E+01 6.35566E-01 3.70432E+00
 -1      4259 2.25887E+01 1.63957E+00 3.28691E+00
 -1      4260 2.30811E+01-3.40667E+00 3.13869E+00
 -1      4261-2.00980E+01-3.31982E+00 4.68944E+00
 -1      4262-1.28119E+01-1.58033E+01 4.92887E+00
 -1      4263-3.66681E+00-1.98829E+01 5.01389E+00
 -1      4264 2.62195E+01-3.19213E+00 7.04022E+00
 -1      4265 6.99070E+01 2.48567E+00 5.00000E+00
 -1      4266 7.79208E+01-2.32323E+00 5.00000E+00
 -1      4267 8.03823E+01 2.77776E+00 5.15721E+00
 -1      4268 7.05503E+01-2.77318E+00 5.13161E+00
 -1      4269 2.78274E+01-1.70249E-01 6.81140E+00
 -1      4270 7.49273E+01 1.76998E+00 5.37751E+00
 -1      4271 1.28573E+01 1.54678E+01 4.92453E+00
 -1      4272 2.22242E+01 8.30562E+00 5.18146E+00
 -1      4273 2.67252E+01 3.85929E-01 3.18272E+00
 -1      4274 2.12591E+01 3.57253E+00 6.97655E+00
 -1      4275 3.22452E+01-5.76377E+00 6.02660E+00
 -1      4276 2.04222E+01-4.94623E+00 2.84939E+00
 -1      4277 4.59502E+01-4.52635E+00 4.90187E+00
 -1      4278 2.59597E+01-2.59647E+00 2.95588E+00
 -1      4279 2.19661E+01 8.89714E+00 8.05855E+00
 -1      4280 3.68343E+01-5.75841E+00 5.01691E+00
 -1      4281 1.92563E+01-4.60172E+00 6.55924E+00
 -1      4282 1.56700E+01-1.28406E+01 4.93335E+00
 -1      4283 1.17021E+01-1.60866E+01 5.04151E+00
 -1      4284 2.85674E+01-5.83955E+00 6.56568E+00
 -1      4285 2.99395E+01 4.06598E+00 2.42230E+00
 -1      4286 6.40245E+01-4.32491E+00 4.85257E+00
 -1      4287 2.19172E+01 4.19499E+00 2.67813E+00
 -1      4288 2.84456E+01 5.47491E+00 7.01625E+00
 -1      4289 2.18298E+01-4.98024E+00 7.85340E+00
 -1      4290 1.80636E+01-1.32151E+00 6.88661E+00
 -1      4291 2.37904E+01-3.60487E+00 6.06862E+00
 -1      4292 1.64515E+01 1.28515E+01 5.05292E+00
 -1      4293 2.16444E+01-1.26946E+00 3.31121E+00
 -1      4294 2.98886E+01-6.08758E+00 3.22233E+00
 -1      4295 2.10603E+01-8.17775E+00 2.23032E+00
 -1      4296 6.22532E+01 4.40240E+00 5.38828E+00
 -1      4297 2.19029E+01 5.74486E-01 7.06088E+00
 -1      4298 2.28005E+01-8.06747E+00 7.69180E+00
 -1      4299 2.26896E+01-8.31986E+00 5.03040E+00
 -1      4300 3.02777E+01 2.41601E+00 6.87963E+00
 -1      4301 3.63895E+01 5.64792E+00 4.03948E+00
 -1      4302 4.80643E+01 4.40194E+00 5.65586E+00
 -1      4303 6.64380E+01 4.17026E+00 6.33194E+00
 -1      4304 3.96939E+01 5.91408E+00 5.63803E+00
 -1      4305 2.19977E+01 8.71828E+00 1.95382E+00
 -1      4306 3.16178E+01-5.92317E-01 7.08194E+00
 -1      4307 8.72392E+01-3.90399E+00 5.00000E+00
 -1      4308 1.91121E+01-1.14007E+01 6.79616E+00
 -1      4309 3.22665E+01-3.48134E+00 3.18737E+00
 -1      4310 2.36687E+01 5.65743E+00 7.88356E+00
 -1      4311 2.48487E+01 2.88439E-01 7.34531E+00
 -1      4312 3.51344E+01 2.13494E+00 4.00756E+00
 -1      4313-1.91764E+01 8.83049E+00 7.51682E+00
 -1      4314-2.01305E+01 7.84054E+00 7.51682E+00
 -1      4315-1.90496E+01 7.38056E+00 7.51682E+00
 -1      4316-2.01305E+01 7.84054E+00 2.51682E+00
 -1      4317-1.91764E+01 8.83049E+00 2.51682E+00
 -1      4318-1.90496E+01 7.38056E+00 2.51682E+00
 -1      4319 2.00524E+01 1.27297E+01 1.07199E+00
 -1      4320 1.94631E+01 1.37357E+01 1.07199E+00
 -1      4321 1.71286E+01 1.34732E+01 2.52646E+00
 -1      4322 1.87860E+01 1.31139E+01 3.59845E+00
 -1      4323 1.77179E+01 1.24672E+01 2.52646E+00
 -1      4324 7.52155E+00 1.93852E+01 7.50000E+00
 -1      4325 8.38484E+00 1.82193E+01 7.50000E+00
 -1      4326 8.90683E+00 1.93245E+01 7.50000E+00
 -1      4327 2.50134E+01 2.65660E+00 8.09408E+00
 -1      4328 2.58691E+01 3.04170E+00 5.59408E+00
 -1      4329 2.66132E+01 2.72992E+00 7.50000E+00
 -1      4330 2.53031E+01 1.31663E+00 8.67266E+00
 -1      4331 2.61588E+01 1.70173E+00 6.17266E+00
 -1      4332 2.45590E+01 1.62840E+00 6.76674E+00
 -1      4333 2.66132E+01 2.72992E+00 2.50000E+00
 -1      4334 2.60078E+01 3.77402E+00 4.14769E+00
 -1      4335 2.51521E+01 3.38892E+00 1.64769E+00
 -1      4336 2.62414E+01 1.36537E+00 1.59136E+00
 -1      4337 2.56359E+01 2.40947E+00 3.23905E+00
 -1      4338 2.70971E+01 1.75048E+00 4.09136E+00
 -1      4339 2.44080E+01 3.70070E+00 4.74177E+00
 -1      4340 2.54973E+01 1.67715E+00 4.68544E+00
 -1      4341 4.91246E+01-1.58938E+00 5.90259E+00
 -1      4342 4.85565E+01-5.26999E-01 4.22845E+00
 -1      4343 4.89827E+01-3.80616E+00 5.80187E+00
 -1      4344 4.84146E+01-2.74377E+00 4.12773E+00
 -1      4345 4.60921E+01-2.30958E+00 5.00259E+00
 -1      4346 3.20510E+01 2.78927E+00 8.43982E+00
 -1      4347 3.15461E+01 3.71818E+00 5.99879E+00
 -1      4348 3.33194E+01 4.09145E+00 7.55897E+00
 -1      4349 3.27211E+01 1.28511E+00 8.54097E+00
 -1      4350 3.22162E+01 2.21402E+00 6.09994E+00
 -1      4351 3.09478E+01 9.11847E-01 6.98078E+00
 -1      4352 4.21971E+01-1.34594E+00 7.50000E+00
 -1      4353 4.19621E+01 7.08677E-01 5.00000E+00
 -1      4354 4.36898E+01 2.05462E+00 7.50000E+00
 -1      4355 4.50794E+01-4.64019E-02 7.55166E+00
 -1      4356 4.48445E+01 2.00822E+00 5.05166E+00
 -1      4357 4.33517E+01-1.39235E+00 5.05166E+00
 -1      4358 6.73137E+01-7.06120E+00 8.24918E+00
 -1      4359 6.53488E+01-7.13784E+00 8.94333E+00
 -1      4360 6.46631E+01-5.12879E+00 7.42628E+00
 -1      4361 6.47102E+01-6.33396E+00 6.36962E+00
 -1      4362 6.66750E+01-6.25732E+00 5.67546E+00
 -1      4363 4.36898E+01 2.05462E+00 2.50000E+00
 -1      4364 4.21971E+01-1.34594E+00 2.50000E+00
 -1      4365 4.50794E+01-4.64019E-02 2.55166E+00
 -1      4366 7.21562E+01-1.38659E+00 2.56580E+00
 -1      4367 7.42355E+01-2.54820E+00 5.06580E+00
 -1      4368 7.58415E+01-1.16161E+00 2.50000E+00
 -1      4369 7.43447E+01 8.84992E-01 2.68876E+00
 -1      4370 7.64240E+01-2.76622E-01 5.18876E+00
 -1      4371 7.27388E+01-5.01596E-01 5.25456E+00
 -1      4372 2.34290E+01 2.30397E+00 4.73754E+00
 -1      4373 2.35677E+01 3.03630E+00 3.29114E+00
 -1      4374 2.46570E+01 1.01275E+00 3.23482E+00
 -1      4375 2.84994E+01-2.42031E+00 2.50000E+00
 -1      4376 2.80190E+01-1.21688E+00 4.09136E+00
 -1      4377 2.72057E+01-8.17497E-01 1.59136E+00
 -1      4378 2.68229E+01-2.30870E+00 1.47794E+00
 -1      4379 2.63425E+01-1.10527E+00 3.06930E+00
 -1      4380 2.76362E+01-2.70808E+00 3.97794E+00
 -1      4381 9.38946E+00 2.19088E+01 8.39286E+00
 -1      4382 8.00418E+00 2.19696E+01 8.39286E+00
 -1      4383 9.48705E+00 2.03417E+01 5.89286E+00
 -1      4384 1.88795E+01 7.88298E+00 1.40869E+00
 -1      4385 1.92303E+01 8.23676E+00 4.01659E+00
 -1      4386 1.75529E+01 8.82238E+00 2.60790E+00
 -1      4387 1.79979E+01 6.37783E+00 1.72097E+00
 -1      4388 1.83487E+01 6.73161E+00 4.32887E+00
 -1      4389 1.96753E+01 5.79221E+00 3.12966E+00
 -1      4390 6.12939E+01-2.32393E-02 1.66667E+00
 -1      4391 6.05072E+01-1.18943E+00 1.66667E+00
 -1      4392 6.26754E+01-3.35188E+00 2.42628E+00
 -1      4393 6.18562E+01-2.16245E+00 4.09295E+00
 -1      4394 6.34622E+01-2.18569E+00 2.42628E+00
 -1      4395 1.85868E+01-5.85736E+00 4.14529E+00
 -1      4396 1.63118E+01-4.13692E+00 3.45978E+00
 -1      4397 1.63183E+01-6.99174E+00 3.56236E+00
 -1      4398 1.89248E+01-6.65694E+00 5.40355E+00
 -1      4399 1.66498E+01-4.93651E+00 4.71804E+00
 -1      4400 1.89183E+01-3.80213E+00 5.30098E+00
 -1      4401 1.87211E+01-8.23384E+00 8.67286E+00
 -1      4402 1.94167E+01-8.35563E+00 5.79680E+00
 -1      4403 1.78977E+01-8.59038E+00 7.12393E+00
 -1      4404 1.82292E+01-6.53515E+00 8.27962E+00
 -1      4405 1.97482E+01-6.30040E+00 6.95248E+00
 -1      4406 3.11595E+01 1.59645E+00 8.43982E+00
 -1      4407 3.18296E+01 9.22860E-02 8.54097E+00
 -1      4408 2.60866E+01-5.01248E+00 2.11240E+00
 -1      4409 2.73022E+01-4.75507E+00 2.11240E+00
 -1      4410 2.60648E+01-3.52465E+00 1.47794E+00
 -1      4411 2.72804E+01-3.26724E+00 1.47794E+00
 -1      4412 2.59815E+01-4.08431E+00 3.59034E+00
 -1      4413 2.76482E+01 1.47239E+00 5.90570E+00
 -1      4414 2.67925E+01 1.08729E+00 8.40570E+00
 -1      4415 2.63381E+01 5.90947E-02 7.07836E+00
 -1      4416 7.15321E+01 4.17704E+00 7.50000E+00
 -1      4417 7.15117E+01 5.26378E+00 6.45291E+00
 -1      4418 7.31368E+01 6.95515E+00 8.95291E+00
 -1      4419 7.40422E+01 3.81919E+00 7.68876E+00
 -1      4420 7.40218E+01 4.90593E+00 6.64166E+00
 -1      4421 7.24172E+01 2.12783E+00 5.18876E+00
 -1      4422 2.48912E+01 4.81868E+00 6.13168E+00
 -1      4423 2.29862E+01 4.27358E+00 5.59408E+00
 -1      4424 2.36081E+01 6.12389E+00 5.53760E+00
 -1      4425 2.50298E+01 5.55101E+00 4.68528E+00
 -1      4426 2.31249E+01 5.00590E+00 4.14769E+00
 -1      4427 2.01461E+01-7.14466E+00 4.62412E+00
 -1      4428 2.10605E+01-5.26169E+00 3.92489E+00
 -1      4429 1.95078E+01-6.82920E+00 3.54863E+00
 -1      4430 1.98393E+01-4.77397E+00 4.70431E+00
 -1      4431 2.04776E+01-5.08943E+00 5.77981E+00
 -1      4432 2.89569E+01-3.37885E+00 2.50000E+00
 -1      4433 2.69751E+01 3.84531E+00 2.50000E+00
 -1      4434 2.55139E+01 4.50431E+00 1.64769E+00
 -1      4435 1.97956E+01-1.11400E+01 3.30035E+00
 -1      4436 1.87888E+01-1.03976E+01 2.12393E+00
 -1      4437 1.99911E+01-1.28254E+01 1.17642E+00
 -1      4438 1.83340E+01-1.32042E+01 3.64309E+00
 -1      4439 1.73271E+01-1.24618E+01 2.46667E+00
 -1      4440 1.71316E+01-1.07764E+01 4.59061E+00
 -1      4441 3.92373E+01 6.90294E-01 2.57678E+00
 -1      4442 3.72683E+01-1.09688E-01 5.02016E+00
 -1      4443 3.73808E+01-8.36650E-01 2.44338E+00
 -1      4444 3.99096E+01-1.36428E+00 2.50000E+00
 -1      4445 3.79405E+01-2.16426E+00 4.94338E+00
 -1      4446 3.97971E+01-6.37315E-01 5.07678E+00
 -1      4447 2.84994E+01-2.42031E+00 7.50000E+00
 -1      4448 2.89569E+01-3.37885E+00 7.50000E+00
 -1      4449 2.69528E+01-2.60653E+00 8.52011E+00
 -1      4450 2.74103E+01-3.56506E+00 8.52011E+00
 -1      4451 2.77661E+01-3.00591E+00 6.02011E+00
 -1      4452 4.61990E+01-1.63842E+00 2.55166E+00
 -1      4453 4.85214E+01-2.07262E+00 1.67679E+00
 -1      4454 4.60571E+01-3.85519E+00 2.45094E+00
 -1      4455 2.47896E+01-2.53119E+00 8.52011E+00
 -1      4456 2.50049E+01-3.39850E+00 6.55442E+00
 -1      4457 2.35751E+01-2.73757E+00 8.03431E+00
 -1      4458 2.41042E+01-7.90911E-01 8.67266E+00
 -1      4459 2.43195E+01-1.65822E+00 6.70697E+00
 -1      4460 2.55341E+01-1.45184E+00 7.19277E+00
 -1      4461 1.95013E+01-3.97438E+00 3.44605E+00
 -1      4462 6.88762E+01-6.24137E+00 1.51713E+00
 -1      4463 6.97040E+01-5.49058E+00 4.08294E+00
 -1      4464 6.97225E+01-3.52397E+00 2.56580E+00
 -1      4465 6.64596E+01-4.29983E+00 2.42628E+00
 -1      4466 6.72874E+01-3.54904E+00 4.99209E+00
 -1      4467 6.64411E+01-6.26645E+00 3.94342E+00
 -1      4468 7.53572E+01-2.72896E+00 2.50000E+00
 -1      4469 7.16720E+01-2.95393E+00 2.56580E+00
 -1      4470 6.70798E+01-7.07032E+00 1.51713E+00
 -1      4471 6.53488E+01-7.13784E+00 1.05667E+00
 -1      4472 6.47102E+01-6.33396E+00 3.48295E+00
 -1      4473 6.46631E+01-5.12879E+00 2.42628E+00
 -1      4474 6.47102E+01-6.33396E+00 4.92628E+00
 -1      4475 6.37529E+01 1.60920E-01 2.63584E+00
 -1      4476 6.21470E+01 1.84160E-01 4.30251E+00
 -1      4477 6.43152E+01-1.97829E+00 5.06213E+00
 -1      4478 2.26859E+01 5.61811E+00 6.44178E+00
 -1      4479 2.45909E+01 6.16321E+00 6.97938E+00
 -1      4480 2.39690E+01 4.31290E+00 7.03586E+00
 -1      4481 2.18101E+01 4.88688E+00 3.83907E+00
 -1      4482 2.30932E+01 3.58168E+00 4.43315E+00
 -1      4483 2.32319E+01 4.31400E+00 2.98675E+00
 -1      4484 2.57870E+01 3.37184E-01 5.26402E+00
 -1      4485-1.99303E+01 4.91903E+00 2.51682E+00
 -1      4486-2.17976E+01 6.33515E+00 3.76682E+00
 -1      4487-2.24693E+01 4.30507E+00 1.25000E+00
 -1      4488-2.02148E+01 2.14472E+00 2.54082E+00
 -1      4489-2.20821E+01 3.56084E+00 3.79082E+00
 -1      4490-1.95431E+01 4.17479E+00 5.05764E+00
 -1      4491 8.36042E+01-3.98640E-01 2.50000E+00
 -1      4492 8.45269E+01-7.30335E-02 5.08386E+00
 -1      4493 8.46402E+01 2.12388E+00 2.58386E+00
 -1      4494 8.20499E+01 2.28801E+00 2.57861E+00
 -1      4495 8.29725E+01 2.61362E+00 5.16246E+00
 -1      4496 8.19366E+01 9.11037E-02 5.07861E+00
 -1      4497 2.24715E+01-2.92759E+00 6.30798E+00
 -1      4498 2.22562E+01-2.06028E+00 8.27367E+00
 -1      4499 2.30007E+01-9.80933E-01 6.94633E+00
 -1      4500 8.50886E+01-1.38681E+00 7.50000E+00
 -1      4501 8.61245E+01 1.13571E+00 7.58386E+00
 -1      4502 8.69627E+01-2.04103E+00 7.50000E+00
 -1      4503 8.64010E+01-7.27253E-01 5.08386E+00
 -1      4504 8.53651E+01-3.24977E+00 5.00000E+00
 -1      4505 8.50886E+01-1.38681E+00 2.50000E+00
 -1      4506 8.61245E+01 1.13571E+00 2.58386E+00
 -1      4507 8.69627E+01-2.04103E+00 2.50000E+00
 -1      4508 1.88510E+01 4.81281E+00 5.13323E+00
 -1      4509 2.02484E+01 4.93292E+00 4.22097E+00
 -1      4510 2.03057E+01 5.45867E+00 5.91226E+00
 -1      4511 2.00837E+01 4.45554E+00 6.90054E+00
 -1      4512 2.14811E+01 4.57565E+00 5.98828E+00
 -1      4513 2.00264E+01 3.92979E+00 5.20925E+00
 -1      4514 3.71777E+01 7.08629E-01 7.57678E+00
 -1      4515 3.53211E+01-8.18316E-01 7.44338E+00
 -1      4516 3.51825E+01 1.06747E+00 7.00378E+00
 -1      4517 3.52730E+01 2.49152E-01 4.44716E+00
 -1      4518 3.71296E+01 1.77610E+00 4.58056E+00
 -1      4519-7.63680E+00 2.13204E+01 5.00000E+00
 -1      4520-6.77358E+00 2.15616E+01 3.75000E+00
 -1      4521-4.84133E+00 2.19111E+01 5.00000E+00
 -1      4522-3.97811E+00 2.21523E+01 3.75000E+00
 -1      4523-4.89073E+00 1.94107E+01 5.00000E+00
 -1      4524-6.77358E+00 2.15616E+01 6.25000E+00
 -1      4525-3.97811E+00 2.21523E+01 6.25000E+00
 -1      4526 3.59183E+01-2.24864E+00 2.44338E+00
 -1      4527 3.84472E+01-2.77627E+00 2.50000E+00
 -1      4528-2.19971E+01 5.28754E+00 5.01682E+00
 -1      4529-2.22816E+01 2.51322E+00 5.04082E+00
 -1      4530-5.86606E+00 2.26827E+01 8.75000E+00
 -1      4531-6.77869E+00 1.99410E+01 7.50000E+00
 -1      4532-3.98322E+00 2.05317E+01 7.50000E+00
 -1      4533-5.86606E+00 2.26827E+01 1.25000E+00
 -1      4534-6.77869E+00 1.99410E+01 2.50000E+00
 -1      4535-3.98322E+00 2.05317E+01 2.50000E+00
 -1      4536-2.17976E+01 6.33515E+00 6.26682E+00
 -1      4537-1.99303E+01 4.91903E+00 7.51682E+00
 -1      4538-2.24693E+01 4.30507E+00 8.75000E+00
 -1      4539-2.20821E+01 3.56084E+00 6.29082E+00
 -1      4540-2.02148E+01 2.14472E+00 7.54082E+00
 -1      4541 2.08940E+01 1.04786E+01 1.66667E+00
 -1      4542 2.02454E+01 1.16339E+01 1.07199E+00
 -1      4543 1.86370E+01 9.53382E+00 2.60790E+00
 -1      4544 1.95120E+01 1.12763E+01 3.67989E+00
 -1      4545 2.01607E+01 1.01209E+01 4.27456E+00
 -1      4546 1.94019E+01-1.38314E+01 1.17642E+00
 -1      4547 1.67379E+01-1.34678E+01 2.46667E+00
 -1      4548-3.13672E+00 2.23249E+01 5.00000E+00
 -1      4549 5.01805E+00 2.02089E+01 7.50000E+00
 -1      4550 6.50092E+00 1.85811E+01 5.00000E+00
 -1      4551 6.98355E+00 2.11655E+01 5.89286E+00
 -1      4552 3.34242E+01-2.96158E-01 8.54097E+00
 -1      4553 3.84472E+01-2.77627E+00 7.50000E+00
 -1      4554 3.59183E+01-2.24864E+00 7.44338E+00
 -1      4555 3.61230E+01-3.69752E+00 4.95183E+00
 -1      4556 3.66297E+01-4.30953E+00 7.50845E+00
 -1      4557 3.86519E+01-4.22515E+00 5.00845E+00
 -1      4558 1.61676E-02 2.24553E+01 5.76842E+00
 -1      4559-2.96276E-01 2.24781E+01 3.96873E+00
 -1      4560-1.55794E+00 2.24902E+01 4.99781E+00
 -1      4561 2.52301E+01 1.92964E-01 1.59136E+00
 -1      4562 2.55616E+01-4.10400E-01 4.09798E+00
 -1      4563 2.40665E+01-6.03364E-01 2.50662E+00
 -1      4564 2.48473E+01-1.29824E+00 1.47794E+00
 -1      4565 2.51788E+01-1.90160E+00 3.98456E+00
 -1      4566 3.06251E+00 2.21571E+01 5.76842E+00
 -1      4567 2.75007E+00 2.21798E+01 3.96873E+00
 -1      4568 9.51081E-01 1.97031E+01 5.00000E+00
 -1      4569 2.51936E+01-5.54772E+00 2.11240E+00
 -1      4570 2.51718E+01-4.05989E+00 1.47794E+00
 -1      4571-8.11092E+00-1.84685E+01 7.49750E+00
 -1      4572-8.54371E+00-1.96211E+01 7.49750E+00
 -1      4573-7.17238E+00-1.96496E+01 7.49750E+00
 -1      4574-8.54371E+00-1.96211E+01 2.49750E+00
 -1      4575-8.11092E+00-1.84685E+01 2.49750E+00
 -1      4576-7.17238E+00-1.96496E+01 2.49750E+00
 -1      4577 2.57513E+01-2.62789E+00 8.52011E+00
 -1      4578 2.50660E+01-8.87609E-01 8.67266E+00
 -1      4579 3.78971E+01 2.08015E+00 7.57678E+00
 -1      4580 3.59019E+01 2.43898E+00 7.00378E+00
 -1      4581 1.45730E+01 8.77152E+00 1.79695E+00
 -1      4582 1.54924E+01 7.19385E+00 1.29470E+00
 -1      4583 1.58432E+01 7.54764E+00 3.90259E+00
 -1      4584 1.49237E+01 9.12531E+00 4.40484E+00
 -1      4585 7.14023E+01 2.82474E+00 7.50000E+00
 -1      4586 7.39124E+01 2.46689E+00 7.68876E+00
 -1      4587 2.45925E+01-2.19202E+00 1.47794E+00
 -1      4588 2.55574E+01-2.31391E+00 1.47794E+00
 -1      4589 1.78083E+01-4.39141E+00 2.02136E+00
 -1      4590 1.78148E+01-7.24623E+00 2.12393E+00
 -1      4591 1.87292E+01-5.36326E+00 1.42469E+00
 -1      4592-2.26998E+01 5.84822E+00 8.75000E+00
 -1      4593-2.01608E+01 6.46218E+00 7.51682E+00
 -1      4594-2.26998E+01 5.84822E+00 1.25000E+00
 -1      4595-2.01608E+01 6.46218E+00 2.51682E+00
 -1      4596 3.03191E+01 5.78692E+00 4.30220E+00
 -1      4597 2.93152E+01 8.12280E+00 3.31308E+00
 -1      4598 3.18107E+01 7.35623E+00 4.12882E+00
 -1      4599 3.13771E+01 4.54317E+00 3.77012E+00
 -1      4600 3.03731E+01 6.87904E+00 2.78100E+00
 -1      4601 2.88816E+01 5.30973E+00 2.95438E+00
 -1      4602 2.64910E+01 4.89201E+00 5.53760E+00
 -1      4603 3.47420E+01 3.88170E+00 7.55897E+00
 -1      4604 3.41144E+01 5.29285E+00 7.55897E+00
 -1      4605 6.43498E+01 1.52333E+00 2.63584E+00
 -1      4606 6.57848E+01 1.41565E+00 2.63584E+00
 -1      4607 6.52658E+01 3.42430E+00 3.16597E+00
 -1      4608 6.67009E+01 3.31662E+00 3.16597E+00
 -1      4609 6.55220E+01 2.26929E+00 5.80181E+00
 -1      4610 6.84354E+01 2.47432E+00 7.50000E+00
 -1      4611 6.72565E+01 1.42700E+00 5.13584E+00
 -1      4612 6.57848E+01 1.41565E+00 7.63584E+00
 -1      4613 6.67009E+01 3.31662E+00 8.16597E+00
 -1      4614 6.81725E+01 3.32797E+00 5.66597E+00
 -1      4615 2.31619E+01 8.19787E-01 1.64346E+00
 -1      4616 2.34933E+01 2.16423E-01 4.15007E+00
 -1      4617 8.78213E+01 1.85483E+00 4.39829E+00
 -1      4618 8.83830E+01 5.41058E-01 1.81443E+00
 -1      4619 8.86595E+01-1.32191E+00 4.31443E+00
 -1      4620 1.62882E+01 5.10309E+00 3.01567E+00
 -1      4621 2.81683E+01 2.54980E+00 7.50000E+00
 -1      4622 2.83476E+01 9.07165E-01 8.40570E+00
 -1      4623 1.85498E+01 1.49966E+01 1.18809E+00
 -1      4624 1.78726E+01 1.43748E+01 3.71455E+00
 -1      4625 8.28563E+01-5.14115E+00 5.00000E+00
 -1      4626 8.23029E+01-5.16273E+00 3.61800E+00
 -1      4627 7.95179E+01-5.02657E+00 3.61800E+00
 -1      4628 8.07058E+01-2.45939E+00 5.00000E+00
 -1      4629 8.00712E+01-5.00499E+00 5.00000E+00
 -1      4630 2.43336E+01 8.80821E-01 5.60070E+00
 -1      4631 2.71500E+01-5.96013E+00 2.11240E+00
 -1      4632-2.19774E+01-9.26957E+00 1.25850E+00
 -1      4633-2.20156E+01-7.88854E+00 1.25850E+00
 -1      4634-2.07770E+01-8.81509E+00 3.75850E+00
 -1      4635-1.98065E+01-6.87325E+00 2.50000E+00
 -1      4636-1.97683E+01-8.25429E+00 2.50000E+00
 -1      4637 2.59971E+01 5.62229E+00 8.03760E+00
 -1      4638 2.69751E+01 3.84531E+00 7.50000E+00
 -1      4639 2.79573E+01 4.29497E+00 6.00813E+00
 -1      4640 2.74634E+01 5.02525E+00 8.50813E+00
 -1      4641 2.69793E+01 6.07195E+00 6.54572E+00
 -1      4642 4.69854E+01-4.64019E-02 2.55166E+00
 -1      4643 4.93078E+01-4.80597E-01 1.67679E+00
 -1      4644 4.79005E+01 2.20097E+00 2.82793E+00
 -1      4645 4.94716E+01 1.72037E+00 4.50472E+00
 -1      4646 4.71492E+01 2.15457E+00 5.37959E+00
 -1      4647-7.51437E+00-2.21622E+01 8.75000E+00
 -1      4648-8.88571E+00-2.21337E+01 8.75000E+00
 -1      4649-8.81558E+00-2.07498E+01 6.24750E+00
 -1      4650-8.88571E+00-2.21337E+01 1.25000E+00
 -1      4651-7.51437E+00-2.21622E+01 1.25000E+00
 -1      4652-8.81558E+00-2.07498E+01 3.74750E+00
 -1      4653 2.30212E+01-1.23810E+00 4.16222E+00
 -1      4654 2.26897E+01-6.34732E-01 1.65561E+00
 -1      4655 2.21166E+01 1.85055E-01 3.29906E+00
 -1      4656 2.46233E+01-4.59145E-01 6.17927E+00
 -1      4657 2.85701E+01-1.49497E+00 5.90570E+00
 -1      4658 2.77568E+01-1.09559E+00 8.40570E+00
 -1      4659 2.70235E+01-1.68119E+00 6.92581E+00
 -1      4660 1.50599E+01 8.94031E+00 6.13953E+00
 -1      4661 1.43338E+01 1.07780E+01 6.05809E+00
 -1      4662 1.41977E+01 1.09630E+01 4.32341E+00
 -1      4663 1.71776E+01 1.10138E+01 5.13436E+00
 -1      4664 8.50053E+00 2.07220E+01 4.55461E+00
 -1      4665 5.99703E+00 2.15457E+01 4.55461E+00
 -1      4666 6.59093E+01 4.89010E+00 3.16597E+00
 -1      4667-1.41326E+01 1.01657E+01 3.94301E+00
 -1      4668-1.29442E+01 1.13774E+01 4.32583E+00
 -1      4669-1.41112E+01 1.01930E+01 5.65441E+00
 -1      4670 1.88441E+01-7.54473E+00 2.12393E+00
 -1      4671 1.97585E+01-5.66175E+00 1.42469E+00
 -1      4672 8.78137E+01 6.57594E-01 5.84584E+00
 -1      4673 8.83754E+01-6.56178E-01 8.26198E+00
 -1      4674 8.86519E+01-2.51914E+00 5.76198E+00
 -1      4675 5.01588E+01-3.33513E+00 1.67679E+00
 -1      4676 4.76944E+01-5.11771E+00 2.45094E+00
 -1      4677 2.72171E+01 8.21733E+00 5.53760E+00
 -1      4678 2.58112E+01 8.27216E+00 5.53760E+00
 -1      4679 2.83724E+01 8.15957E+00 4.24323E+00
 -1      4680 2.69665E+01 8.21441E+00 4.24323E+00
 -1      4681 2.66683E+01 6.61124E+00 4.78083E+00
 -1      4682 3.66297E+01-4.30953E+00 2.50845E+00
 -1      4683 7.18346E+01 1.24284E+00 2.50000E+00
 -1      4684 7.02286E+01-1.43751E-01 5.06580E+00
 -1      4685 4.30293E+01-7.29854E+00 2.51665E+00
 -1      4686 4.16643E+01-4.04010E+00 2.50000E+00
 -1      4687 4.18344E+01-5.95032E+00 5.01665E+00
 -1      4688 4.45748E+01-6.86755E+00 4.96758E+00
 -1      4689 4.32098E+01-3.60912E+00 4.95094E+00
 -1      4690 4.44047E+01-4.95733E+00 2.45094E+00
 -1      4691 2.82104E+01 4.32079E+00 1.21115E+00
 -1      4692 2.93851E+01 4.15054E+00 1.21115E+00
 -1      4693 2.94036E+01 3.02528E+00 1.21115E+00
 -1      4694 2.27642E+01 3.27045E+00 6.58236E+00
 -1      4695 2.24639E+01 4.61498E+00 7.43006E+00
 -1      4696 4.90896E+01-3.13500E+00 8.35094E+00
 -1      4697 4.61990E+01-1.63842E+00 7.55166E+00
 -1      4698 4.60571E+01-3.85519E+00 7.45094E+00
 -1      4699 2.48622E+01 6.93687E+00 4.45401E+00
 -1      4700 2.29572E+01 6.39176E+00 3.91641E+00
 -1      4701 2.43790E+01 5.81888E+00 3.06410E+00
 -1      4702 6.14732E+00 2.26088E+01 8.52790E+00
 -1      4703 5.12670E+00 2.18047E+01 6.02790E+00
 -1      4704 2.25473E+01-6.06189E+00 3.88980E+00
 -1      4705 2.38260E+01-6.43118E+00 4.81762E+00
 -1      4706 2.29775E+01-5.94643E+00 5.92821E+00
 -1      4707 2.21942E+01-6.94850E+00 5.01539E+00
 -1      4708 2.34729E+01-7.31779E+00 5.94322E+00
 -1      4709 2.30427E+01-7.43325E+00 3.90480E+00
 -1      4710 3.01239E+01-3.83993E+00 7.50000E+00
 -1      4711 2.85843E+01-4.88878E+00 8.28284E+00
 -1      4712 2.97512E+01-5.34987E+00 8.28284E+00
 -1      4713 2.89401E+01-4.32962E+00 5.78284E+00
 -1      4714 2.95508E+01-2.20115E+00 2.50000E+00
 -1      4715 2.82570E+01-5.98338E-01 1.59136E+00
 -1      4716 3.72687E+01 6.07340E+00 2.01974E+00
 -1      4717 3.79147E+01 4.66523E+00 2.01974E+00
 -1      4718 3.95669E+01 4.79831E+00 2.81901E+00
 -1      4719 3.80417E+01 5.78100E+00 4.83875E+00
 -1      4720 3.89209E+01 6.20648E+00 2.81901E+00
 -1      4721 7.48236E+01 6.88935E+00 8.69707E+00
 -1      4722 7.57087E+01 4.84014E+00 6.38583E+00
 -1      4723 3.65294E+01 4.19548E+00 7.01974E+00
 -1      4724 3.59018E+01 5.60663E+00 7.01974E+00
 -1      4725 3.46020E+01 5.33414E+00 4.57871E+00
 -1      4726 2.71524E+01 5.56454E+00 1.74323E+00
 -1      4727 2.76463E+01 4.83426E+00 4.24323E+00
 -1      4728 2.61851E+01 5.49326E+00 3.39092E+00
 -1      4729 2.30430E+01-5.64798E+00 7.35472E+00
 -1      4730 2.26699E+01-4.38839E+00 8.92670E+00
 -1      4731 2.38831E+01-5.05614E+00 8.42802E+00
 -1      4732 2.40232E+01-4.96030E+00 6.46233E+00
 -1      4733 2.36502E+01-3.70071E+00 8.03431E+00
 -1      4734 2.28101E+01-4.29256E+00 6.96101E+00
 -1      4735 9.72417E+00 2.17574E+01 1.54199E+00
 -1      4736 8.40294E+00 2.22891E+01 2.05461E+00
 -1      4737 8.90683E+00 1.93245E+01 2.50000E+00
 -1      4738 9.82176E+00 2.01903E+01 4.04199E+00
 -1      4739 8.84539E+01-1.13575E+00 1.55274E+00
 -1      4740 8.87304E+01-2.99871E+00 4.05274E+00
 -1      4741 2.00108E+01-4.74361E+00 1.42469E+00
 -1      4742 6.04905E+01 1.17989E+00 1.66667E+00
 -1      4743 6.29495E+01 1.36405E+00 2.63584E+00
 -1      4744 2.72763E+01 1.07840E-01 4.99706E+00
 -1      4745 4.04018E+01-4.63634E+00 2.50000E+00
 -1      4746 3.98773E+01-3.24928E+00 2.50000E+00
 -1      4747 3.85843E+01-6.16961E+00 2.50845E+00
 -1      4748 3.80598E+01-4.78255E+00 2.50845E+00
 -1      4749 1.90899E+01-3.77177E+00 2.02136E+00
 -1      4750 6.31734E+01 3.54037E+00 2.69414E+00
 -1      4751 6.34296E+01 2.38536E+00 5.32998E+00
 -1      4752 6.43456E+01 4.28633E+00 5.86011E+00
 -1      4753 1.41176E+01 1.02654E+01 1.79695E+00
 -1      4754 1.70976E+01 1.03162E+01 2.60790E+00
 -1      4755 1.63715E+01 1.21539E+01 2.52646E+00
 -1      4756-1.10110E+01 1.37137E+01 4.35297E+00
 -1      4757-1.21779E+01 1.25293E+01 5.68155E+00
 -1      4758-1.45033E+01 1.34437E+01 5.00215E+00
 -1      4759 1.66812E+01-2.77512E+00 4.94074E+00
 -1      4760 1.70192E+01-3.57471E+00 6.19901E+00
 -1      4761 2.58363E+01-1.29824E+00 1.47794E+00
 -1      4762 7.21562E+01-1.38659E+00 7.56580E+00
 -1      4763 7.18346E+01 1.24284E+00 7.50000E+00
 -1      4764 7.43447E+01 8.84992E-01 7.68876E+00
 -1      4765-2.05371E+01-9.34185E+00 4.99802E+00
 -1      4766-2.00147E+01-1.03109E+01 3.96522E+00
 -1      4767-1.98488E+01-1.05807E+01 5.76835E+00
 -1      4768 6.38245E+01 6.37271E+00 3.75081E+00
 -1      4769 6.38169E+01 5.00617E+00 2.69414E+00
 -1      4770 6.53881E+01 6.97647E+00 1.05667E+00
 -1      4771 6.59169E+01 6.25664E+00 4.22264E+00
 -1      4772 2.15278E+01-8.37910E-01 6.80411E+00
 -1      4773 2.26313E+01-6.47888E-01 8.53044E+00
 -1      4774 2.33758E+01 4.31462E-01 7.20310E+00
 -1      4775 6.84354E+01 2.47432E+00 2.50000E+00
 -1      4776 6.97121E+01 3.65985E+00 2.50000E+00
 -1      4777 6.79776E+01 4.50215E+00 3.16597E+00
 -1      4778 7.45892E+01-6.05727E+00 7.50000E+00
 -1      4779 7.62066E+01-5.99418E+00 8.69707E+00
 -1      4780 7.72054E+01-5.11676E+00 6.19707E+00
 -1      4781 7.69219E+01-3.20065E+00 7.50000E+00
 -1      4782 7.55881E+01-5.17985E+00 5.00000E+00
 -1      4783 9.87118E+00 1.83256E+01 7.50000E+00
 -1      4784 1.12846E+01 1.93786E+01 6.19007E+00
 -1      4785 1.21514E+01 1.99468E+01 8.69007E+00
 -1      4786 1.17976E+01 1.71808E+01 7.46227E+00
 -1      4787 1.32111E+01 1.82338E+01 6.15233E+00
 -1      4788 1.09309E+01 1.66126E+01 4.96227E+00
 -1      4789 1.93370E+01 4.27997E-01 2.50000E+00
 -1      4790 1.73703E+01 4.35742E-01 4.16667E+00
 -1      4791 1.69667E+01-7.74511E-03 1.66667E+00
 -1      4792 1.87569E+01-1.50901E+00 2.02136E+00
 -1      4793 1.67902E+01-1.50127E+00 3.68802E+00
 -1      4794 1.91605E+01-1.06553E+00 4.52136E+00
 -1      4795-1.62204E+01 4.32109E+00 1.95851E+00
 -1      4796-1.68887E+01 5.35900E+00 4.47533E+00
 -1      4797-1.85903E+01 5.91119E+00 2.51682E+00
 -1      4798-1.88748E+01 3.13688E+00 2.54082E+00
 -1      4799-1.71732E+01 2.58469E+00 4.49934E+00
 -1      4800 3.71196E+01-6.00631E+00 2.50845E+00
 -1      4801 1.68780E+01 3.73536E+00 6.73120E+00
 -1      4802 1.93245E+01 3.10502E+00 5.91226E+00
 -1      4803 1.72941E+01 1.50182E+00 5.81894E+00
 -1      4804 1.68207E+01 3.20961E+00 5.03991E+00
 -1      4805 1.92671E+01 2.57927E+00 4.22097E+00
 -1      4806 1.54395E+01-8.65908E+00 3.59910E+00
 -1      4807 1.60729E+01-7.57053E+00 5.28787E+00
 -1      4808 1.46112E+01-9.63474E+00 5.63062E+00
 -1      4809 1.39778E+01-1.07233E+01 3.94184E+00
 -1      4810 2.45739E+01 5.03336E+00 1.64769E+00
 -1      4811 2.53690E+01 5.70529E+00 1.64769E+00
 -1      4812 2.44063E+01 6.41922E+00 1.41641E+00
 -1      4813 2.52013E+01 7.09115E+00 1.41641E+00
 -1      4814 7.91376E+01 5.31667E+00 4.72750E+00
 -1      4815 7.84362E+01 5.34403E+00 6.27568E+00
 -1      4816 7.76548E+01 2.27387E+00 5.26736E+00
 -1      4817 7.64101E+01 4.81279E+00 4.83765E+00
 -1      4818 3.48438E+01 7.56112E+00 8.90724E+00
 -1      4819 3.35440E+01 7.28863E+00 6.46622E+00
 -1      4820 3.53315E+01 7.60241E+00 5.92698E+00
 -1      4821 8.06955E+01-5.66726E+00 1.11799E+00
 -1      4822 8.18835E+01-3.10008E+00 2.50000E+00
 -1      4823 7.90984E+01-2.96392E+00 2.50000E+00
 -1      4824 1.63238E+01 1.38197E+00 1.66667E+00
 -1      4825 1.86941E+01 1.81772E+00 2.50000E+00
 -1      4826 1.82207E+01 3.52550E+00 1.72097E+00
 -1      4827 1.68969E+01 2.14353E+00 3.38764E+00
 -1      4828 6.41636E+01-3.68367E+00 2.42628E+00
 -1      4829 7.15812E+01 5.26107E+00 5.00000E+00
 -1      4830 7.40913E+01 4.90322E+00 5.18876E+00
 -1      4831-2.13864E+01-7.02706E+00 3.80244E+00
 -1      4832-2.10476E+01-8.12669E+00 5.00000E+00
 -1      4833 4.98016E+01 1.46158E+00 1.69669E+00
 -1      4834 4.99654E+01 3.66255E+00 4.52462E+00
 -1      4835 1.92667E+01 1.16488E+01 5.11311E+00
 -1      4836 1.85406E+01 1.34864E+01 5.03167E+00
 -1      4837 2.95508E+01-2.20115E+00 7.50000E+00
 -1      4838 1.86941E+01 1.81772E+00 7.50000E+00
 -1      4839 1.62476E+01 2.44806E+00 8.31894E+00
 -1      4840 1.82780E+01 4.05125E+00 8.41226E+00
 -1      4841 1.99851E+01 3.29005E+00 1.72097E+00
 -1      4842 2.06912E+01 2.96332E+00 3.36443E+00
 -1      4843 2.18826E+01 1.96631E+00 1.64346E+00
 -1      4844 2.15468E+01 3.24401E+00 1.33907E+00
 -1      4845 2.22530E+01 2.91728E+00 2.98252E+00
 -1      4846 2.03554E+01 4.24102E+00 3.06004E+00
 -1      4847 2.38150E+01-6.83237E+00 1.38960E+00
 -1      4848 2.32015E+01-7.66600E+00 1.38960E+00
 -1      4849 2.30691E+01-6.93468E+00 1.38960E+00
 -1      4850 6.53683E+01-1.28281E-02 7.63584E+00
 -1      4851 6.80188E+01 1.04585E+00 7.50000E+00
 -1      4852-1.66687E+01-5.20958E+00 4.18429E+00
 -1      4853-1.63409E+01-6.43928E+00 5.83613E+00
 -1      4854-1.71060E+01-4.19928E+00 5.68085E+00
 -1      4855-1.93329E+01-5.55981E+00 4.84472E+00
 -1      4856-1.74338E+01-2.96958E+00 4.02901E+00
 -1      4857 2.24866E+01 8.84125E+00 9.02927E+00
 -1      4858 2.23542E+01 8.10993E+00 9.02927E+00
 -1      4859 2.30679E+01 8.01733E+00 9.02927E+00
 -1      4860-1.98065E+01-6.87325E+00 7.50000E+00
 -1      4861-2.13869E+01-7.02506E+00 6.18882E+00
 -1      4862-2.26256E+01-6.09851E+00 8.68882E+00
 -1      4863-2.05715E+01-4.63326E+00 7.34472E+00
 -1      4864-2.21520E+01-4.78507E+00 6.03354E+00
 -1      4865 2.09371E+01 1.22503E+01 1.07199E+00
 -1      4866-1.03371E+01 2.00907E+01 6.25000E+00
 -1      4867-9.15999E+00 1.89635E+01 7.50000E+00
 -1      4868-1.18109E+01 2.02343E+01 8.75000E+00
 -1      4869-1.27790E+01 1.85707E+01 6.26465E+00
 -1      4870-1.16019E+01 1.74435E+01 7.51465E+00
 -1      4871-1.01281E+01 1.73000E+01 5.01465E+00
 -1      4872 2.48647E+01-3.49434E+00 8.52011E+00
 -1      4873 2.62190E+01 1.92964E-01 1.59136E+00
 -1      4874 3.99825E+01 7.88077E+00 1.05667E+00
 -1      4875 3.80783E+01 7.95504E+00 1.66934E+00
 -1      4876 3.88513E+01 7.66264E+00 4.48835E+00
 -1      4877 4.07555E+01 7.58837E+00 3.87568E+00
 -1      4878 8.18286E+01-5.18123E+00 6.09019E+00
 -1      4879 7.90435E+01-5.04507E+00 6.09019E+00
 -1      4880-1.63838E+01 3.50984E+00 8.35704E+00
 -1      4881-1.85903E+01 5.91119E+00 7.51682E+00
 -1      4882-1.70521E+01 4.54776E+00 5.87385E+00
 -1      4883-1.73366E+01 1.77345E+00 5.89786E+00
 -1      4884-1.88748E+01 3.13688E+00 7.54082E+00
 -1      4885 1.06011E+00 2.34156E+01 8.26842E+00
 -1      4886-1.05132E+00 2.09616E+01 7.50000E+00
 -1      4887 1.99502E+00 2.06634E+01 7.50000E+00
 -1      4888-2.10294E+01-1.02649E+01 1.25850E+00
 -1      4889-1.88202E+01-9.24959E+00 2.50000E+00
 -1      4890 2.88733E+01 2.76552E+00 5.93982E+00
 -1      4891 2.90526E+01 1.12288E+00 6.84552E+00
 -1      4892 2.95727E+01 2.20030E+00 8.43982E+00
 -1      4893 1.32141E+01 1.82319E+01 3.76674E+00
 -1      4894 1.40736E+01 1.76236E+01 4.96612E+00
 -1      4895 1.47580E+01 1.70544E+01 3.72911E+00
 -1      4896 2.04585E+01 1.58226E+00 2.50000E+00
 -1      4897 2.11647E+01 1.25553E+00 4.14346E+00
 -1      4898 2.40942E+01-2.40580E+00 5.54093E+00
 -1      4899 2.27753E+01-1.72852E+00 5.78029E+00
 -1      4900 6.12939E+01-2.32393E-02 8.33333E+00
 -1      4901 6.04905E+01 1.17989E+00 8.33333E+00
 -1      4902 6.37529E+01 1.60920E-01 7.63584E+00
 -1      4903 6.29495E+01 1.36405E+00 7.63584E+00
 -1      4904 6.21470E+01 1.84160E-01 5.96918E+00
 -1      4905 2.04998E+01 2.22201E+00 5.98828E+00
 -1      4906 4.42081E+01 6.62464E+00 4.05980E+00
 -1      4907 4.46051E+01 5.42565E+00 2.50000E+00
 -1      4908 4.53583E+01 7.94105E+00 1.55980E+00
 -1      4909 4.65128E+01 6.77099E+00 4.38773E+00
 -1      4910 4.69098E+01 5.57200E+00 2.82793E+00
 -1      4911 4.57596E+01 4.25559E+00 5.32793E+00
 -1      4912 6.53683E+01-1.28281E-02 2.63584E+00
 -1      4913 6.80188E+01 1.04585E+00 2.50000E+00
 -1      4914 2.73935E+01-4.51584E+00 6.80295E+00
 -1      4915 2.52378E+01-4.75393E+00 6.94813E+00
 -1      4916 2.61947E+01-3.82248E+00 8.52011E+00
 -1      4917 2.52130E+01-5.38428E+00 8.42802E+00
 -1      4918 2.64118E+01-6.07764E+00 6.71086E+00
 -1      4919 2.73687E+01-5.14619E+00 8.28284E+00
 -1      4920 1.84060E+01 7.25736E+00 6.02016E+00
 -1      4921 1.63765E+01 5.55578E+00 6.60565E+00
 -1      4922 1.58741E+01 7.47459E+00 5.80128E+00
 -1      4923 1.63191E+01 5.03004E+00 4.91435E+00
 -1      4924 2.90927E+01-6.21785E+00 1.61117E+00
 -1      4925 2.79459E+01-5.82986E+00 3.72357E+00
 -1      4926 2.92449E+01-5.01279E+00 1.61117E+00
 -1      4927 2.99983E+01-1.09206E+00 4.35216E+00
 -1      4928 3.02363E+01-4.73519E-01 1.85216E+00
 -1      4929 2.87045E+01 5.10747E-01 3.44352E+00
 -1      4930 4.02276E+01-7.95481E+00 1.66371E+00
 -1      4931 4.14900E+01-7.35857E+00 1.66371E+00
 -1      4932 4.02951E+01-6.01036E+00 4.16371E+00
 -1      4933-9.47189E+00 2.05709E+01 5.00000E+00
 -1      4934-1.19138E+01 1.90509E+01 5.01465E+00
 -1      4935 1.54095E+01 5.84970E+00 1.29470E+00
 -1      4936 1.79150E+01 5.03367E+00 1.72097E+00
 -1      4937 1.64044E+01-5.51530E+00 6.44356E+00
 -1      4938 3.77572E+01 3.53259E+00 4.59652E+00
 -1      4939 3.92823E+01 2.54990E+00 2.57678E+00
 -1      4940 3.94094E+01 3.66567E+00 5.39580E+00
 -1      4941-2.15612E+01 7.20018E+00 5.01682E+00
 -1      4942-9.02809E+00 2.20767E+01 8.75000E+00
 -1      4943-1.00381E+01 2.11277E+01 8.75000E+00
 -1      4944-8.56427E+00 2.09841E+01 6.25000E+00
 -1      4945-8.15002E+00 1.99125E+01 7.50000E+00
 -1      4946-9.02809E+00 2.20767E+01 1.25000E+00
 -1      4947-1.00381E+01 2.11277E+01 1.25000E+00
 -1      4948-8.15002E+00 1.99125E+01 2.50000E+00
 -1      4949-9.15999E+00 1.89635E+01 2.50000E+00
 -1      4950-8.56427E+00 2.09841E+01 3.75000E+00
 -1      4951 6.43498E+01 1.52333E+00 7.63584E+00
 -1      4952 6.53192E+00-1.63919E+01 6.24015E+00
 -1      4953 6.57252E+00-1.63747E+01 4.46705E+00
 -1      4954 8.79746E+00-1.49403E+01 4.48781E+00
 -1      4955 9.47719E+00-1.75210E+01 5.02076E+00
 -1      4956 8.75686E+00-1.49575E+01 6.26090E+00
 -1      4957 6.02867E+01-2.15586E+00 1.92229E+00
 -1      4958 6.16358E+01-3.12888E+00 4.34858E+00
 -1      4959 4.59707E+01-5.51319E+00 2.45094E+00
 -1      4960 4.12795E+01-2.62225E+00 2.50000E+00
 -1      4961 4.40200E+01-3.53948E+00 2.45094E+00
 -1      4962 7.85323E+01 3.27289E+00 7.57861E+00
 -1      4963 7.65862E+01 5.83916E+00 8.69707E+00
 -1      4964 7.58048E+01 2.76900E+00 7.68876E+00
 -1      4965 9.04681E+01 8.03152E+00 6.48118E+00
 -1      4966 9.01631E+01 7.69160E+00 7.91099E+00
 -1      4967 8.94001E+01 6.60509E+00 7.31319E+00
 -1      4968 2.23313E+01-3.02343E+00 8.27367E+00
 -1      4969 2.14913E+01-3.61527E+00 7.20037E+00
 -1      4970 2.46975E+01-3.16804E+00 1.47794E+00
 -1      4971-6.70647E+00 1.63419E+01 4.56374E+00
 -1      4972-4.90624E+00 1.68342E+01 5.72362E+00
 -1      4973-6.51345E+00 1.64185E+01 6.29685E+00
 -1      4974-1.86396E+01-7.76844E+00 2.50000E+00
 -1      4975-1.97683E+01-8.25429E+00 7.50000E+00
 -1      4976-1.86396E+01-7.76844E+00 7.50000E+00
 -1      4977 4.09157E+01 5.92750E+00 2.81901E+00
 -1      4978 1.99636E+01 8.59442E+00 1.40869E+00
 -1      4979 7.13168E+01 6.43796E+00 8.95291E+00
 -1      4980 6.97121E+01 3.65985E+00 7.50000E+00
 -1      4981-2.26251E+01-6.10051E+00 1.30244E+00
 -1      4982-2.21515E+01-4.78707E+00 3.64716E+00
 -1      4983-2.05715E+01-4.63326E+00 2.34472E+00
 -1      4984-2.23760E+01 1.67107E+00 6.29082E+00
 -1      4985 6.64546E+00-1.99842E+01 7.50000E+00
 -1      4986 6.38976E+00-2.16684E+01 6.25000E+00
 -1      4987 5.78297E+00-2.26972E+01 8.75000E+00
 -1      4988 3.92367E+00-2.05943E+01 7.50706E+00
 -1      4989 3.66796E+00-2.22785E+01 6.25706E+00
 -1      4990 4.53046E+00-1.95655E+01 5.00706E+00
 -1      4991 6.38976E+00-2.16684E+01 3.75000E+00
 -1      4992 6.64546E+00-1.99842E+01 2.50000E+00
 -1      4993 5.78297E+00-2.26972E+01 1.25000E+00
 -1      4994 3.66796E+00-2.22785E+01 3.75706E+00
 -1      4995 3.92367E+00-2.05943E+01 2.50706E+00
 -1      4996 8.27188E+00-2.10823E+01 6.25000E+00
 -1      4997 9.00589E+00-2.07608E+01 5.00000E+00
 -1      4998 1.00213E+01-2.02179E+01 6.25000E+00
 -1      4999 2.41515E+01 8.54497E+00 8.33333E+00
 -1      5000 2.30496E+01 9.42477E+00 7.36261E+00
 -1      5001 2.39009E+01 7.80492E+00 7.27511E+00
 -1      5002 2.28174E+01 7.27729E+00 7.97105E+00
 -1      5003 2.39193E+01 6.39748E+00 8.94178E+00
 -1      5004-2.02671E+01-1.17606E+01 1.46522E+00
 -1      5005-1.85741E+01-1.24202E+01 3.96522E+00
 -1      5006-1.71272E+01-9.90915E+00 5.00000E+00
 -1      5007-1.73796E+01-1.13589E+01 2.50000E+00
 -1      5008 8.71910E+01 5.47576E+00 8.33333E+00
 -1      5009 8.86047E+01 4.74427E+00 6.75385E+00
 -1      5010 8.87860E+01 2.72003E+00 8.42052E+00
 -1      5011 8.64676E+01 2.95051E+00 7.58386E+00
 -1      5012 8.78812E+01 2.21901E+00 6.00437E+00
 -1      5013 8.62862E+01 4.97474E+00 5.91719E+00
 -1      5014 2.59468E+01-6.26713E+00 2.11240E+00
 -1      5015 2.46431E+01-6.75438E+00 1.38960E+00
 -1      5016 2.38899E+01-6.03497E+00 1.38960E+00
 -1      5017 2.46995E+01-6.05939E+00 3.50200E+00
 -1      5018 1.12308E+01-1.93264E+01 5.02076E+00
 -1      5019 1.22462E+01-1.87835E+01 6.27076E+00
 -1      5020 7.91311E+01-9.99265E-01 2.50000E+00
 -1      5021 8.19162E+01-1.13543E+00 2.50000E+00
 -1      5022 8.03619E+01 1.55123E+00 2.57861E+00
 -1      5023 7.91515E+01 2.27265E-01 5.07861E+00
 -1      5024 1.47580E+01 1.70544E+01 6.20596E+00
 -1      5025-5.09750E+00 1.57151E+01 8.79685E+00
 -1      5026-3.49029E+00 1.61309E+01 8.22362E+00
 -1      5027-6.27025E+00 1.81166E+01 7.50000E+00
 -1      5028-4.89603E-01 1.74799E+01 4.35623E+00
 -1      5029 1.83934E-01 1.73989E+01 6.02376E+00
 -1      5030 3.23028E+00 1.71006E+01 6.02376E+00
 -1      5031 2.55674E+00 1.71816E+01 4.35623E+00
 -1      5032-2.21121E+01 7.69295E+00 8.75000E+00
 -1      5033-2.20818E+01 9.07130E+00 8.75000E+00
 -1      5034-2.12099E+01 8.17987E+00 6.26682E+00
 -1      5035-2.20818E+01 9.07130E+00 1.25000E+00
 -1      5036-2.21121E+01 7.69295E+00 1.25000E+00
 -1      5037-2.12099E+01 8.17987E+00 3.76682E+00
 -1      5038-2.12213E+00 2.24544E+01 3.75000E+00
 -1      5039-2.07769E+01-8.81539E+00 6.24008E+00
 -1      5040 8.02212E+01-5.68576E+00 8.59019E+00
 -1      5041 8.18835E+01-3.10008E+00 7.50000E+00
 -1      5042 7.90984E+01-2.96392E+00 7.50000E+00
 -1      5043 2.87042E+01 3.59050E+00 3.71115E+00
 -1      5044 2.36455E+01 5.10791E+00 1.64769E+00
 -1      5045 2.34778E+01 6.49377E+00 1.41641E+00
 -1      5046 1.00213E+01-2.02179E+01 3.75000E+00
 -1      5047 1.22462E+01-1.87835E+01 3.77076E+00
 -1      5048 3.71991E+01 7.52956E+00 3.68908E+00
 -1      5049 2.07553E+01 6.81359E+00 1.40869E+00
 -1      5050 2.00782E+01 5.91918E+00 1.40869E+00
 -1      5051 2.14354E+01 5.26240E+00 1.33907E+00
 -1      5052 2.07583E+01 4.36799E+00 1.33907E+00
 -1      5053 2.12370E+01 5.74617E+00 2.74776E+00
 -1      5054 8.27188E+00-2.10823E+01 3.75000E+00
 -1      5055 3.04807E+01 1.52579E+00 5.29198E+00
 -1      5056 3.17492E+01 2.82796E+00 4.41114E+00
 -1      5057 3.11508E+01 2.16243E-02 5.39313E+00
 -1      5058 8.71910E+01 5.47576E+00 1.66667E+00
 -1      5059 8.87260E+01 2.35585E+00 1.81443E+00
 -1      5060 8.85447E+01 4.38009E+00 3.48110E+00
 -1      5061 8.62862E+01 4.97474E+00 4.25052E+00
 -1      5062 8.64676E+01 2.95051E+00 2.58386E+00
 -1      5063 2.62657E+01 8.25443E+00 6.66093E+00
 -1      5064 1.97665E+01-2.69426E+00 2.02136E+00
 -1      5065 2.06874E+01-3.66611E+00 1.42469E+00
 -1      5066-8.10336E+00 1.55825E+01 6.10310E+00
 -1      5067 2.86834E+01 7.62028E+00 6.00813E+00
 -1      5068 2.81346E+01 6.01420E+00 5.25136E+00
 -1      5069 1.88527E+01-1.00565E+01 5.52201E+00
 -1      5070 2.00551E+01-1.24843E+01 4.57449E+00
 -1      5071 1.73911E+01-1.21207E+01 5.86475E+00
 -1      5072 2.53087E+01-2.19943E+00 6.02673E+00
 -1      5073-7.65675E+00 2.21052E+01 1.25000E+00
 -1      5074-7.65675E+00 2.21052E+01 8.75000E+00
 -1      5075-9.89568E+00-2.11847E+01 8.75000E+00
 -1      5076-9.55368E+00-1.86721E+01 7.49750E+00
 -1      5077-9.89568E+00-2.11847E+01 1.25000E+00
 -1      5078-9.55368E+00-1.86721E+01 2.49750E+00
 -1      5079 1.24006E+01 1.22711E+01 4.25921E+00
 -1      5080 1.25367E+01 1.20861E+01 5.99390E+00
 -1      5081 1.46544E+01 1.41596E+01 4.98873E+00
 -1      5082 7.50875E+00-1.88183E+01 2.50000E+00
 -1      5083 8.99510E+00-1.89246E+01 2.50000E+00
 -1      5084 8.03074E+00-1.99235E+01 2.50000E+00
 -1      5085 7.50875E+00-1.88183E+01 7.50000E+00
 -1      5086 8.03074E+00-1.99235E+01 7.50000E+00
 -1      5087 8.99510E+00-1.89246E+01 7.50000E+00
 -1      5088-2.19773E+01-9.26987E+00 8.74008E+00
 -1      5089-2.10293E+01-1.02652E+01 8.74008E+00
 -1      5090-1.88202E+01-9.24959E+00 7.50000E+00
 -1      5091 2.88081E+01-8.76427E-01 8.40570E+00
 -1      5092 1.17641E+01-2.01871E+01 8.75000E+00
 -1      5093 1.12200E+01-1.74902E+01 7.52076E+00
 -1      5094 6.38245E+01 6.37271E+00 5.19414E+00
 -1      5095 6.59169E+01 6.25664E+00 5.66597E+00
 -1      5096 4.61990E+01 1.54562E+00 2.55166E+00
 -1      5097 4.71141E+01 3.79299E+00 2.82793E+00
 -1      5098-1.34847E+00 1.91109E+01 7.50000E+00
 -1      5099 9.30724E-01 1.65085E+01 8.52376E+00
 -1      5100 1.69787E+00 1.88127E+01 7.50000E+00
 -1      5101 1.17641E+01-2.01871E+01 1.25000E+00
 -1      5102 1.12200E+01-1.74902E+01 2.52076E+00
 -1      5103 2.42307E+01-7.53503E+00 1.38960E+00
 -1      5104-1.49008E+01 1.17584E+01 7.48751E+00
 -1      5105-1.25754E+01 1.08440E+01 8.16690E+00
 -1      5106-1.29675E+01 1.40946E+01 7.51465E+00
 -1      5107 4.19773E+01 7.60180E+00 1.05667E+00
 -1      5108-3.13944E-01-1.74882E+01 4.22871E+00
 -1      5109 2.60500E-01-1.75601E+01 5.98603E+00
 -1      5110-3.05168E+00-1.73419E+01 4.22860E+00
 -1      5111-2.47724E+00-1.74138E+01 5.98592E+00
 -1      5112-9.29074E-01-2.00293E+01 5.01401E+00
 -1      5113-7.71722E+00 1.87599E+01 2.50000E+00
 -1      5114-7.71722E+00 1.87599E+01 7.50000E+00
 -1      5115 7.15151E+00-2.14703E+01 5.00000E+00
 -1      5116 4.42971E+00-2.20804E+01 5.00706E+00
 -1      5117 3.84776E+01-7.54362E+00 4.17216E+00
 -1      5118 2.19637E+01 6.94220E+00 5.09073E+00
 -1      5119 2.32178E+01 7.75518E+00 4.00714E+00
 -1      5120 2.38686E+01 7.48731E+00 5.62832E+00
 -1      5121 1.55398E+01-5.52579E+00 1.43842E+00
 -1      5122 2.61127E+01-6.88489E-01 5.91232E+00
 -1      5123 2.60896E+01-2.89430E+00 4.99805E+00
 -1      5124 2.68936E+01-1.38336E+00 4.88364E+00
 -1      5125 2.96007E+01-4.45364E+00 4.11117E+00
 -1      5126 3.04338E+01-3.70967E+00 1.59369E+00
 -1      5127 3.10775E+01-4.78446E+00 3.20485E+00
 -1      5128 3.07896E+01-3.15051E+00 4.09369E+00
 -1      5129 2.29082E+01-4.59157E+00 1.56935E+00
 -1      5130 2.23630E+01-3.96302E+00 1.56935E+00
 -1      5131 2.10335E+01-4.73280E+00 1.42469E+00
 -1      5132 2.17517E+01-4.17645E+00 2.99404E+00
 -1      5133 2.15788E+01-5.36135E+00 1.42469E+00
 -1      5134-2.11077E+00 1.74249E+01 5.72362E+00
 -1      5135-3.47478E+00 1.87073E+01 7.50000E+00
 -1      5136 2.65553E+01-1.11695E+00 8.40570E+00
 -1      5137 2.32385E+01-4.97665E+00 2.95895E+00
 -1      5138 2.30656E+01-6.16155E+00 1.38960E+00
 -1      5139 2.19090E+01-5.74643E+00 2.81430E+00
 -1      5140 1.01796E+01-1.41681E+01 5.79452E+00
 -1      5141 3.74257E-01 2.03059E+01 2.50000E+00
 -1      5142-1.34847E+00 1.91109E+01 2.50000E+00
 -1      5143 3.42060E+00 2.00076E+01 2.50000E+00
 -1      5144 1.69787E+00 1.88127E+01 2.50000E+00
 -1      5145 8.45519E+01 6.67246E-01 7.58386E+00
 -1      5146 8.35160E+01-1.85527E+00 7.50000E+00
 -1      5147-2.27633E+01 2.41531E+00 8.75000E+00
 -1      5148 2.23900E+01-4.49191E+00 4.06954E+00
 -1      5149 2.35931E+01-5.07575E+00 4.42391E+00
 -1      5150 2.27446E+01-4.59100E+00 5.53451E+00
 -1      5151 2.34358E+01-3.50577E+00 4.60366E+00
 -1      5152 2.12985E+01-1.82772E+00 1.65561E+00
 -1      5153 2.10333E+01-3.10785E+00 3.08030E+00
 -1      5154 2.01124E+01-2.13600E+00 3.67696E+00
 -1      5155 3.43457E+01-3.17100E+00 1.59369E+00
 -1      5156 3.38391E+01-2.55899E+00 4.03706E+00
 -1      5157 3.45504E+01-4.61988E+00 4.10214E+00
 -1      5158-7.09165E+00-1.60540E+01 5.58787E+00
 -1      5159-7.07485E+00-1.60609E+01 3.88516E+00
 -1      5160-4.68826E+00-1.68769E+01 5.59732E+00
 -1      5161-4.67146E+00-1.68838E+01 3.89461E+00
 -1      5162-6.07020E+00-1.90600E+01 5.00445E+00
 -1      5163 3.81816E+01 4.32856E+00 7.81901E+00
 -1      5164 3.75541E+01 5.73971E+00 7.81901E+00
 -1      5165 6.97341E+01 1.30807E+00 2.50000E+00
 -1      5166 7.00557E+01-1.32136E+00 2.56580E+00
 -1      5167 6.97341E+01 1.30807E+00 7.50000E+00
 -1      5168 7.00557E+01-1.32136E+00 7.56580E+00
 -1      5169 2.16496E+01 7.31004E+00 1.40869E+00
 -1      5170 2.09884E+01 7.59261E+00 1.40869E+00
 -1      5171 2.60175E+01 6.87912E+00 3.15964E+00
 -1      5172 7.85323E+01 3.27289E+00 2.57861E+00
 -1      5173 7.72876E+01 5.81180E+00 2.14889E+00
 -1      5174 7.58048E+01 2.76900E+00 2.68876E+00
 -1      5175 2.31504E+01-3.16121E-01 6.03706E+00
 -1      5176 2.17737E+01-3.47489E-01 5.18605E+00
 -1      5177 2.22458E+01 1.10703E+00 5.17390E+00
 -1      5178 2.23307E+01 4.98889E+00 1.33907E+00
 -1      5179 2.30642E+01 5.69987E+00 2.75548E+00
 -1      5180 8.20499E+01 2.28801E+00 7.57861E+00
 -1      5181 8.03619E+01 1.55123E+00 7.57861E+00
 -1      5182 8.19616E+01 8.31383E-01 7.57861E+00
 -1      5183 4.45882E+00-1.69314E+01 4.21201E+00
 -1      5184 5.00503E+00-1.68499E+01 5.95993E+00
 -1      5185 1.73703E+00-1.75414E+01 4.21907E+00
 -1      5186 2.28323E+00-1.74599E+01 5.96698E+00
 -1      5187-2.01012E+01-1.20305E+01 8.26835E+00
 -1      5188-1.73796E+01-1.13589E+01 7.50000E+00
 -1      5189-1.84082E+01-1.26900E+01 5.76835E+00
 -1      5190 6.94214E+01 6.51189E+00 8.56747E+00
 -1      5191 6.96163E+01 5.33771E+00 6.06747E+00
 -1      5192-1.17000E+01-2.03009E+01 8.74008E+00
 -1      5193-1.06199E+01-1.98660E+01 6.23758E+00
 -1      5194-1.27890E+01-1.86491E+01 6.20451E+00
 -1      5195-1.06428E+01-1.70202E+01 4.96193E+00
 -1      5196-1.17229E+01-1.74552E+01 7.46443E+00
 -1      5197 6.17732E+01 3.38109E+00 2.69414E+00
 -1      5198 1.07547E+01 1.97026E+01 5.00000E+00
 -1      5199 8.14152E+00-1.72995E+01 7.50000E+00
 -1      5200 7.42118E+00-1.47360E+01 8.74015E+00
 -1      5201 1.03665E+01-1.58651E+01 7.52076E+00
 -1      5202 7.45892E+01-6.05727E+00 8.94333E+00
 -1      5203 4.04018E+01-4.63634E+00 7.50000E+00
 -1      5204 4.04228E+01-6.00537E+00 5.94537E+00
 -1      5205 4.03553E+01-7.94983E+00 8.44537E+00
 -1      5206 3.85843E+01-6.16961E+00 7.50845E+00
 -1      5207 3.86053E+01-7.53864E+00 5.95382E+00
 -1      5208 3.10276E+01-2.53197E+00 1.59369E+00
 -1      5209 1.65318E+01-6.60753E-01 5.10997E+00
 -1      5210 1.89021E+01-2.25011E-01 5.94331E+00
 -1      5211 1.83220E+01-2.16202E+00 5.46466E+00
 -1      5212 8.84430E+01 9.05237E-01 8.42052E+00
 -1      5213-1.59750E+01 1.32956E+01 7.48751E+00
 -1      5214-1.40418E+01 1.56319E+01 7.51465E+00
 -1      5215-1.05453E+01 1.40625E+01 6.11775E+00
 -1      5216-9.14836E+00 1.48219E+01 4.57839E+00
 -1      5217 5.07269E+01-4.39751E+00 8.35094E+00
 -1      5218 4.76944E+01-5.11771E+00 7.45094E+00
 -1      5219 7.79068E+01-5.08941E+00 4.64889E+00
 -1      5220-1.14046E+01-1.93593E+01 4.99750E+00
 -1      5221-1.06201E+01-1.98658E+01 3.75600E+00
 -1      5222-1.35738E+01-1.81424E+01 4.96443E+00
 -1      5223-1.27893E+01-1.86489E+01 3.72294E+00
 -1      5224-1.80375E+01-6.17537E+00 7.50000E+00
 -1      5225-1.58106E+01-4.81484E+00 8.33613E+00
 -1      5226-1.88026E+01-3.93537E+00 7.34472E+00
 -1      5227 6.17732E+01 3.38109E+00 7.69414E+00
 -1      5228 6.09706E+01 2.20120E+00 6.02747E+00
 -1      5229 1.54415E+01 1.63953E+01 4.98541E+00
 -1      5230 1.60756E+01 1.56830E+01 3.65036E+00
 -1      5231 1.72386E+01 1.50871E+01 5.04961E+00
 -1      5232 3.36901E+01 7.28293E+00 5.11885E+00
 -1      5233 3.54776E+01 7.59671E+00 4.57962E+00
 -1      5234-1.59750E+01 1.32956E+01 2.48751E+00
 -1      5235-1.49008E+01 1.17584E+01 2.48751E+00
 -1      5236-1.29675E+01 1.40946E+01 2.51465E+00
 -1      5237-1.40418E+01 1.56319E+01 2.51465E+00
 -1      5238 4.45953E+01-7.85440E+00 2.51665E+00
 -1      5239 1.95120E+01 1.12763E+01 6.54023E+00
 -1      5240 1.84440E+01 1.06295E+01 7.60790E+00
 -1      5241 2.00524E+01 1.27297E+01 8.93233E+00
 -1      5242 1.87860E+01 1.31139E+01 6.45879E+00
 -1      5243 1.77179E+01 1.24672E+01 7.52646E+00
 -1      5244 1.42538E+01 1.00804E+01 8.53163E+00
 -1      5245 1.70976E+01 1.03162E+01 7.60790E+00
 -1      5246 1.63715E+01 1.21539E+01 7.52646E+00
 -1      5247-4.35732E+00 2.24517E+01 1.25000E+00
 -1      5248-2.50134E+00 2.27537E+01 1.25000E+00
 -1      5249-2.47448E+00 2.03007E+01 2.50000E+00
 -1      5250-2.41837E+00-2.27606E+01 1.00000E+00
 -1      5251-9.95219E-01-2.34216E+01 1.00000E+00
 -1      5252-1.83710E+00-2.09024E+01 2.50695E+00
 -1      5253-2.82493E+00-2.24021E+01 3.50695E+00
 -1      5254-3.26025E+00-2.02415E+01 2.50695E+00
 -1      5255-9.95219E-01-2.34216E+01 9.00000E+00
 -1      5256-2.41837E+00-2.27606E+01 9.00000E+00
 -1      5257-3.26025E+00-2.02415E+01 7.50695E+00
 -1      5258-2.82493E+00-2.24021E+01 6.50695E+00
 -1      5259-1.83710E+00-2.09024E+01 7.50695E+00
 -1      5260 6.03490E-01-1.91981E+01 2.50706E+00
 -1      5261-1.51912E+00-1.65107E+01 1.72165E+00
 -1      5262-2.13425E+00-1.90517E+01 2.50695E+00
 -1      5263 1.58933E+01-1.59762E+01 6.23736E+00
 -1      5264 1.65428E+01-1.53883E+01 5.00140E+00
 -1      5265 1.45588E+01-1.70113E+01 5.05548E+00
 -1      5266 1.36861E+01-1.44636E+01 4.98743E+00
 -1      5267 1.39093E+01-1.75991E+01 6.29144E+00
 -1      5268-1.61384E+01-3.58514E+00 1.68429E+00
 -1      5269-1.80375E+01-6.17537E+00 2.50000E+00
 -1      5270-1.88026E+01-3.93537E+00 2.34472E+00
 -1      5271-6.27025E+00 1.81166E+01 2.50000E+00
 -1      5272-3.47478E+00 1.87073E+01 2.50000E+00
 -1      5273-5.26520E+00-1.56489E+01 1.38766E+00
 -1      5274-6.66395E+00-1.78252E+01 2.49750E+00
 -1      5275-4.26056E+00-1.86481E+01 2.50695E+00
 -1      5276 2.67701E+01-8.51247E-02 8.40570E+00
 -1      5277 2.52808E+01 1.44219E-01 8.67266E+00
 -1      5278 7.84243E+01 5.76747E+00 8.59019E+00
 -1      5279 8.02743E+01 5.27234E+00 6.16880E+00
 -1      5280-1.54466E+01-8.17436E+00 5.83110E+00
 -1      5281-1.61100E+01-7.00717E+00 4.19797E+00
 -1      5282-1.40060E+01-1.02837E+01 5.83110E+00
 -1      5283-1.46694E+01-9.11651E+00 4.19797E+00
 -1      5284 8.54345E+01-3.00241E+00 7.50000E+00
 -1      5285 8.73087E+01-3.65663E+00 7.50000E+00
 -1      5286 8.54345E+01-3.00241E+00 2.50000E+00
 -1      5287 8.73087E+01-3.65663E+00 2.50000E+00
 -1      5288 7.80447E+01-5.92249E+00 8.59019E+00
 -1      5289 8.38922E+01 5.06812E+00 5.08386E+00
 -1      5290 8.52980E+01 5.01328E+00 5.08386E+00
 -1      5291 8.48436E+01 5.03101E+00 3.96052E+00
 -1      5292 8.48436E+01 5.03101E+00 6.20719E+00
 -1      5293-1.78427E+01 1.43408E+01 8.75000E+00
 -1      5294-1.73006E+01 1.58144E+01 8.75000E+00
 -1      5295-1.65171E+01 1.18220E+01 7.48751E+00
 -1      5296-1.77621E+01 1.36262E+01 6.23751E+00
 -1      5297 6.70256E+01 6.91261E+00 1.60402E+00
 -1      5298 6.75543E+01 6.19277E+00 4.76999E+00
 -1      5299 8.38077E+01-5.10404E+00 6.12333E+00
 -1      5300-1.73779E+01-3.30362E-02 5.96581E+00
 -1      5301-1.72986E+01-6.09435E-01 4.22512E+00
 -1      5302-1.99628E+01-9.59670E-01 4.88554E+00
 -1      5303-1.75131E+01-2.39319E+00 5.76970E+00
 -1      5304 6.31734E+01 3.54037E+00 7.69414E+00
 -1      5305 2.48569E+00 2.27598E+01 8.26842E+00
 -1      5306 3.42060E+00 2.00076E+01 7.50000E+00
 -1      5307 1.35605E+01-1.12647E+01 5.42403E+00
 -1      5308 2.42452E+01-6.71691E+00 8.42802E+00
 -1      5309 2.43200E+01-5.91952E+00 8.42802E+00
 -1      5310 2.34973E+01-6.04734E+00 8.42802E+00
 -1      5311-1.64375E+01 3.02982E+00 1.64667E+00
 -1      5312-1.73903E+01 1.29342E+00 4.18749E+00
 -1      5313-8.84320E+00 1.39699E+01 8.60310E+00
 -1      5314-7.25329E+00 1.48058E+01 8.79685E+00
 -1      5315-8.42604E+00 1.72073E+01 7.50000E+00
 -1      5316 1.83375E+01-1.52474E+01 1.34040E+00
 -1      5317 1.72696E+01-1.46202E+01 3.80708E+00
 -1      5318 2.30861E+01 1.77143E+00 6.62452E+00
 -1      5319-1.90597E+01 1.00860E+00 2.54082E+00
 -1      5320-1.65307E+01-1.00132E+00 1.68429E+00
 -1      5321-1.91949E+01-1.35155E+00 2.34472E+00
 -1      5322 1.74424E+01-1.00842E+01 2.12393E+00
 -1      5323 1.59807E+01-1.21485E+01 2.46667E+00
 -1      5324 2.07146E+01-4.76062E+00 8.92670E+00
 -1      5325 2.17373E+01-4.74981E+00 8.92670E+00
 -1      5326 2.14402E+01-3.67199E+00 8.92670E+00
 -1      5327 2.00776E+01-7.27752E+00 1.11516E+00
 -1      5328 1.98268E+01-8.44496E+00 3.23909E+00
 -1      5329 2.07413E+01-6.56199E+00 2.53986E+00
 -1      5330 4.90152E+01 3.05360E+00 1.69669E+00
 -1      5331 3.13626E+01 7.06227E-01 1.85216E+00
 -1      5332 3.30477E+01-5.00533E-01 4.29554E+00
 -1      5333 3.37265E+01-4.29872E-01 2.44338E+00
 -1      5334 3.35879E+01 1.45591E+00 2.00378E+00
 -1      5335 3.29091E+01 1.38525E+00 3.85594E+00
 -1      5336-1.73006E+01 1.58144E+01 1.25000E+00
 -1      5337-1.78427E+01 1.43408E+01 1.25000E+00
 -1      5338-1.65171E+01 1.18220E+01 2.48751E+00
 -1      5339-1.77621E+01 1.36262E+01 3.73751E+00
 -1      5340 2.13289E+01-9.53236E+00 7.00620E+00
 -1      5341 2.06905E+01-8.62762E+00 8.67286E+00
 -1      5342 2.17793E+01-1.01609E+01 8.33333E+00
 -1      5343 2.26091E+01-9.56655E+00 7.17923E+00
 -1      5344 2.19707E+01-8.66181E+00 8.84590E+00
 -1      5345 2.15203E+01-8.03328E+00 7.51877E+00
 -1      5346 6.02413E+01 2.20389E+00 8.66977E+00
 -1      5347 6.07214E+01 3.22521E+00 6.36391E+00
 -1      5348 2.09695E+01-6.78811E+00 6.17306E+00
 -1      5349 1.29098E+01 1.84210E+01 1.30447E+00
 -1      5350 1.44537E+01 1.72435E+01 1.26685E+00
 -1      5351 1.25530E+01 1.56569E+01 2.46227E+00
 -1      5352 2.23519E+01 2.76446E+00 8.48828E+00
 -1      5353 2.38570E+01 2.46239E+00 8.09408E+00
 -1      5354 2.26738E+01 1.26544E+00 8.53044E+00
 -1      5355 2.15810E+01 2.07351E+00 7.01871E+00
 -1      5356-4.15359E+00-2.24990E+01 1.25000E+00
 -1      5357-4.56015E+00-2.21404E+01 3.75695E+00
 -1      5358-4.15359E+00-2.24990E+01 8.75000E+00
 -1      5359-4.56015E+00-2.21404E+01 6.25695E+00
 -1      5360 3.87629E+01-7.79152E+00 1.66371E+00
 -1      5361 3.38285E+01-3.70020E+00 5.45668E+00
 -1      5362 3.26723E+01-3.99102E+00 8.01330E+00
 -1      5363 3.42555E+01-1.92745E+00 7.44338E+00
 -1      5364 3.35148E+01-1.11447E+00 5.98434E+00
 -1      5365 3.23586E+01-1.40530E+00 8.54097E+00
 -1      5366 3.19315E+01-3.17804E+00 6.55427E+00
 -1      5367-4.35732E+00 2.24517E+01 8.75000E+00
 -1      5368-2.47448E+00 2.03007E+01 7.50000E+00
 -1      5369 4.27694E+01 3.34108E+00 7.50000E+00
 -1      5370 4.12899E+01 2.76325E+00 5.07678E+00
 -1      5371 4.06043E+01 1.99508E+00 7.57678E+00
 -1      5372 4.08889E+01 4.24349E+00 7.81901E+00
 -1      5373 4.15744E+01 5.01166E+00 5.31901E+00
 -1      5374 1.57975E+01-1.70587E+01 8.77069E+00
 -1      5375 1.55742E+01-1.39232E+01 7.46667E+00
 -1      5376 1.35903E+01-1.55462E+01 7.52076E+00
 -1      5377 6.01947E+01 3.82273E+00 1.69239E+00
 -1      5378 6.01102E+01 7.00345E+00 2.51665E+00
 -1      5379 5.90031E+01 5.41493E+00 4.20904E+00
 -1      5380 6.06704E+01 3.31831E+00 4.38653E+00
 -1      5381 6.05859E+01 6.49903E+00 5.21079E+00
 -1      5382 6.17775E+01 4.90683E+00 2.69414E+00
 -1      5383 7.87322E+01 1.38888E+00 2.57861E+00
 -1      5384 7.75014E+01-1.16161E+00 2.50000E+00
 -1      5385 7.60047E+01 8.84992E-01 2.68876E+00
 -1      5386-1.89963E+01 1.27348E+01 8.75000E+00
 -1      5387-1.89157E+01 1.20202E+01 6.23751E+00
 -1      5388 2.64544E+01-8.40099E+00 1.37667E+00
 -1      5389 2.65108E+01-7.70601E+00 3.48907E+00
 -1      5390 2.52071E+01-8.19325E+00 2.76627E+00
 -1      5391 2.90764E+01 1.87530E+00 4.35216E+00
 -1      5392 3.03116E+01 2.35077E+00 3.06331E+00
 -1      5393 2.83324E+01 2.22595E+00 2.80251E+00
 -1      5394 1.73861E+01 1.54520E+01 1.18809E+00
 -1      5395 1.59650E+01 1.39286E+01 2.52646E+00
 -1      5396 7.93116E+01 5.76365E+00 2.14889E+00
 -1      5397 8.09226E+01 5.70081E+00 1.11799E+00
 -1      5398 8.07486E+01 5.25384E+00 3.69660E+00
 -1      5399 8.05563E+01 3.22473E+00 2.57861E+00
 -1      5400 2.57187E-01 1.65895E+01 1.85623E+00
 -1      5401 1.93885E+01 4.29851E-01 7.50000E+00
 -1      5402 1.78556E+01 7.21222E-01 8.44331E+00
 -1      5403 1.85500E+01-6.66644E-01 8.44331E+00
 -1      5404 1.03538E+01 2.09099E+01 8.39286E+00
 -1      5405 3.98773E+01-3.24928E+00 7.50000E+00
 -1      5406 3.80598E+01-4.78255E+00 7.50845E+00
 -1      5407-2.23675E+01-3.74125E-01 5.93368E+00
 -1      5408-2.08721E+01 7.17355E-01 7.54082E+00
 -1      5409-2.34120E+01-1.05725E+00 8.39286E+00
 -1      5410-2.25027E+01-2.73427E+00 5.73758E+00
 -1      5411-2.10073E+01-1.64279E+00 7.34472E+00
 -1      5412-1.84440E+01 1.27429E+01 4.98751E+00
 -1      5413-2.12213E+00 2.24544E+01 6.25000E+00
 -1      5414 3.99096E+01-1.36428E+00 7.50000E+00
 -1      5415 4.12795E+01-2.62225E+00 7.50000E+00
 -1      5416 1.29651E+01 1.40408E+01 7.46227E+00
 -1      5417 1.26445E+01 1.06592E+01 8.53163E+00
 -1      5418 1.47622E+01 1.27327E+01 7.52646E+00
 -1      5419-1.71483E+01 1.43004E+01 4.98751E+00
 -1      5420 2.13986E+01-1.75988E+00 4.92928E+00
 -1      5421-1.89963E+01 1.27348E+01 1.25000E+00
 -1      5422-1.89157E+01 1.20202E+01 3.73751E+00
 -1      5423 6.18562E+01-2.16245E+00 5.75962E+00
 -1      5424 2.19013E+01-7.75024E+00 1.11516E+00
 -1      5425 2.12401E+01-8.03281E+00 1.11516E+00
 -1      5426 2.10070E+01-7.25379E+00 1.11516E+00
 -1      5427 4.48094E+01 3.64664E+00 2.50000E+00
 -1      5428 1.34571E+01-1.89775E+01 1.27584E+00
 -1      5429 1.39392E+01-1.75739E+01 3.79660E+00
 -1      5430 2.50733E+01-6.63892E+00 8.42802E+00
 -1      5431 2.72289E+01-6.40084E+00 8.28284E+00
 -1      5432 1.34272E+01-1.90028E+01 8.77069E+00
 -1      5433 9.87118E+00 1.83256E+01 2.50000E+00
 -1      5434 8.38484E+00 1.82193E+01 2.50000E+00
 -1      5435 5.48004E+00 1.55335E+01 8.37488E+00
 -1      5436 6.77327E+00 1.76334E+01 7.50000E+00
 -1      5437 7.71119E+00 1.56575E+01 5.87488E+00
 -1      5438 5.20769E+00 1.64812E+01 5.87488E+00
 -1      5439 4.26977E+00 1.84571E+01 7.50000E+00
 -1      5440 4.85328E+01 3.10183E-01 5.73253E+00
 -1      5441 4.94479E+01 2.55755E+00 6.00881E+00
 -1      5442 7.69219E+01-3.20065E+00 2.50000E+00
 -1      5443 1.12876E+01 1.93767E+01 3.80447E+00
 -1      5444 2.40183E+01 4.09431E+00 1.64769E+00
 -1      5445 7.39124E+01 2.46689E+00 2.68876E+00
 -1      5446 7.40422E+01 3.81919E+00 2.68876E+00
 -1      5447 1.42886E+01-1.00311E+01 1.47516E+00
 -1      5448 3.15901E+01-5.31197E+00 8.01330E+00
 -1      5449 3.07790E+01-4.29173E+00 5.51330E+00
 -1      5450 3.12764E+01-2.72625E+00 8.54097E+00
 -1      5451 3.04653E+01-1.70600E+00 6.04097E+00
 -1      5452 2.45422E+01-4.48941E+00 3.68175E+00
 -1      5453 2.48968E+01-4.58850E+00 5.14671E+00
 -1      5454 3.66996E+01 7.48874E+00 8.52282E+00
 -1      5455 3.71873E+01 7.53003E+00 5.54256E+00
 -1      5456 4.63248E+01-7.78694E+00 1.59180E+00
 -1      5457 4.63043E+01-6.80009E+00 4.04273E+00
 -1      5458 2.72324E+01 1.95502E-01 1.59136E+00
 -1      5459 1.09345E+02-8.25563E+00 3.10582E+00
 -1      5460 1.08754E+02-8.92144E+00 4.35582E+00
 -1      5461 1.09834E+02-7.55546E+00 4.35582E+00
 -1      5462 3.33825E+01 7.90298E+00 8.90724E+00
 -1      5463 3.26531E+01 5.63471E+00 7.55897E+00
 -1      5464 4.27962E+01 5.02508E+00 2.50000E+00
 -1      5465 4.26360E+01 6.68595E+00 3.55667E+00
 -1      5466 1.47091E+01 8.58652E+00 8.53163E+00
 -1      5467 1.75529E+01 8.82238E+00 7.60790E+00
 -1      5468 3.26531E+01 5.63471E+00 2.55897E+00
 -1      5469 3.16492E+01 7.97059E+00 1.56985E+00
 -1      5470 3.12155E+01 5.15752E+00 1.21115E+00
 -1      5471 7.32063E+01 6.95243E+00 2.50000E+00
 -1      5472 7.42095E+01 6.91331E+00 1.31058E+00
 -1      5473 7.50946E+01 4.86409E+00 3.99933E+00
 -1      5474-1.57176E+01-1.62410E+01 6.03728E+00
 -1      5475-1.48791E+01-1.70917E+01 4.96443E+00
 -1      5476-1.43682E+01-1.75377E+01 6.15491E+00
 -1      5477 4.26360E+01 6.68595E+00 5.00000E+00
 -1      5478 4.07555E+01 7.58837E+00 5.31901E+00
 -1      5479 4.52954E+01 7.94350E+00 8.40821E+00
 -1      5480 4.46051E+01 5.42565E+00 7.50000E+00
 -1      5481 4.41452E+01 6.62709E+00 5.90821E+00
 -1      5482 4.64499E+01 6.77344E+00 6.23614E+00
 -1      5483 4.69098E+01 5.57200E+00 7.82793E+00
 -1      5484 5.89718E+00-1.82324E+01 2.50000E+00
 -1      5485 3.10375E+00-1.62083E+01 1.71201E+00
 -1      5486 3.17539E+00-1.88425E+01 2.50706E+00
 -1      5487 4.18552E+00-2.24959E+01 1.25000E+00
 -1      5488 2.32622E+00-2.03930E+01 2.50706E+00
 -1      5489 4.18552E+00-2.24959E+01 8.75000E+00
 -1      5490 2.32622E+00-2.03930E+01 7.50706E+00
 -1      5491-7.44631E+00 1.47292E+01 2.06374E+00
 -1      5492-8.42604E+00 1.72073E+01 2.50000E+00
 -1      5493-1.08679E+01 1.56873E+01 2.51465E+00
 -1      5494 2.77320E+01 7.65739E+00 7.13146E+00
 -1      5495 6.90939E+01 6.52466E+00 1.60402E+00
 -1      5496 2.15857E+01 1.10949E+01 1.66667E+00
 -1      5497 7.66510E+00-2.21111E+01 1.25000E+00
 -1      5498 9.05038E+00-2.20504E+01 1.25000E+00
 -1      5499 9.05038E+00-2.20504E+01 8.75000E+00
 -1      5500 7.66510E+00-2.21111E+01 8.75000E+00
 -1      5501 8.86423E+00 1.49797E+01 4.20246E+00
 -1      5502 9.46393E+00 1.45028E+01 5.81585E+00
 -1      5503 1.07907E+01 1.38349E+01 4.16473E+00
 -1      5504 1.13904E+01 1.33581E+01 5.77812E+00
 -1      5505 1.99310E+01 5.83419E+00 8.41226E+00
 -1      5506 1.99412E+01 6.11067E+00 7.07867E+00
 -1      5507 2.09639E+01 6.60630E+00 8.66640E+00
 -1      5508 2.11064E+01 4.95118E+00 8.48828E+00
 -1      5509 2.11166E+01 5.22765E+00 7.15468E+00
 -1      5510 9.01760E+00 1.67004E+01 7.50000E+00
 -1      5511 9.47712E+00 1.34459E+01 8.31585E+00
 -1      5512 1.09441E+01 1.55557E+01 7.46227E+00
 -1      5513 2.13796E+01-6.87745E+00 3.61536E+00
 -1      5514-1.90597E+01 1.00860E+00 7.54082E+00
 -1      5515-1.66100E+01-4.24920E-01 8.42498E+00
 -1      5516-1.91949E+01-1.35155E+00 7.34472E+00
 -1      5517 2.49495E+00-2.24862E+01 5.00706E+00
 -1      5518 1.59231E+01-1.59509E+01 3.74251E+00
 -1      5519 2.17810E+01 4.35718E+00 1.33907E+00
 -1      5520 7.59721E+01 5.86311E+00 1.31058E+00
 -1      5521 7.05944E+00 1.59292E+01 4.24289E+00
 -1      5522 4.55594E+00 1.67530E+01 4.24289E+00
 -1      5523 2.76576E+01-8.09400E+00 1.37667E+00
 -1      5524 2.84535E+01-7.96373E+00 2.98783E+00
 -1      5525-1.59178E+01 5.23901E+00 8.45711E+00
 -1      5526-1.65861E+01 6.27693E+00 5.97393E+00
 -1      5527 7.14023E+01 2.82474E+00 2.50000E+00
 -1      5528 6.14019E+01-6.93177E+00 8.24918E+00
 -1      5529 5.95091E+01-7.39706E+00 8.24918E+00
 -1      5530 5.81173E+01-4.55883E+00 8.48446E+00
 -1      5531 6.00743E+01-5.65807E+00 6.73364E+00
 -1      5532 6.00101E+01-4.09354E+00 8.48446E+00
 -1      5533 2.20337E+01-8.48155E+00 1.11516E+00
 -1      5534 2.22281E+01-7.36219E+00 2.50476E+00
 -1      5535-1.08679E+01 1.56873E+01 7.51465E+00
 -1      5536 1.81571E+01-9.93467E+00 8.39808E+00
 -1      5537 1.96761E+01-9.69992E+00 7.07094E+00
 -1      5538 4.92841E+01 3.56585E-01 8.18088E+00
 -1      5539 4.69854E+01-4.64019E-02 7.55166E+00
 -1      5540 4.79005E+01 2.20097E+00 7.82793E+00
 -1      5541-9.66812E+00-2.03769E+01 4.99750E+00
 -1      5542 6.92888E+01 5.35048E+00 4.10402E+00
 -1      5543 1.55234E+01 7.12080E+00 8.19338E+00
 -1      5544 3.90238E+01-8.00177E+00 8.92658E+00
 -1      5545 3.75591E+01-7.83847E+00 8.92658E+00
 -1      5546 3.71196E+01-6.00631E+00 7.50845E+00
 -1      5547 3.72738E+01-7.59057E+00 6.43504E+00
 -1      5548 2.18771E+01-7.19865E+00 8.84590E+00
 -1      5549 2.21102E+01-7.97767E+00 8.84590E+00
 -1      5550 2.27714E+01-7.69510E+00 8.84590E+00
 -1      5551 2.04122E+01 7.47557E+00 8.66640E+00
 -1      5552 1.94389E+01 8.02947E+00 6.27430E+00
 -1      5553 1.88770E+01 8.62226E+00 7.60790E+00
 -1      5554 2.09082E+01 8.48275E+00 9.02927E+00
 -1      5555 1.99349E+01 9.03665E+00 6.63717E+00
 -1      5556 2.14701E+01 7.88996E+00 7.69568E+00
 -1      5557 7.15321E+01 4.17704E+00 2.50000E+00
 -1      5558 7.87322E+01 1.38888E+00 7.57861E+00
 -1      5559 7.75014E+01-1.16161E+00 7.50000E+00
 -1      5560 7.60047E+01 8.84992E-01 7.68876E+00
 -1      5561 8.90927E+01 6.10231E+00 5.98467E+00
 -1      5562 8.83693E+01 3.57705E+00 5.23519E+00
 -1      5563 2.13917E+01-5.65503E+00 8.92670E+00
 -1      5564 2.22861E+01-6.15148E+00 8.92670E+00
 -1      5565 2.22842E+01-5.37959E+00 8.92670E+00
 -1      5566-1.76834E+01 7.76073E+00 7.51682E+00
 -1      5567-1.50109E+01 7.08855E+00 8.45711E+00
 -1      5568-1.51750E+01 8.35608E+00 5.94462E+00
 -1      5569-1.62724E+01 9.83988E+00 7.48751E+00
 -1      5570-1.78476E+01 9.02826E+00 5.00432E+00
 -1      5571 2.22549E+01-1.05638E+01 8.33333E+00
 -1      5572 2.24464E+01-9.06467E+00 8.84590E+00
 -1      5573 3.04063E+01-5.80166E+00 6.29614E+00
 -1      5574-1.17002E+01-2.03008E+01 1.25850E+00
 -1      5575 2.08300E+01-7.94348E+00 8.67286E+00
 -1      5576 1.41679E+01 1.52368E+01 2.46227E+00
 -1      5577 2.32582E+01-3.57314E+00 1.56935E+00
 -1      5578 8.14152E+00-1.72995E+01 2.50000E+00
 -1      5579 1.06885E+01 2.07585E+01 1.54199E+00
 -1      5580 2.53194E+01 7.59775E+00 8.03760E+00
 -1      5581 2.48414E+01 6.90326E+00 8.03760E+00
 -1      5582 2.58522E+01 6.82328E+00 8.03760E+00
 -1      5583 1.62300E+01-2.56436E+00 1.20490E+00
 -1      5584 1.63238E+01-1.38197E+00 1.66667E+00
 -1      5585 1.66964E+01-2.68366E+00 3.22625E+00
 -1      5586 1.81140E+01-2.88324E+00 2.02136E+00
 -1      5587 3.18579E+01 7.35439E+00 6.01248E+00
 -1      5588 2.27035E+01 3.97529E+00 1.33907E+00
 -1      5589 1.56227E+01-6.86995E+00 1.43842E+00
 -1      5590 1.47439E+01-8.53729E+00 1.47516E+00
 -1      5591 1.78977E+01-8.59038E+00 2.12393E+00
 -1      5592-1.55797E+01-5.38273E+00 1.69797E+00
 -1      5593 6.02924E+01-3.65005E+00 1.92229E+00
 -1      5594 6.26811E+01-4.84607E+00 2.42628E+00
 -1      5595 6.33839E+01-7.21448E+00 1.48036E+00
 -1      5596 6.14019E+01-6.93177E+00 1.48036E+00
 -1      5597 6.27453E+01-6.41060E+00 3.90664E+00
 -1      5598 8.84395E+00-1.39466E+01 8.27376E+00
 -1      5599-1.71595E+01-8.33877E+00 2.50000E+00
 -1      5600-1.47016E+01-7.54613E+00 1.69797E+00
 -1      5601-1.57189E+01-1.04481E+01 2.50000E+00
 -1      5602-8.55164E+00-1.52531E+01 4.18568E+00
 -1      5603-9.05638E+00-1.48650E+01 5.85364E+00
 -1      5604-1.07208E+01-1.40362E+01 4.15262E+00
 -1      5605-1.12256E+01-1.36481E+01 5.82057E+00
 -1      5606-2.50134E+00 2.27537E+01 8.75000E+00
 -1      5607 1.43715E+01-1.27272E+01 7.46667E+00
 -1      5608 1.22620E+01-1.11514E+01 7.95736E+00
 -1      5609 1.15766E+01-1.28877E+01 5.47811E+00
 -1      5610 1.23875E+01-1.43502E+01 7.52076E+00
 -1      5611 3.07033E+01-1.08746E+00 8.54097E+00
 -1      5612 2.97226E+01-3.81283E-01 6.94667E+00
 -1      5613 6.26811E+01-4.84607E+00 7.42628E+00
 -1      5614 6.13535E+01-3.57238E+00 5.91075E+00
 -1      5615 6.27453E+01-6.41060E+00 5.67546E+00
 -1      5616 1.94279E+01-4.57136E+00 8.27962E+00
 -1      5617 2.01535E+01-3.48272E+00 8.27962E+00
 -1      5618 2.05431E+01-4.79098E+00 7.20632E+00
 -1      5619 5.75442E+01-7.47369E+00 8.94333E+00
 -1      5620 5.81094E+01-5.73470E+00 7.42780E+00
 -1      5621 2.41906E+01 7.17114E+00 1.41641E+00
 -1      5622-1.26629E+01-1.17557E+01 5.85614E+00
 -1      5623-1.36998E+01-1.06945E+01 3.90510E+00
 -1      5624-1.22624E+01-1.25870E+01 3.86953E+00
 -1      5625-1.42493E+01-1.39109E+01 4.96443E+00
 -1      5626 3.93038E+00 2.25509E+01 1.71994E+00
 -1      5627 2.17324E+00 2.27826E+01 1.46873E+00
 -1      5628 4.50720E+00 2.19481E+01 4.21994E+00
 -1      5629 3.14751E+01-1.42289E+00 3.44585E+00
 -1      5630 1.10952E+02-5.89820E+00 6.88781E+00
 -1      5631 1.11162E+02-5.36573E+00 5.69733E+00
 -1      5632 1.10469E+02-6.82008E+00 5.69733E+00
 -1      5633-2.24061E+01-4.53058E+00 8.68882E+00
 -1      5634-2.27568E+01-2.47978E+00 8.39286E+00
 -1      5635-2.03521E+01-3.06533E+00 7.34472E+00
 -1      5636 8.90927E+01 6.10231E+00 4.31800E+00
 -1      5637-1.27804E+01 1.89662E+01 1.25000E+00
 -1      5638-1.44375E+01 1.77623E+01 1.25000E+00
 -1      5639-1.25714E+01 1.61755E+01 2.51465E+00
 -1      5640-1.44361E+01 1.73668E+01 3.76465E+00
 -1      5641-1.27790E+01 1.85707E+01 3.76465E+00
 -1      5642-1.27804E+01 1.89662E+01 8.75000E+00
 -1      5643-1.44375E+01 1.77623E+01 8.75000E+00
 -1      5644-1.44361E+01 1.73668E+01 6.26465E+00
 -1      5645-1.25714E+01 1.61755E+01 7.51465E+00
 -1      5646 2.61114E+01-4.38213E+00 5.63251E+00
 -1      5647 2.76580E+01-4.19591E+00 4.61240E+00
 -1      5648 8.35160E+01-1.85527E+00 2.50000E+00
 -1      5649 4.70248E+01 7.87605E+00 2.48335E+00
 -1      5650 4.81794E+01 6.70598E+00 5.31128E+00
 -1      5651-1.71595E+01-8.33877E+00 7.50000E+00
 -1      5652-1.40383E+01-8.71332E+00 8.33110E+00
 -1      5653-1.57189E+01-1.04481E+01 7.50000E+00
 -1      5654 2.70075E+01 6.76552E+00 1.74323E+00
 -1      5655 4.16643E+01-4.04010E+00 7.50000E+00
 -1      5656 1.73703E+01 4.35742E-01 5.83333E+00
 -1      5657 1.65318E+01-6.60753E-01 6.77664E+00
 -1      5658 2.21169E+01-2.82849E+00 4.84302E+00
 -1      5659 2.14258E+01-3.91372E+00 5.77386E+00
 -1      5660 2.11970E+01 7.38532E+00 8.66640E+00
 -1      5661 2.16930E+01 8.39250E+00 9.02927E+00
 -1      5662-1.42501E+01-1.79203E+01 1.30102E+00
 -1      5663-1.26697E+01-1.90328E+01 1.25850E+00
 -1      5664-1.26923E+01-1.61872E+01 2.46443E+00
 -1      5665-1.43697E+01-1.75364E+01 3.76545E+00
 -1      5666 2.06925E+01-1.98990E-01 4.15561E+00
 -1      5667 2.08217E+01 7.22985E-01 6.03044E+00
 -1      5668 4.54988E+00 2.24075E+01 8.52790E+00
 -1      5669 5.76706E+01 4.96630E+00 8.22272E+00
 -1      5670 5.95267E+01 4.54354E+00 8.22272E+00
 -1      5671 5.83351E+01 6.13574E+00 5.73937E+00
 -1      5672 6.01102E+01 7.00345E+00 7.51665E+00
 -1      5673 5.82541E+01 7.42621E+00 7.51665E+00
 -1      5674 1.11437E+02-4.93133E+00 4.11391E+00
 -1      5675 1.10743E+02-6.38568E+00 4.11391E+00
 -1      5676 7.58415E+01-1.16161E+00 7.50000E+00
 -1      5677 1.08639E+02-8.84211E+00 6.94733E+00
 -1      5678 1.09980E+02-7.52024E+00 6.94733E+00
 -1      5679 1.09389E+02-8.18605E+00 5.69733E+00
 -1      5680 8.38077E+01-5.10404E+00 3.87667E+00
 -1      5681 8.42621E+01-5.08632E+00 5.00000E+00
 -1      5682 8.61362E+01-5.74054E+00 5.00000E+00
 -1      5683 8.56818E+01-5.75826E+00 3.87667E+00
 -1      5684 8.56818E+01-5.75826E+00 6.12333E+00
 -1      5685 5.31855E-01-1.65639E+01 1.71201E+00
 -1      5686-1.90296E+01-1.26793E+01 1.46522E+00
 -1      5687-1.61422E+01-1.22776E+01 2.50000E+00
 -1      5688 2.92556E+01 2.32658E-01 5.25786E+00
 -1      5689 3.92823E+01 2.54990E+00 7.57678E+00
 -1      5690 3.95669E+01 4.79831E+00 7.81901E+00
 -1      5691 5.08459E+01-6.02104E+00 5.85094E+00
 -1      5692 5.08459E+01-6.02104E+00 7.29427E+00
 -1      5693 5.28108E+01-5.94440E+00 6.60012E+00
 -1      5694 8.46402E+01 2.12388E+00 7.58386E+00
 -1      5695 2.30393E+01 2.69759E+00 1.64346E+00
 -1      5696 2.20169E+01-2.89633E+00 1.56935E+00
 -1      5697 3.21539E+01-1.35222E+00 1.59369E+00
 -1      5698 6.18397E+01 6.93599E+00 1.59180E+00
 -1      5699 6.23154E+01 6.43157E+00 4.28593E+00
 -1      5700-1.26694E+01-1.90329E+01 8.74008E+00
 -1      5701-1.42486E+01-1.79215E+01 8.69048E+00
 -1      5702-1.26923E+01-1.61872E+01 7.46443E+00
 -1      5703-2.22808E+01-4.23541E+00 4.84472E+00
 -1      5704-1.36237E+01 1.80089E+01 5.01465E+00
 -1      5705 2.14520E+01 4.04595E+00 8.48828E+00
 -1      5706 2.04293E+01 4.05676E+00 8.48828E+00
 -1      5707 6.83404E+01-1.58358E+00 7.56580E+00
 -1      5708 6.97225E+01-3.52397E+00 7.56580E+00
 -1      5709 6.83404E+01-1.58358E+00 2.56580E+00
 -1      5710 5.21745E+00-1.56517E+01 1.96705E+00
 -1      5711-1.66224E+01 9.01537E-01 1.64667E+00
 -1      5712-1.56863E+01 5.75631E+00 1.81430E+00
 -1      5713-1.63546E+01 6.79423E+00 4.33112E+00
 -1      5714-1.45003E+01-1.22357E+01 2.50000E+00
 -1      5715-1.25135E+01-1.09118E+01 1.40510E+00
 -1      5716-1.30630E+01-1.41281E+01 2.46443E+00
 -1      5717-9.44672E-01-1.65826E+01 8.47897E+00
 -1      5718 6.03490E-01-1.91981E+01 7.50706E+00
 -1      5719-2.13425E+00-1.90517E+01 7.50695E+00
 -1      5720 3.35188E+01 7.28961E+00 3.68894E+00
 -1      5721 1.10254E+02-7.08585E+00 2.86391E+00
 -1      5722-1.36398E+00 1.65345E+01 8.22362E+00
 -1      5723 1.12259E+02 1.89367E+00 5.34725E+00
 -1      5724 1.12490E+02 3.92520E-01 5.83333E+00
 -1      5725 1.12490E+02 3.92520E-01 4.16667E+00
 -1      5726 3.16964E+01 7.96875E+00 8.45350E+00
 -1      5727 2.96734E+01 7.58167E+00 6.96163E+00
 -1      5728 3.04686E+01 5.86199E+00 8.50813E+00
 -1      5729 3.06301E+01 5.24763E+00 6.06710E+00
 -1      5730-1.70684E+01-1.60812E+01 8.57285E+00
 -1      5731-1.71549E+01-1.43486E+01 6.07285E+00
 -1      5732-1.56001E+01-1.37511E+01 7.50000E+00
 -1      5733-1.41627E+01-1.56436E+01 7.46443E+00
 -1      5734-1.72528E+01-1.58706E+01 1.76648E+00
 -1      5735-1.56001E+01-1.37511E+01 2.50000E+00
 -1      5736-1.73394E+01-1.41379E+01 4.26648E+00
 -1      5737-1.59020E+01-1.60303E+01 4.23091E+00
 -1      5738-1.41627E+01-1.56436E+01 2.46443E+00
 -1      5739-1.76834E+01 7.76073E+00 2.51682E+00
 -1      5740 2.85653E+01 6.49983E+00 1.74323E+00
 -1      5741 3.00569E+01 8.06914E+00 1.56985E+00
 -1      5742 2.96233E+01 5.25607E+00 1.21115E+00
 -1      5743 2.23152E+01-6.52386E+00 7.77260E+00
 -1      5744 7.72437E+00 1.46006E+01 8.37488E+00
 -1      5745 2.23628E+01-2.33807E+00 3.22495E+00
 -1      5746 2.23700E+01 8.02050E+00 9.76911E-01
 -1      5747 2.12773E+01 8.00782E+00 2.38560E+00
 -1      5748 2.17088E+01 8.30307E+00 9.76911E-01
 -1      5749-1.16019E+01 1.74435E+01 2.51465E+00
 -1      5750-1.49436E+01 8.87338E+00 4.30181E+00
 -1      5751-1.49326E+01-6.97824E+00 8.33613E+00
 -1      5752 6.05837E+01-4.17548E+00 4.35681E+00
 -1      5753 1.12244E+02 1.94114E+00 4.16667E+00
 -1      5754 1.12429E+02 1.03035E+00 2.96769E+00
 -1      5755 1.12270E+02 2.28242E+00 2.42688E+00
 -1      5756 1.12085E+02 3.19322E+00 3.62586E+00
 -1      5757 6.00024E+01 4.03911E+00 5.91686E+00
 -1      5758 3.26829E+01-2.84981E+00 1.59369E+00
 -1      5759 4.61990E+01 1.54562E+00 7.55166E+00
 -1      5760 4.48094E+01 3.64664E+00 7.50000E+00
 -1      5761 4.71141E+01 3.79299E+00 7.82793E+00
 -1      5762 2.17643E+01-5.27869E+00 6.42689E+00
 -1      5763 2.10350E+01-6.48966E+00 7.59956E+00
 -1      5764 2.22497E+01-6.82231E+00 6.34609E+00
 -1      5765 3.64996E+00-1.61269E+01 8.45993E+00
 -1      5766 5.17685E+00-1.56689E+01 8.74015E+00
 -1      5767 5.89718E+00-1.82324E+01 7.50000E+00
 -1      5768 8.04483E+01 5.71931E+00 8.59019E+00
 -1      5769 8.05563E+01 3.22473E+00 7.57861E+00
 -1      5770 8.38634E+01-6.00863E+00 1.37667E+00
 -1      5771 8.23587E+01-6.06732E+00 1.11799E+00
 -1      5772 8.35467E+01-3.50014E+00 2.50000E+00
 -1      5773 1.91966E+01 4.41403E+00 1.72097E+00
 -1      5774 2.02045E+01-3.42601E+00 6.55329E+00
 -1      5775 2.11017E+01-2.30702E+00 8.27367E+00
 -1      5776 2.77965E+01 1.18525E+00 1.59136E+00
 -1      5777 2.97758E+01 1.31007E+00 1.85216E+00
 -1      5778 9.00638E-01-2.10488E+01 7.50706E+00
 -1      5779 9.00638E-01-2.10488E+01 2.50706E+00
 -1      5780 8.23744E+01 6.18232E+00 1.11799E+00
 -1      5781 8.20080E+01 3.70625E+00 2.57861E+00
 -1      5782 3.17539E+00-1.88425E+01 7.50706E+00
 -1      5783 1.93793E+01 6.70345E+00 8.41226E+00
 -1      5784 1.98259E+01 6.83732E+00 1.40869E+00
 -1      5785 1.29022E+01-1.83647E+01 5.02076E+00
 -1      5786 3.53211E+01-8.18316E-01 2.44338E+00
 -1      5787 3.51825E+01 1.06747E+00 2.00378E+00
 -1      5788 1.14982E+01 1.19311E+01 8.31585E+00
 -1      5789 1.11934E+02-3.67050E+00 5.81183E+00
 -1      5790 1.12282E+02-2.24763E+00 4.86796E+00
 -1      5791 1.11947E+02-3.61722E+00 3.81848E+00
 -1      5792 1.12294E+02-2.19436E+00 2.87460E+00
 -1      5793 1.08005E+02-9.57750E+00 3.10582E+00
 -1      5794 1.07201E+02-1.01133E+01 4.35582E+00
 -1      5795 5.81094E+01-5.73470E+00 5.98446E+00
 -1      5796 1.12424E+02 8.67627E-01 9.04515E+00
 -1      5797 1.12353E+02 1.89967E+00 7.73562E+00
 -1      5798 1.12500E+02-8.49831E-15 8.33333E+00
 -1      5799 1.12429E+02 1.03204E+00 7.02381E+00
 -1      5800 7.65913E+01-5.14072E+00 3.81058E+00
 -1      5801 1.26961E+01-1.21317E+01 3.92705E+00
 -1      5802 1.07122E+01-1.37546E+01 3.98113E+00
 -1      5803 2.56372E+01-8.07780E+00 7.05135E+00
 -1      5804 2.64544E+01-8.40099E+00 8.62333E+00
 -1      5805 2.77929E+01-7.83971E+00 6.90618E+00
 -1      5806-1.18109E+01 2.02343E+01 1.25000E+00
 -1      5807 1.12198E+02 2.53319E+00 6.53773E+00
 -1      5808 7.11872E+01-7.01893E+00 8.24918E+00
 -1      5809 6.91101E+01-6.23225E+00 8.24918E+00
 -1      5810 6.99379E+01-5.48146E+00 5.81498E+00
 -1      5811 7.17996E+01-4.31065E+00 7.56580E+00
 -1      5812 1.08650E+01-1.24318E+01 8.27376E+00
 -1      5813-8.81973E+00-1.69159E+01 2.49750E+00
 -1      5814-8.89778E+00-1.39318E+01 1.68819E+00
 -1      5815-1.09889E+01-1.56990E+01 2.46443E+00
 -1      5816 8.45983E+01 3.54211E+00 7.58386E+00
 -1      5817 8.20080E+01 3.70625E+00 7.57861E+00
 -1      5818 8.45983E+01 3.54211E+00 2.58386E+00
 -1      5819 9.01760E+00 1.67004E+01 2.50000E+00
 -1      5820 8.87741E+00 1.39228E+01 1.70246E+00
 -1      5821 1.09441E+01 1.55557E+01 2.46227E+00
 -1      5822-1.05132E+00 2.09616E+01 2.50000E+00
 -1      5823 1.12014E+02 3.44229E+00 5.34725E+00
 -1      5824 3.53062E+01 7.60339E+00 3.14971E+00
 -1      5825-1.77949E+01-1.43970E+01 1.76648E+00
 -1      5826 2.11006E+01-8.71695E+00 1.11516E+00
 -1      5827 2.28189E+01 2.87243E-01 8.53044E+00
 -1      5828 2.42918E+01 1.44219E-01 8.67266E+00
 -1      5829 2.51297E+01-5.94393E+00 5.54042E+00
 -1      5830 2.72853E+01-5.70585E+00 5.39524E+00
 -1      5831 3.33573E+01 7.90397E+00 1.12997E+00
 -1      5832-8.81973E+00-1.69159E+01 7.49750E+00
 -1      5833-9.40253E+00-1.35438E+01 8.35614E+00
 -1      5834-1.09889E+01-1.56990E+01 7.46443E+00
 -1      5835 1.08128E+02 9.43237E+00 4.22812E+00
 -1      5836 1.08784E+02 8.68605E+00 2.97812E+00
 -1      5837 1.07386E+02 1.00804E+01 2.97812E+00
 -1      5838-2.02445E+01 1.18224E+01 8.75000E+00
 -1      5839-1.77654E+01 1.09096E+01 7.48751E+00
 -1      5840 8.90477E+01-6.01581E+00 6.51808E+00
 -1      5841 8.99374E+01-7.24867E+00 5.25587E+00
 -1      5842 8.90477E+01-6.01581E+00 4.85141E+00
 -1      5843 1.21544E+01 1.99449E+01 1.30447E+00
 -1      5844 7.46178E+00-1.47188E+01 1.96705E+00
 -1      5845 1.03665E+01-1.58651E+01 2.52076E+00
 -1      5846 2.15857E+01 1.10949E+01 8.33333E+00
 -1      5847 2.09371E+01 1.22503E+01 8.93233E+00
 -1      5848 2.01607E+01 1.01209E+01 5.94123E+00
 -1      5849 1.93287E+01 1.01501E+01 7.60790E+00
 -1      5850 9.58480E+01 1.17677E+01 4.91812E+00
 -1      5851 9.50435E+01 1.14753E+01 3.66898E+00
 -1      5852 9.68424E+01 1.19936E+01 3.66710E+00
 -1      5853-1.09718E+01-1.23610E+01 1.68819E+00
 -1      5854 3.55071E+01-5.30325E+00 2.50845E+00
 -1      5855 3.32232E+01-4.16471E+00 1.59369E+00
 -1      5856-1.09428E+01 1.23772E+01 8.60310E+00
 -1      5857 1.80127E+01-1.36773E+01 5.34168E+00
 -1      5858 1.97338E+01-1.29574E+01 6.27308E+00
 -1      5859-3.64543E+00-1.61070E+01 1.72165E+00
 -1      5860 1.42125E+01-1.74536E+01 1.27584E+00
 -1      5861 1.19754E+01-1.59662E+01 2.52076E+00
 -1      5862 8.71244E+01-5.70199E+00 4.16667E+00
 -1      5863 2.46608E+01-7.41957E+00 8.42802E+00
 -1      5864 2.35174E+01-7.59279E+00 8.84590E+00
 -1      5865 2.39331E+01-8.29545E+00 8.84590E+00
 -1      5866 2.35283E+01-7.19160E+00 7.27392E+00
 -1      5867 2.48750E+01-3.10067E+00 4.51225E+00
 -1      5868 5.14202E+01-6.45232E+00 4.31066E+00
 -1      5869 5.33851E+01-6.37569E+00 5.05984E+00
 -1      5870 2.01265E+01-1.03284E+01 8.39808E+00
 -1      5871 2.07649E+01-1.12332E+01 6.73141E+00
 -1      5872-2.02445E+01 1.18224E+01 1.25000E+00
 -1      5873-1.77654E+01 1.09096E+01 2.48751E+00
 -1      5874 3.89209E+01 6.20648E+00 7.81901E+00
 -1      5875 4.44047E+01-4.95733E+00 7.45094E+00
 -1      5876 4.40200E+01-3.53948E+00 7.45094E+00
 -1      5877-1.76105E+01-1.46076E+01 8.57285E+00
 -1      5878-1.88638E+01-1.29491E+01 8.26835E+00
 -1      5879-1.61422E+01-1.22776E+01 7.50000E+00
 -1      5880 4.06043E+01 1.99508E+00 2.57678E+00
 -1      5881 3.92373E+01 6.90294E-01 7.57678E+00
 -1      5882-1.62177E+01-3.00874E+00 8.42498E+00
 -1      5883 2.00452E+01-8.03372E+00 8.67286E+00
 -1      5884 1.90806E+01-1.43045E+01 7.87501E+00
 -1      5885 1.81823E+01-1.54226E+01 8.79188E+00
 -1      5886 1.67379E+01-1.34678E+01 7.46667E+00
 -1      5887 1.71144E+01-1.47954E+01 6.25855E+00
 -1      5888 3.04118E+01-5.47388E+00 1.61117E+00
 -1      5889 3.16008E+01-4.17076E+00 1.59369E+00
 -1      5890 9.29119E+01-1.02805E+01 7.06096E+00
 -1      5891 9.16423E+01-9.08013E+00 7.41222E+00
 -1      5892 9.08075E+01-8.44092E+00 6.12743E+00
 -1      5893 9.20770E+01-9.64126E+00 5.77617E+00
 -1      5894-2.07758E+01 9.13196E+00 5.01682E+00
 -1      5895 1.41826E+01-1.74788E+01 8.77069E+00
 -1      5896 1.19754E+01-1.59662E+01 7.52076E+00
 -1      5897 8.97905E+01-7.07838E+00 6.96196E+00
 -1      5898-6.66395E+00-1.78252E+01 7.49750E+00
 -1      5899-5.28200E+00-1.56420E+01 8.09037E+00
 -1      5900-4.26056E+00-1.86481E+01 7.50695E+00
 -1      5901 7.01766E+00 2.23498E+01 2.05461E+00
 -1      5902 5.52783E+00 2.27522E+01 1.71994E+00
 -1      5903 5.01805E+00 2.02089E+01 2.50000E+00
 -1      5904 3.59830E+01-7.89995E+00 8.70530E+00
 -1      5905 3.56977E+01-7.65205E+00 6.21375E+00
 -1      5906 2.41467E+01 1.12242E+00 8.67266E+00
 -1      5907 2.45204E+01-3.00157E+00 3.04729E+00
 -1      5908 5.19596E+01 6.23986E+00 5.10757E+00
 -1      5909 5.15993E+01 5.90736E+00 3.35003E+00
 -1      5910 5.03257E+01 3.99505E+00 6.28216E+00
 -1      5911 4.96982E+01 6.64675E+00 4.48127E+00
 -1      5912 2.02036E+01 7.68286E+00 1.40869E+00
 -1      5913 2.29038E+01-8.42641E+00 8.84590E+00
 -1      5914 2.41946E+01-8.13407E+00 6.76135E+00
 -1      5915 2.51828E+01-8.09552E+00 5.92802E+00
 -1      5916 2.34114E+01-9.13613E+00 5.84853E+00
 -1      5917 2.43995E+01-9.09759E+00 5.01520E+00
 -1      5918 8.87999E+01-2.75135E+00 1.55274E+00
 -1      5919 1.98034E+01 7.37747E+00 5.10790E+00
 -1      5920 2.13386E+01 6.23078E+00 6.16640E+00
 -1      5921 2.15992E+01 7.59420E+00 6.25713E+00
 -1      5922 2.00639E+01 8.74089E+00 5.19862E+00
 -1      5923-2.94946E+00-2.23915E+01 5.00695E+00
 -1      5924 4.88665E+01 7.35955E+00 2.48335E+00
 -1      5925 4.87515E+01 5.05550E+00 2.82793E+00
 -1      5926 2.60420E+01-9.18165E+00 1.37667E+00
 -1      5927-1.47794E+01 7.60585E+00 1.81430E+00
 -1      5928-1.62724E+01 9.83988E+00 2.48751E+00
 -1      5929 2.05055E+01-9.88890E+00 5.45726E+00
 -1      5930 2.06414E+01-8.51602E+00 4.63913E+00
 -1      5931 2.25536E+01-9.69275E+00 5.84853E+00
 -1      5932 2.14649E+01-8.15947E+00 6.18807E+00
 -1      5933 1.06954E+02-1.03454E+01 2.64606E+00
 -1      5934 1.06150E+02-1.08813E+01 3.89606E+00
 -1      5935-2.24056E+01-4.53258E+00 1.30244E+00
 -1      5936-2.27557E+01-2.49249E+00 1.55612E+00
 -1      5937-2.25016E+01-2.74698E+00 3.90084E+00
 -1      5938-2.03521E+01-3.06533E+00 2.34472E+00
 -1      5939 2.37395E+01-2.30670E+00 4.07596E+00
 -1      5940 2.04466E+01-6.89410E-01 5.77367E+00
 -1      5941 5.19276E+01 6.24111E+00 6.84920E+00
 -1      5942 5.30968E+01 6.19550E+00 5.95423E+00
 -1      5943 4.78135E+01-6.74123E+00 4.95094E+00
 -1      5944 4.62414E+01-6.80255E+00 5.89113E+00
 -1      5945 2.77835E+01-8.25870E-02 8.40570E+00
 -1      5946 3.47958E+01-3.24236E+00 7.44338E+00
 -1      5947 3.32126E+01-5.30592E+00 8.01330E+00
 -1      5948 1.65551E+01 1.57463E+01 6.27016E+00
 -1      5949 1.12283E+02-2.23749E+00 6.70469E+00
 -1      5950 6.52658E+01 3.42430E+00 8.16597E+00
 -1      5951 1.84590E+01-1.27479E+01 8.39808E+00
 -1      5952 1.59339E+00-2.25688E+01 3.75706E+00
 -1      5953 1.59339E+00-2.25688E+01 6.25706E+00
 -1      5954 7.09533E+01-7.02805E+00 1.51713E+00
 -1      5955 7.17996E+01-4.31065E+00 2.56580E+00
 -1      5956-9.30891E+00 1.36210E+01 1.83832E+00
 -1      5957 6.44544E+01-1.33706E+00 7.63584E+00
 -1      5958 2.45993E+01-9.23791E+00 8.33333E+00
 -1      5959 2.34668E+01-9.00994E+00 7.17923E+00
 -1      5960 1.59243E+01-4.07253E+00 1.20490E+00
 -1      5961 2.06682E+01 9.39431E+00 9.02927E+00
 -1      5962 2.15535E+01 9.07664E+00 9.02927E+00
 -1      5963 1.61759E+01 2.86391E+00 1.72024E+00
 -1      5964 1.67490E+01 3.62547E+00 3.44121E+00
 -1      5965 1.08089E+02-9.49489E+00 1.25000E+00
 -1      5966 1.09430E+02-8.17303E+00 1.25000E+00
 -1      5967 6.01903E+01 2.29699E+00 1.69239E+00
 -1      5968 1.08089E+02-9.49489E+00 8.75000E+00
 -1      5969 1.09430E+02-8.17303E+00 8.75000E+00
 -1      5970 2.74622E+01-7.66890E+00 4.61240E+00
 -1      5971 2.87443E+01-7.80261E+00 5.78284E+00
 -1      5972 2.94049E+01-7.92662E+00 4.11117E+00
 -1      5973 2.92280E+01-5.96357E+00 4.89401E+00
 -1      5974 1.62148E+01-2.65583E+00 7.91939E+00
 -1      5975 1.84520E+01-3.68283E+00 8.27962E+00
 -1      5976 1.64228E+01-1.93461E+00 6.36269E+00
 -1      5977 1.86600E+01-2.96161E+00 6.72292E+00
 -1      5978 1.78556E+01-2.04273E+00 8.44331E+00
 -1      5979 2.15857E+01-1.10949E+01 8.33333E+00
 -1      5980 1.05313E+02-1.12973E+01 2.69708E+00
 -1      5981 1.04718E+02-1.15190E+01 3.89606E+00
 -1      5982 1.11724E+02-4.20297E+00 7.00231E+00
 -1      5983 2.35793E+01 4.70652E+00 8.94178E+00
 -1      5984 2.50750E+01 5.11651E+00 8.94178E+00
 -1      5985 2.41350E+01 5.64557E+00 8.94178E+00
 -1      5986 6.00044E+01-2.59935E+00 8.48446E+00
 -1      5987 6.05072E+01-1.18943E+00 8.33333E+00
 -1      5988 6.26754E+01-3.35188E+00 7.42628E+00
 -1      5989 9.10769E+01 8.75117E+00 3.90421E+00
 -1      5990 9.00089E+01 7.32474E+00 3.06955E+00
 -1      5991 9.07719E+01 8.41126E+00 2.47291E+00
 -1      5992 2.38796E+01 3.36199E+00 8.09408E+00
 -1      5993 2.23745E+01 3.66406E+00 8.48828E+00
 -1      5994 1.80552E+01 6.90357E+00 8.41226E+00
 -1      5995 1.92539E+01 4.93977E+00 8.41226E+00
 -1      5996 1.07914E+02 1.09981E+01 8.75000E+00
 -1      5997 1.09313E+02 9.60374E+00 8.75000E+00
 -1      5998 1.07301E+02 8.11856E+00 8.25061E+00
 -1      5999 1.09885E+02 7.65127E+00 7.00061E+00
 -1      6000 1.08486E+02 9.04566E+00 7.00062E+00
 -1      6001 3.36754E+01-7.22399E+00 2.14974E+00
 -1      6002 3.29171E+01-8.44969E+00 2.14974E+00
 -1      6003 3.42897E+01-8.39615E+00 1.44458E+00
 -1      6004 3.50480E+01-7.17045E+00 1.44458E+00
 -1      6005 9.01607E+01 7.52874E+00 5.15266E+00
 -1      6006 1.12426E+02-1.04997E+00 6.72619E+00
 -1      6007 5.93045E+01-6.26117E+00 3.41089E+00
 -1      6008 5.92404E+01-4.69665E+00 1.93053E+00
 -1      6009 5.95091E+01-7.39706E+00 1.48036E+00
 -1      6010 5.73475E+01-5.16194E+00 1.93053E+00
 -1      6011-1.52150E+01 1.66367E+01 5.01465E+00
 -1      6012 1.05357E+02-1.12731E+01 6.73423E+00
 -1      6013 1.03693E+02-1.18496E+01 7.43798E+00
 -1      6014 1.03095E+02-1.20720E+01 6.24750E+00
 -1      6015 1.04760E+02-1.14956E+01 5.54376E+00
 -1      6016 2.05969E+01-7.16446E+00 8.67286E+00
 -1      6017 1.06172E+02 9.17272E+00 8.56497E+00
 -1      6018 1.07357E+02 1.00998E+01 7.31498E+00
 -1      6019 2.11300E+01 6.43807E+00 3.90869E+00
 -1      6020 2.11094E+00-2.27862E+01 8.75000E+00
 -1      6021 2.11094E+00-2.27862E+01 1.25000E+00
 -1      6022 5.73195E+01 6.51284E+00 4.47433E+00
 -1      6023 8.87213E+01-2.27178E+00 8.26198E+00
 -1      6024 4.26977E+00 1.84571E+01 2.50000E+00
 -1      6025-1.65687E+01 1.38156E+00 8.35704E+00
 -1      6026 4.35493E+01 7.54048E+00 1.55980E+00
 -1      6027 1.96675E+01-7.18818E+00 8.67286E+00
 -1      6028 9.68218E+01 1.05238E+01 2.41624E+00
 -1      6029 9.76576E+01 1.33494E+01 1.25086E+00
 -1      6030 9.58587E+01 1.28311E+01 1.25274E+00
 -1      6031 2.06841E+01 9.30488E+00 9.76911E-01
 -1      6032 2.22077E+01 9.89196E+00 2.64358E+00
 -1      6033 2.13757E+01 9.92119E+00 9.76911E-01
 -1      6034 2.36092E+01 7.99505E+00 1.41641E+00
 -1      6035 2.34768E+01 7.26373E+00 1.41641E+00
 -1      6036 1.12425E+02-1.06011E+00 3.22279E+00
 -1      6037 9.07041E+01 6.13470E+00 8.97985E+00
 -1      6038 8.90766E+01 8.11612E+00 8.93114E+00
 -1      6039 8.83136E+01 7.02961E+00 8.33333E+00
 -1      6040 3.66605E+01-7.87352E+00 1.44458E+00
 -1      6041 3.63752E+01-7.62562E+00 3.95304E+00
 -1      6042 8.71939E+01-5.45463E+00 1.66667E+00
 -1      6043 8.91288E+01-6.16877E+00 3.14053E+00
 -1      6044 8.93130E+01-4.12340E+00 1.47387E+00
 -1      6045 8.92436E+01-4.37077E+00 3.97387E+00
 -1      6046 2.23841E+01 7.25105E+00 2.82511E+00
 -1      6047 3.78971E+01 2.08015E+00 2.57678E+00
 -1      6048 3.65294E+01 4.19548E+00 2.01974E+00
 -1      6049 5.46635E+01 6.61644E+00 4.45769E+00
 -1      6050 5.46036E+01 6.62224E+00 6.29373E+00
 -1      6051 1.71738E+01-1.57028E+01 1.34040E+00
 -1      6052 1.58273E+01-1.70335E+01 1.27584E+00
 -1      6053 1.55742E+01-1.39232E+01 2.46667E+00
 -1      6054 3.19422E+01-2.03683E+00 5.13465E+00
 -1      6055 4.26360E+01 6.68595E+00 6.44333E+00
 -1      6056 4.07555E+01 7.58837E+00 6.76235E+00
 -1      6057-5.66233E+00-2.27300E+01 8.75000E+00
 -1      6058-4.76899E+00-2.04725E+01 7.50695E+00
 -1      6059-5.66233E+00-2.27300E+01 1.25000E+00
 -1      6060-4.76899E+00-2.04725E+01 2.50695E+00
 -1      6061 1.10865E+02 5.95358E+00 7.00061E+00
 -1      6062 1.10430E+02 6.83534E+00 5.75061E+00
 -1      6063 9.43962E+01-1.11421E+01 7.58810E+00
 -1      6064 9.61278E+01-1.17976E+01 7.56610E+00
 -1      6065 9.78332E+01-1.08577E+01 8.61302E+00
 -1      6066 9.57085E+01-1.28091E+01 8.95308E+00
 -1      6067 9.61015E+01-1.02022E+01 8.63501E+00
 -1      6068 1.89819E+01-9.30183E+00 2.12393E+00
 -1      6069 2.23214E+01 6.27011E+00 7.60818E+00
 -1      6070 1.11226E+02-5.46537E+00 2.91493E+00
 -1      6071 7.31521E+01-6.94229E+00 2.50000E+00
 -1      6072 7.19028E+01-5.40482E+00 5.06580E+00
 -1      6073-1.45003E+01-1.22357E+01 7.50000E+00
 -1      6074-1.14766E+01-1.19729E+01 8.35614E+00
 -1      6075-1.30630E+01-1.41281E+01 7.46443E+00
 -1      6076 5.73396E+01-6.33781E+00 2.98719E+00
 -1      6077 5.75442E+01-7.47369E+00 1.05667E+00
 -1      6078 1.01670E+02-1.23858E+01 7.14036E+00
 -1      6079 3.50262E+00 1.61529E+01 8.52376E+00
 -1      6080 5.88134E+00 1.90430E+01 2.50000E+00
 -1      6081 4.96662E+01 6.64799E+00 6.22290E+00
 -1      6082 1.98665E+01-2.62642E+00 5.29503E+00
 -1      6083-1.59079E+01 1.72187E+01 1.25000E+00
 -1      6084-1.59079E+01 1.72187E+01 8.75000E+00
 -1      6085-1.93647E+01 1.12111E+01 4.98751E+00
 -1      6086 4.34864E+01 7.54293E+00 8.40821E+00
 -1      6087 4.27962E+01 5.02508E+00 7.50000E+00
 -1      6088 1.02809E+02-1.21087E+01 4.39051E+00
 -1      6089 2.60564E+01-7.72373E+00 4.61240E+00
 -1      6090 5.65565E+01-6.54657E+00 7.38064E+00
 -1      6091 5.65565E+01-6.54657E+00 5.93730E+00
 -1      6092 1.09484E+02 8.10376E+00 1.25000E+00
 -1      6093 1.08085E+02 9.49815E+00 1.25001E+00
 -1      6094 2.06879E+01-5.63803E+00 1.42469E+00
 -1      6095 1.04212E+02 1.17578E+01 4.09616E+00
 -1      6096 1.05600E+02 1.10898E+01 2.97815E+00
 -1      6097 1.03943E+02 1.18310E+01 2.32184E+00
 -1      6098 2.20017E+01 4.67766E+00 8.48828E+00
 -1      6099 2.18592E+01 6.33279E+00 8.66640E+00
 -1      6100 2.32065E+01 5.72012E+00 8.94178E+00
 -1      6101 7.91311E+01-9.99265E-01 7.50000E+00
 -1      6102 2.17997E+01 2.87243E-01 8.53044E+00
 -1      6103 2.04697E+01 2.81352E-01 8.53044E+00
 -1      6104 2.14768E+01-8.94624E-01 8.53044E+00
 -1      6105 1.11770E+02 4.12261E+00 2.37586E+00
 -1      6106 9.51279E+01-1.15102E+01 6.23136E+00
 -1      6107-7.42099E+00-1.47396E+01 1.38766E+00
 -1      6108 1.01384E+02-1.24225E+01 5.28336E+00
 -1      6109 1.11059E+02 7.85025E+00 8.75000E+00
 -1      6110 1.12040E+02 6.15256E+00 8.75000E+00
 -1      6111 1.09047E+02 6.36508E+00 8.25061E+00
 -1      6112-1.39471E+01 8.92551E+00 8.16690E+00
 -1      6113 1.78726E+01 1.43748E+01 6.34958E+00
 -1      6114 6.78818E+01 6.18000E+00 6.73344E+00
 -1      6115 8.13019E+01 5.23225E+00 5.07861E+00
 -1      6116 1.10181E+02 7.22980E+00 2.61333E+00
 -1      6117 8.83140E+01-7.02659E+00 1.66667E+00
 -1      6118 9.04332E+01-5.69536E+00 1.47387E+00
 -1      6119 4.19773E+01 7.60180E+00 8.94333E+00
 -1      6120 4.09157E+01 5.92750E+00 7.81901E+00
 -1      6121-2.08721E+01 7.17355E-01 2.54082E+00
 -1      6122-2.10073E+01-1.64279E+00 2.34472E+00
 -1      6123 9.27429E+01 1.00634E+01 3.90838E+00
 -1      6124 9.19005E+01 9.49559E+00 2.58503E+00
 -1      6125 7.16720E+01-2.95393E+00 7.56580E+00
 -1      6126 1.06193E+02-1.08579E+01 5.54376E+00
 -1      6127 8.71244E+01-5.70199E+00 5.83333E+00
 -1      6128 2.27451E+01-8.19367E+00 6.36110E+00
 -1      6129-2.23760E+01 1.67107E+00 3.79082E+00
 -1      6130-2.24076E+01 1.09474E+00 5.04082E+00
 -1      6131 5.35263E+01 6.66079E+00 3.61103E+00
 -1      6132 5.56921E+01 6.57632E+00 3.44940E+00
 -1      6133-1.57190E+01-1.73779E+01 8.69048E+00
 -1      6134 1.11698E+02 4.37169E+00 6.59725E+00
 -1      6135 1.11263E+02 5.25345E+00 5.34725E+00
 -1      6136 1.52944E+01-6.10459E+00 8.16394E+00
 -1      6137 1.59092E+01-4.16399E+00 7.91939E+00
 -1      6138 1.81463E+01-5.19100E+00 8.27962E+00
 -1      6139 1.89443E+01 5.33217E+00 1.72097E+00
 -1      6140 2.12178E+01 2.93278E+00 8.48828E+00
 -1      6141 2.15397E+01 1.43376E+00 8.53044E+00
 -1      6142 2.46685E+01 7.86563E+00 1.41641E+00
 -1      6143 3.41144E+01 5.29285E+00 2.55897E+00
 -1      6144 3.33194E+01 4.09145E+00 2.55897E+00
 -1      6145 9.75328E+01-1.07948E+01 1.06071E+00
 -1      6146 9.91982E+01-1.09104E+01 1.89051E+00
 -1      6147 9.74585E+01-1.22345E+01 2.35405E+00
 -1      6148 9.91239E+01-1.23501E+01 3.18384E+00
 -1      6149 9.73395E+01-1.33089E+01 1.29333E+00
 -1      6150-7.43779E+00-1.47327E+01 8.09037E+00
 -1      6151 2.76576E+01-8.09400E+00 8.62333E+00
 -1      6152 2.86524E+01-8.74527E+00 8.62333E+00
 -1      6153 2.94269E+01-6.74511E+00 8.28284E+00
 -1      6154 2.84322E+01-6.09384E+00 8.28284E+00
 -1      6155 3.55071E+01-5.30325E+00 7.50845E+00
 -1      6156 3.45398E+01-5.76109E+00 5.52175E+00
 -1      6157 1.11736E+02-4.15126E+00 2.61950E+00
 -1      6158 2.82909E+00 1.62339E+01 1.85623E+00
 -1      6159 9.13129E+01 6.85435E+00 1.40288E+00
 -1      6160 8.83136E+01 7.02961E+00 1.66667E+00
 -1      6161 8.90766E+01 8.11612E+00 1.07003E+00
 -1      6162 2.13905E+01 7.80149E+00 3.99942E+00
 -1      6163 3.27081E+01-7.68183E+00 5.16304E+00
 -1      6164 3.34031E+01-7.65473E+00 6.71860E+00
 -1      6165 3.50026E+01-7.67916E+00 4.65820E+00
 -1      6166 9.07121E+01-8.34810E+00 8.77721E+00
 -1      6167 8.90569E+01-8.08916E+00 8.77721E+00
 -1      6168 9.03521E+01-5.54240E+00 8.18475E+00
 -1      6169 2.66049E+01 8.40871E+00 1.37667E+00
 -1      6170 2.60721E+01 9.18319E+00 1.37667E+00
 -1      6171 2.56148E+01 8.52231E+00 2.79308E+00
 -1      6172 2.35701E+01-9.36888E+00 1.66667E+00
 -1      6173 2.37645E+01-8.24952E+00 3.05627E+00
 -1      6174 2.25967E+01-9.06508E+00 2.78183E+00
 -1      6175-2.34109E+01-1.06995E+00 1.55612E+00
 -1      6176 9.86447E+01 1.24058E+01 7.30133E+00
 -1      6177 9.94047E+01 1.24855E+01 6.05095E+00
 -1      6178 9.76503E+01 1.21799E+01 6.05235E+00
 -1      6179 2.45993E+01-9.23791E+00 1.66667E+00
 -1      6180 5.06526E+01 4.31611E+00 1.69669E+00
 -1      6181 1.01522E+02 1.22956E+01 4.14455E+00
 -1      6182 1.00626E+02 1.24504E+01 2.89469E+00
 -1      6183 1.02901E+02 1.21587E+01 3.57191E+00
 -1      6184 1.02005E+02 1.23135E+01 2.32205E+00
 -1      6185 5.53747E+01-6.41444E+00 3.41089E+00
 -1      6186 5.55793E+01-7.55033E+00 1.48036E+00
 -1      6187-7.78733E+00-2.11037E+01 4.99750E+00
 -1      6188 2.66049E+01 8.40871E+00 8.62333E+00
 -1      6189 2.73185E+01 6.22623E+00 8.50813E+00
 -1      6190 6.79776E+01 4.50215E+00 8.16597E+00
 -1      6191 1.05149E+02 1.13090E+01 5.34614E+00
 -1      6192 1.06537E+02 1.06409E+01 4.22814E+00
 -1      6193 2.74210E+01 8.19668E+00 3.11990E+00
 -1      6194 5.65644E+01-5.37070E+00 8.43730E+00
 -1      6195 9.46176E+01-1.12646E+01 2.11620E+00
 -1      6196 9.51709E+01-1.15288E+01 3.25969E+00
 -1      6197 9.58704E+01-1.17533E+01 2.04213E+00
 -1      6198 2.31045E+01 7.96151E+00 2.39333E+00
 -1      6199 1.54404E+01 5.77665E+00 8.19338E+00
 -1      6200 1.79723E+01 5.55942E+00 8.41226E+00
 -1      6201 1.70186E+01-1.58780E+01 8.79188E+00
 -1      6202 5.33851E+01-6.37569E+00 3.29102E+00
 -1      6203 5.14202E+01-6.45232E+00 2.86733E+00
 -1      6204 5.03853E+01 7.30031E+00 1.65334E+00
 -1      6205 1.10886E+02 2.37907E+00 9.04515E+00
 -1      6206 1.13390E+02 2.54349E+00 8.69048E+00
 -1      6207 1.10731E+02 3.01260E+00 7.84725E+00
 -1      6208 1.09880E+02 4.78318E+00 7.84725E+00
 -1      6209 3.22559E+01-4.62255E+00 4.60699E+00
 -1      6210 2.15693E+01 8.98721E+00 9.76911E-01
 -1      6211 2.20450E+01 9.39007E+00 9.76911E-01
 -1      6212 1.06509E+02 1.06603E+01 6.06499E+00
 -1      6213 1.05572E+02 1.11092E+01 7.31500E+00
 -1      6214 1.04212E+02 1.17578E+01 6.59616E+00
 -1      6215-1.37902E+00 1.65324E+01 1.42872E+00
 -1      6216-2.12581E+00 1.74228E+01 3.92872E+00
 -1      6217 1.60685E+01 1.68234E+01 8.74370E+00
 -1      6218 1.41679E+01 1.52368E+01 7.46227E+00
 -1      6219 1.59650E+01 1.39286E+01 7.52646E+00
 -1      6220 1.07806E+00-1.64824E+01 8.45993E+00
 -1      6221 4.27694E+01 3.34108E+00 2.50000E+00
 -1      6222 1.96082E+01-1.78591E+00 6.71697E+00
 -1      6223 8.35467E+01-3.50014E+00 7.50000E+00
 -1      6224 9.67590E+01-1.20100E+01 3.57161E+00
 -1      6225 2.09070E+01-9.65093E+00 1.11516E+00
 -1      6226 2.02154E+01-9.03462E+00 1.11516E+00
 -1      6227 6.53881E+01 6.97647E+00 8.94333E+00
 -1      6228 6.38169E+01 5.00617E+00 7.69414E+00
 -1      6229 6.38245E+01 6.37271E+00 6.63747E+00
 -1      6230 6.59169E+01 6.25664E+00 7.10930E+00
 -1      6231 6.59093E+01 4.89010E+00 8.16597E+00
 -1      6232 8.91625E+01-4.21781E+00 5.68475E+00
 -1      6233 1.94631E+01 1.37357E+01 8.93233E+00
 -1      6234 1.71286E+01 1.34732E+01 7.52646E+00
 -1      6235 9.37650E+00-1.35331E+01 1.46038E+00
 -1      6236 1.13361E+02-2.34308E+00 8.39286E+00
 -1      6237 1.10935E+02-1.29311E+00 8.33333E+00
 -1      6238 1.09228E+02 8.39759E+00 5.75061E+00
 -1      6239 1.25084E+01 1.08442E+01 1.79695E+00
 -1      6240 1.08985E+01 1.24080E+01 1.70246E+00
 -1      6241 1.29651E+01 1.40408E+01 2.46227E+00
 -1      6242 6.02457E+01 3.72963E+00 8.66977E+00
 -1      6243 6.17775E+01 4.90683E+00 7.69414E+00
 -1      6244 1.03170E+02 1.20855E+01 5.34623E+00
 -1      6245-1.39685E+01 8.89819E+00 1.45550E+00
 -1      6246 6.38161E+01 7.03779E+00 8.44020E+00
 -1      6247 6.22525E+01 6.43402E+00 6.13434E+00
 -1      6248 9.93992E+01 1.24853E+01 4.14492E+00
 -1      6249-1.25968E+01 1.08167E+01 1.45550E+00
 -1      6250 1.06201E+02 9.15334E+00 1.72812E+00
 -1      6251 1.07914E+02 1.09981E+01 1.25001E+00
 -1      6252 1.06129E+02 1.20075E+01 8.75003E+00
 -1      6253-3.07098E+00-1.61789E+01 8.47897E+00
 -1      6254 1.26793E+01-1.06099E+01 1.47516E+00
 -1      6255 1.13976E+01-1.20183E+01 1.46038E+00
 -1      6256 1.43715E+01-1.27272E+01 2.46667E+00
 -1      6257-1.37320E+01-9.12416E+00 1.40510E+00
 -1      6258 6.17768E+01 6.93845E+00 8.44020E+00
 -1      6259 2.09240E+01 8.39332E+00 9.76911E-01
 -1      6260 2.05055E+01-9.88890E+00 3.79060E+00
 -1      6261 2.07649E+01-1.12332E+01 5.06474E+00
 -1      6262 3.59019E+01 2.43898E+00 2.00378E+00
 -1      6263 3.57619E+01 3.89143E+00 4.02352E+00
 -1      6264 1.86370E+01 9.53382E+00 7.60790E+00
 -1      6265 1.59420E+01 3.95622E+00 8.31894E+00
 -1      6266-2.27633E+01 2.41531E+00 1.25000E+00
 -1      6267-2.34205E+01 9.87945E-01 1.25000E+00
 -1      6268 1.11059E+02 7.85025E+00 1.25000E+00
 -1      6269 1.09343E+02 5.94361E+00 1.36333E+00
 -1      6270 2.00946E+01-1.13104E+00 8.27367E+00
 -1      6271-1.07819E+00 2.34147E+01 1.25000E+00
 -1      6272 9.42480E+01-9.55177E+00 8.63501E+00
 -1      6273 9.38549E+01-1.21587E+01 8.95308E+00
 -1      6274 1.06996E+02-1.03221E+01 6.79376E+00
 -1      6275 9.95869E+01-1.33828E+01 1.55612E+00
 -1      6276 1.01371E+02-1.24240E+01 3.44663E+00
 -1      6277 2.18826E+01 8.19787E-01 1.64346E+00
 -1      6278 2.14104E+01-6.34732E-01 1.65561E+00
 -1      6279 3.01086E+01 3.24099E+00 4.65097E+00
 -1      6280 3.43705E+01-7.19688E+00 8.70530E+00
 -1      6281 1.10727E+02 6.41388E+00 3.86333E+00
 -1      6282 1.11162E+02 5.53211E+00 2.61333E+00
 -1      6283 5.82541E+01 7.42621E+00 2.51665E+00
 -1      6284 4.96399E+01 3.16788E+00 7.82793E+00
 -1      6285-1.14085E+01 1.20283E+01 1.83832E+00
 -1      6286 5.65951E+01 5.34921E+00 8.79373E+00
 -1      6287 5.66164E+01 7.49009E+00 8.50246E+00
 -1      6288 5.56219E+01 6.58252E+00 7.29619E+00
 -1      6289 5.66973E+01 6.19961E+00 6.72517E+00
 -1      6290 3.06881E+01 3.02845E+00 8.43982E+00
 -1      6291 3.71951E+01-7.59364E+00 5.08449E+00
 -1      6292 2.60721E+01 9.18319E+00 8.62333E+00
 -1      6293 2.86381E+01 4.85501E+00 8.50813E+00
 -1      6294 2.97720E+01 4.55790E+00 8.50813E+00
 -1      6295 2.93616E+01 3.94546E+00 6.94794E+00
 -1      6296 2.95542E+01 3.32556E+00 8.43982E+00
 -1      6297 3.06314E+01-8.66808E+00 8.59019E+00
 -1      6298 2.97719E+01-7.76252E+00 6.87304E+00
 -1      6299 9.12621E+01 8.92335E+00 5.84355E+00
 -1      6300 4.59707E+01-5.51319E+00 7.45094E+00
 -1      6301 2.60420E+01-9.18165E+00 8.62333E+00
 -1      6302 2.18582E+01 7.10275E+00 8.66640E+00
 -1      6303 2.04553E+01-8.12305E+00 1.11516E+00
 -1      6304 1.09484E+02 8.10376E+00 8.75000E+00
 -1      6305 9.29281E+01 1.02356E+01 5.84772E+00
 -1      6306-2.34205E+01 9.87945E-01 8.75000E+00
 -1      6307 1.04276E+02 1.29335E+01 8.75003E+00
 -1      6308 1.04319E+02 1.00988E+01 8.56497E+00
 -1      6309-3.50533E+00 1.61287E+01 1.42872E+00
 -1      6310 1.59807E+01-1.21485E+01 7.46667E+00
 -1      6311 1.77018E+01-1.14285E+01 8.39808E+00
 -1      6312 9.37295E+01 1.06382E+01 7.09496E+00
 -1      6313 9.50435E+01 1.14753E+01 6.16898E+00
 -1      6314 9.42421E+01 1.10727E+01 4.92174E+00
 -1      6315-1.28197E+01-1.05009E+01 8.33110E+00
 -1      6316 1.02273E+02 1.22403E+01 6.59637E+00
 -1      6317 7.07262E+00 1.48723E+01 1.74289E+00
 -1      6318 1.00778E+02-1.24391E+01 8.74750E+00
 -1      6319 1.02074E+02-1.33865E+01 8.39286E+00
 -1      6320 1.01959E+02-1.08789E+01 8.74750E+00
 -1      6321 5.18284E+01-5.98272E+00 8.35094E+00
 -1      6322 5.39229E+01-6.57404E+00 8.24918E+00
 -1      6323 4.87515E+01 5.05550E+00 7.82793E+00
 -1      6324 4.78881E+01 6.71735E+00 7.82793E+00
 -1      6325 9.09543E+01-8.61122E+00 4.42135E+00
 -1      6326 1.06129E+02 1.20075E+01 1.25003E+00
 -1      6327 1.38713E+01-1.05726E+01 7.95736E+00
 -1      6328 3.12658E+01-6.70722E+00 8.01330E+00
 -1      6329 1.02959E+02 1.07474E+01 7.84612E+00
 -1      6330 1.04096E+02-1.28502E+01 8.69048E+00
 -1      6331 9.57514E+01-1.28277E+01 9.81414E-01
 -1      6332 9.20857E+01 9.66776E+00 7.16326E+00
 -1      6333 1.12890E+02 4.38198E+00 8.75000E+00
 -1      6334 8.83140E+01-7.02659E+00 8.33333E+00
 -1      6335 5.45916E+01-6.62321E+00 6.68648E+00
 -1      6336 5.73396E+01-6.33781E+00 4.43053E+00
 -1      6337 1.73861E+01 1.54520E+01 8.82312E+00
 -1      6338 9.84509E+01-1.23926E+01 6.11302E+00
 -1      6339 1.00102E+02-1.24087E+01 6.24750E+00
 -1      6340 9.98159E+01-1.24453E+01 4.39051E+00
 -1      6341 5.27536E+01 6.61965E+00 8.39497E+00
 -1      6342 5.34343E+01 6.66784E+00 7.18871E+00
 -1      6343 9.86392E+01 1.24056E+01 2.89530E+00
 -1      6344 9.86186E+01 1.09358E+01 1.64444E+00
 -1      6345 2.32055E+01 6.49008E+00 8.94178E+00
 -1      6346 1.60685E+01 1.68234E+01 1.26685E+00
 -1      6347 1.12040E+02 6.15256E+00 1.25000E+00
 -1      6348 3.13202E+01-8.51197E+00 1.14072E+00
 -1      6349 3.01318E+01-8.68757E+00 1.14072E+00
 -1      6350 2.99329E+01-7.90602E+00 2.75188E+00
 -1      6351 3.00875E+01-6.86912E+00 1.61117E+00
 -1      6352 3.12759E+01-6.69353E+00 1.61117E+00
 -1      6353 1.44537E+01 1.72435E+01 8.74370E+00
 -1      6354 1.25530E+01 1.56569E+01 7.46227E+00
 -1      6355 3.02428E+01 6.96132E-01 8.54097E+00
 -1      6356 1.63238E+01 1.38197E+00 8.33333E+00
 -1      6357 1.65318E+01-6.60753E-01 8.44331E+00
 -1      6358-1.57205E+01-1.73767E+01 1.30102E+00
 -1      6359 9.96444E+01 1.33942E+01 1.25024E+00
 -1      6360 5.27856E+01 6.61840E+00 1.65334E+00
 -1      6361 3.15297E+01-7.84374E+00 3.76091E+00
 -1      6362-2.11986E+01 1.08325E+01 8.75000E+00
 -1      6363-2.11986E+01 1.08325E+01 1.25000E+00
 -1      6364 1.00880E+02-1.24482E+01 1.55612E+00
 -1      6365 2.31532E+01-2.59712E+00 1.56935E+00
 -1      6366 2.24348E+01-1.52851E+00 1.65561E+00
 -1      6367 9.26304E+01-1.14824E+01 1.46141E+00
 -1      6368 9.22416E+01-9.73369E+00 1.46141E+00
 -1      6369 2.46294E+01 9.23946E+00 8.33333E+00
 -1      6370 2.48231E+01 8.31070E+00 6.37093E+00
 -1      6371 1.13359E+02-2.35322E+00 1.55612E+00
 -1      6372 1.10804E+02-2.42735E+00 1.31848E+00
 -1      6373 1.12801E+02-4.31012E+00 1.30102E+00
 -1      6374 1.02337E+02 1.34159E+01 8.75025E+00
 -1      6375 9.77610E+01-1.22978E+01 7.29581E+00
 -1      6376 9.73416E+01-1.33093E+01 8.68279E+00
 -1      6377 3.16108E+01-7.72463E+00 6.60349E+00
 -1      6378 1.99330E+01-1.12624E+01 8.39808E+00
 -1      6379 1.92413E+01-1.06461E+01 8.39808E+00
 -1      6380 1.05589E+02-9.64690E+00 8.04376E+00
 -1      6381 1.07700E+02-1.12436E+01 8.75000E+00
 -1      6382-1.07819E+00 2.34147E+01 8.75000E+00
 -1      6383 4.82829E+00 1.58053E+01 1.74289E+00
 -1      6384 2.20951E+01 8.60138E+00 6.62000E+00
 -1      6385 8.71939E+01-5.45463E+00 8.33333E+00
 -1      6386 8.92319E+01-3.97044E+00 8.18475E+00
 -1      6387 3.05832E+01-7.76471E+00 5.51330E+00
 -1      6388 3.10669E+01-5.92567E+00 4.62447E+00
 -1      6389 1.10935E+02-1.29311E+00 1.66667E+00
 -1      6390 1.12500E+02-8.49831E-15 1.66667E+00
 -1      6391 1.12890E+02 4.38198E+00 1.25000E+00
 -1      6392 1.10802E+02 2.76352E+00 1.12586E+00
 -1      6393 1.13390E+02 2.54180E+00 1.30102E+00
 -1      6394 1.10792E+02-2.48063E+00 8.31183E+00
 -1      6395 1.90016E+01 5.85792E+00 8.41226E+00
 -1      6396 1.02337E+02 1.34159E+01 1.25024E+00
 -1      6397 1.02690E+02 1.08206E+01 1.07180E+00
 -1      6398 1.04276E+02 1.29335E+01 1.25003E+00
 -1      6399 3.01041E+01 8.06730E+00 8.45350E+00
 -1      6400 2.88763E+01 5.96054E+00 8.50813E+00
 -1      6401 1.06598E+02-8.90234E+00 1.85582E+00
 -1      6402 1.07700E+02-1.12436E+01 1.25000E+00
 -1      6403 9.23706E+01-1.12971E+01 8.42594E+00
 -1      6404 3.36121E+01-8.42258E+00 8.70530E+00
 -1      6405 3.24543E+01-6.53162E+00 8.01330E+00
 -1      6406 2.13599E+01 1.00106E+01 9.02927E+00
 -1      6407 6.41636E+01-3.68367E+00 7.42628E+00
 -1      6408 1.12802E+02-4.30856E+00 8.69048E+00
 -1      6409 9.44264E+01-9.65572E+00 1.13479E+00
 -1      6410 9.33502E+01-1.05697E+01 2.59619E+00
 -1      6411 9.38978E+01-1.21773E+01 9.81414E-01
 -1      6412 2.46294E+01 9.23946E+00 1.66667E+00
 -1      6413 2.41722E+01 8.57858E+00 3.08308E+00
 -1      6414 5.39229E+01-6.57404E+00 1.48036E+00
 -1      6415 2.91370E+01-8.03630E+00 1.14072E+00
 -1      6416 2.18749E+01-8.24881E+00 3.63036E+00
 -1      6417 7.31521E+01-6.94229E+00 8.94333E+00
 -1      6418 6.85362E-01-2.34420E+01 1.25000E+00
 -1      6419 6.85362E-01-2.34420E+01 8.75000E+00
 -1      6420 6.68994E+01 6.21832E+00 8.16597E+00
 -1      6421 1.05547E+02-9.67028E+00 1.39606E+00
 -1      6422 9.23369E+01-9.82651E+00 3.81163E+00
 -1      6423 9.39035E+01-1.08338E+01 3.73969E+00
 -1      6424 1.01673E+02-1.09156E+01 1.89051E+00
 -1      6425 1.02061E+02-1.33880E+01 1.55612E+00
 -1      6426 5.49412E+01 6.53433E+00 8.50246E+00
 -1      6427-5.38394E+00-2.19266E+01 5.00695E+00
 -1      6428 2.30167E+01 1.79799E+00 1.64346E+00
 -1      6429 5.56818E+01 6.57672E+00 5.46014E+00
 -1      6430 2.23209E+01 9.68563E+00 5.92406E+00
 -1      6431 2.23209E+01 9.68563E+00 4.25740E+00
 -1      6432 2.20291E+01 9.47950E+00 9.02927E+00
 -1      6433 5.03534E+01 7.30156E+00 8.39497E+00
 -1      6434 5.10129E+01 4.64862E+00 8.45423E+00
 -1      6435 2.25024E+01 8.75182E+00 9.76911E-01
 -1      6436 1.12151E+02-6.16214E+00 8.69048E+00
 -1      6437 1.09370E+02-6.02945E+00 8.19733E+00
 -1      6438 1.11179E+02-7.78419E+00 8.75000E+00
 -1      6439 9.50541E+01-1.14775E+01 4.73216E+00
 -1      6440 2.29614E+01-9.17033E+00 8.84590E+00
 -1      6441 1.10141E+02-4.33422E+00 8.31183E+00
 -1      6442 9.74510E+01-1.21052E+01 4.77828E+00
 -1      6443 2.81627E+01 8.14302E+00 8.62333E+00
 -1      6444 1.85498E+01 1.49966E+01 8.82312E+00
 -1      6445 1.10154E+02-4.28094E+00 1.31848E+00
 -1      6446 1.12151E+02-6.16371E+00 1.30102E+00
 -1      6447 9.67611E+01-1.20104E+01 5.96107E+00
 -1      6448 1.58703E+01 4.37208E+00 1.72024E+00
 -1      6449 5.49514E+01 6.53393E+00 1.49171E+00
 -1      6450 3.48186E+01 7.56210E+00 1.12997E+00
 -1      6451 3.59018E+01 5.60663E+00 2.01974E+00
 -1      6452 3.61560E+01 7.57025E+00 2.01974E+00
 -1      6453 4.30293E+01-7.29854E+00 7.51665E+00
 -1      6454 4.16177E+01-7.35359E+00 8.44537E+00
 -1      6455 1.09644E+02-5.59505E+00 1.61391E+00
 -1      6456 1.11179E+02-7.78419E+00 1.25000E+00
 -1      6457 9.12008E+01 8.87805E+00 1.40288E+00
 -1      6458 1.06060E+02-1.21954E+01 1.30102E+00
 -1      6459 3.88395E+01 7.66311E+00 6.34184E+00
 -1      6460 1.00826E+02 1.24544E+01 1.25024E+00
 -1      6461 4.78339E+01-7.72808E+00 1.05667E+00
 -1      6462 1.90482E+01-1.17418E+01 8.39808E+00
 -1      6463 1.06061E+02-1.21946E+01 8.69048E+00
 -1      6464-2.25874E+01-7.47954E+00 8.68882E+00
 -1      6465 1.04094E+02-1.28510E+01 1.30102E+00
 -1      6466 1.03582E+02-1.03259E+01 1.39606E+00
 -1      6467 2.22549E+01 1.05638E+01 1.66667E+00
 -1      6468 3.18199E+01-8.49248E+00 8.59019E+00
 -1      6469 1.00632E+02 1.24506E+01 7.30072E+00
 -1      6470 5.66266E+01 7.48969E+00 1.49171E+00
 -1      6471 5.66551E+01 5.34340E+00 1.95769E+00
 -1      6472 1.07998E+01-2.11860E+01 1.25000E+00
 -1      6473 1.91756E+01-5.48950E+00 8.27962E+00
 -1      6474 1.01317E+02 1.09578E+01 8.55047E+00
 -1      6475 3.52743E+01 3.85014E+00 2.00378E+00
 -1      6476 3.80665E+01 7.95551E+00 8.52282E+00
 -1      6477 3.05190E+01 3.85344E+00 1.21115E+00
 -1      6478 2.79433E+01 8.17631E+00 1.74323E+00
 -1      6479 2.21919E+01 9.98139E+00 7.36261E+00
 -1      6480 5.55740E+01-6.58489E+00 8.43730E+00
 -1      6481 9.98056E+01 1.24962E+01 8.55047E+00
 -1      6482 5.24026E+01-6.41401E+00 1.81066E+00
 -1      6483 5.13012E+01-4.82880E+00 1.81066E+00
 -1      6484 3.44793E+01 2.64874E+00 2.00378E+00
 -1      6485 9.76576E+01 1.33494E+01 8.75086E+00
 -1      6486 9.86241E+01 1.09360E+01 8.55047E+00
 -1      6487 9.18608E+01 9.45638E+00 8.82104E+00
 -1      6488 9.35426E+01 9.03112E+00 8.34222E+00
 -1      6489 9.22497E+01 1.12050E+01 8.82104E+00
 -1      6490 4.95577E+01-7.33259E+00 1.05667E+00
 -1      6491 2.34114E+01-9.13613E+00 4.18187E+00
 -1      6492 8.38791E+01 6.12363E+00 8.62333E+00
 -1      6493 8.19001E+01 6.20082E+00 8.59019E+00
 -1      6494 3.97731E+01 7.62669E+00 7.81901E+00
 -1      6495 9.68218E+01 1.05238E+01 7.41624E+00
 -1      6496 2.27124E+01-9.92550E+00 1.66667E+00
 -1      6497 2.17390E+01-9.62169E+00 2.78183E+00
 -1      6498-5.29052E+00 1.56385E+01 2.06374E+00
 -1      6499 7.55925E+01-6.01814E+00 1.31058E+00
 -1      6500 2.11163E+01-1.19585E+01 9.01176E+00
 -1      6501 2.02316E+01-1.24379E+01 9.01176E+00
 -1      6502 2.02955E+01-1.20968E+01 7.40984E+00
 -1      6503 1.53773E+01-7.44874E+00 8.16394E+00
 -1      6504 7.47662E-01 2.34384E+01 1.46873E+00
 -1      6505 2.21110E+01 8.51195E+00 3.56764E+00
 -1      6506 9.58587E+01 1.28311E+01 8.75274E+00
 -1      6507 2.25600E+01 9.49573E+00 9.76911E-01
 -1      6508 2.34668E+01-9.00994E+00 8.84590E+00
 -1      6509 9.38935E+01 1.21755E+01 1.25274E+00
 -1      6510 8.87927E+01-7.75445E+00 9.34449E-01
 -1      6511 9.38935E+01 1.21755E+01 8.75274E+00
 -1      6512 2.31787E+01 9.12901E+00 4.25740E+00
 -1      6513 2.30654E+01 9.33534E+00 2.64358E+00
 -1      6514 9.22497E+01 1.12050E+01 1.18215E+00
 -1      6515 9.48566E+01 9.86821E+00 2.41624E+00
 -1      6516 9.33574E+01 8.85895E+00 1.40288E+00
 -1      6517 7.41553E+01-6.90316E+00 1.31058E+00
 -1      6518 8.38791E+01 6.12363E+00 1.37667E+00
 -1      6519 4.62619E+01-7.78939E+00 8.44020E+00
 -1      6520 2.15857E+01-1.10949E+01 1.66667E+00
 -1      6521 2.22549E+01-1.05638E+01 1.66667E+00
 -1      6522 2.08759E+01-1.23460E+01 1.17642E+00
 -1      6523 2.31787E+01 9.12901E+00 5.92406E+00
 -1      6524 8.38634E+01-6.00863E+00 8.62333E+00
 -1      6525 2.25536E+01-9.69275E+00 4.18187E+00
 -1      6526 2.25442E+01 9.58516E+00 9.02927E+00
 -1      6527 2.30496E+01 9.42477E+00 9.02927E+00
 -1      6528 4.95577E+01-7.33259E+00 8.94333E+00
 -1      6529 2.15881E+01 3.88376E+00 4.82734E+00
 -1      6530 2.19239E+01 2.60605E+00 5.13173E+00
 -1      6531 6.40333E+00 2.01482E+01 2.50000E+00
 -1      6532 5.02778E+01-4.95866E+00 4.17679E+00
 -1      6533 2.07875E+01-3.59827E+00 4.69836E+00
 -1      6534 3.39745E+01 3.57765E+00 4.56275E+00
 -1      6535 2.38116E+01-1.49715E+00 2.50662E+00
 -1      6536 1.94533E+01 3.16824E+00 8.48828E+00
 -1      6537 6.75781E+01-1.20243E+00 5.20165E+00
 -1      6538 3.77749E+01-7.21698E-01 7.57678E+00
 -1      6539 2.78485E+01 3.20540E+00 1.21115E+00
 -1      6540-2.15157E+01-6.47540E+00 5.00000E+00
 -1      6541 7.54848E+01-4.08567E+00 2.50000E+00
 -1      6542 4.15248E+01 7.08629E-01 2.57678E+00
 -1      6543 4.15248E+01 7.08629E-01 7.57678E+00
 -1      6544 7.32367E+01-3.42562E+00 7.56580E+00
 -1      6545-4.92127E+00 1.68321E+01 3.92872E+00
 -1      6546 3.18819E+01 3.61426E+00 1.21115E+00
 -1      6547 3.09904E+01 2.42143E+00 1.21115E+00
 -1      6548-2.23664E+01-3.86830E-01 4.09694E+00
 -1      6549-8.71953E-02-2.25484E+01 3.50706E+00
 -1      6550-2.11721E-01-2.25379E+01 5.00706E+00
 -1      6551-8.71953E-02-2.25484E+01 6.50706E+00
 -1      6552 7.19028E+01-5.40482E+00 6.50914E+00
 -1      6553 8.07309E+01-1.71911E+00 7.50000E+00
 -1      6554 4.78135E+01-6.74123E+00 3.50760E+00
 -1      6555 5.02778E+01-4.95866E+00 2.73346E+00
 -1      6556 1.64361E+01-1.06546E+01 7.46667E+00
 -1      6557 4.49375E+01-2.26317E+00 2.45094E+00
 -1      6558 3.27187E+01-6.54062E+00 3.74343E+00
 -1      6559 4.49375E+01-2.26317E+00 7.45094E+00
 -1      6560 2.29465E+01 6.98153E+00 6.53251E+00
 -1      6561 6.50775E+01-2.35944E+00 2.42628E+00
 -1      6562 3.20343E+01-5.46783E+00 1.61117E+00
 -1      6563 2.49300E+01 6.31749E+00 8.94178E+00
 -1      6564 2.41731E+01 1.99220E+00 1.64346E+00
 -1      6565 2.37326E+01-4.46499E+00 1.56935E+00
 -1      6566 6.29661E+01-1.00527E+00 7.63584E+00
 -1      6567 6.33488E+01 6.87713E+00 1.05667E+00
 -1      6568 9.12917E+01 8.77593E+00 7.80089E+00
 -1      6569-2.03267E+01 9.94106E+00 6.26682E+00
 -1      6570 2.16506E+01 6.54008E+00 1.40869E+00
 -1      6571 7.85354E+01-5.06489E+00 2.50000E+00
 -1      6572 8.22533E+01 5.19515E+00 3.95527E+00
 -1      6573 8.57513E+01-5.51090E+00 1.37667E+00
 -1      6574 1.99507E+01 8.94722E+00 3.58481E+00
 -1      6575-1.03371E+01 2.00907E+01 3.75000E+00
 -1      6576 2.81498E+01 3.67507E+00 7.50000E+00
 -1      6577 1.09885E+02 7.65127E+00 4.50061E+00
 -1      6578 2.65108E+01-7.70601E+00 5.73574E+00
 -1      6579 2.04585E+01 4.35742E-01 2.50000E+00
 -1      6580 9.05432E+01-8.10621E+00 3.28467E+00
 -1      6581 9.12565E+01-8.93166E+00 2.35022E+00
 -1      6582 2.47526E+01-8.21098E+00 3.88960E+00
 -1      6583 6.07804E+01-6.48724E+00 4.92628E+00
 -1      6584 1.11477E+02 4.60272E+00 3.86333E+00
 -1      6585-1.17229E+01-1.74552E+01 2.46443E+00
 -1      6586 8.88854E+01 5.66342E+00 1.66667E+00
 -1      6587 8.57513E+01-5.51090E+00 8.62333E+00
 -1      6588 1.03280E+02-1.18343E+01 2.95219E+00
 -1      6589 1.47622E+01 1.27327E+01 2.52646E+00
 -1      6590 2.34992E+01-6.81922E+00 8.42802E+00
 -1      6591 1.12425E+02-1.06011E+00 4.88946E+00
 -1      6592 1.08005E+02-9.57750E+00 5.60582E+00
 -1      6593 6.74265E+01-2.90781E+00 7.56580E+00
 -1      6594 6.18468E+01 1.30127E+00 4.32824E+00
 -1      6595 1.91312E+01-8.32317E+00 1.11516E+00
 -1      6596 4.84977E+01-1.23544E+00 8.18088E+00
 -1      6597 9.00646E+01-7.37835E+00 4.01689E+00
 -1      6598 8.88854E+01 5.66342E+00 8.33333E+00
 -1      6599 1.17976E+01 1.71808E+01 2.46227E+00
 -1      6600 1.07638E+02 9.60617E+00 5.75063E+00
 -1      6601 9.56792E+01-1.01444E+01 1.06071E+00
 -1      6602 2.01050E+01-5.46577E+00 8.27962E+00
 -1      6603-6.41219E+00-2.15727E+01 6.25695E+00
 -1      6604-6.41219E+00-2.15727E+01 3.75695E+00
 -1      6605 9.66632E+01 1.31234E+01 7.50188E+00
 -1      6606-1.58288E+01 1.59625E+01 3.76465E+00
 -1      6607-1.58288E+01 1.59625E+01 6.26465E+00
 -1      6608 9.76024E+01 1.20733E+01 4.91672E+00
 -1      6609 9.20913E+01-9.57087E+00 8.63501E+00
 -1      6610 2.15763E+01-9.11981E+00 1.11516E+00
 -1      6611 1.00626E+02 1.24504E+01 5.39469E+00
 -1      6612 9.94125E+01-1.23138E+01 7.43029E+00
 -1      6613 5.53747E+01-6.41444E+00 5.17971E+00
 -1      6614 1.03925E+02-1.02233E+01 8.74750E+00
 -1      6615 9.35443E+01 1.04660E+01 2.65562E+00
 -1      6616 4.46959E+01-7.23353E+00 8.44020E+00
 -1      6617 1.94001E+01-2.50713E+00 8.27367E+00
 -1      6618 6.77327E+00 1.76334E+01 2.50000E+00
 -1      6619 7.13863E+01 6.43525E+00 2.50000E+00
 -1      6620 5.85112E+01 4.92064E+00 1.95769E+00
 -1      6621 1.04348E+02 1.00794E+01 1.72812E+00
 -1      6622 9.43224E+01-1.11094E+01 6.08890E+00
 -1      6623 9.48566E+01 9.86821E+00 7.41624E+00
 -1      6624 9.31718E+01-1.04657E+01 5.09642E+00
 -1      6625 1.10194E+02 4.17303E+00 1.36333E+00
 -1      6626 1.12341E+02 1.25207E+00 1.12586E+00
 -1      6627 8.57484E+01 5.53203E+00 8.62333E+00
 -1      6628 8.57484E+01 5.53203E+00 1.37667E+00
 -1      6629 2.35459E+01 8.71182E+00 9.02927E+00
 -1      6630 8.22002E+01-5.60857E+00 8.62333E+00
 -1      6631 1.23875E+01-1.43502E+01 2.52076E+00
 -1      6632 2.01478E+01 1.78037E+00 8.48828E+00
 -1      6633 3.33761E+01 7.71309E-01 5.54475E+00
 -1      6634 3.40226E+01 2.51018E+00 7.55897E+00
 -1      6635 1.26811E+01 1.85578E+01 4.96227E+00
 -1      6636 1.96735E+01-9.91814E+00 2.12393E+00
 -1      6637 4.08889E+01 4.24349E+00 2.81901E+00
 -1      6638 2.21747E+01-6.43823E+00 1.38960E+00
 -1      6639 8.22533E+01 5.19515E+00 6.20194E+00
 -1      6640 9.13690E+01-6.90494E+00 2.35022E+00
 -1      6641 3.71777E+01 7.08629E-01 2.57678E+00
 -1      6642 1.98053E+01-8.94528E+00 8.67286E+00
 -1      6643 2.22549E+01 1.05638E+01 8.33333E+00
 -1      6644 2.35701E+01 9.36888E+00 1.66667E+00
 -1      6645 1.84440E+01 1.06295E+01 2.60790E+00
 -1      6646 2.91925E+01 4.77044E+00 4.71928E+00
 -1      6647 3.08679E+01 7.39301E+00 5.05897E+00
 -1      6648 1.07998E+01-2.11860E+01 8.75000E+00
 -1      6649 2.53753E+01 3.77198E+00 8.09408E+00
 -1      6650 3.37486E+01-1.74067E+00 1.59369E+00
 -1      6651 2.51604E+01 8.54003E+00 3.91641E+00
 -1      6652 1.43266E+01-9.07870E+00 7.95736E+00
 -1      6653 1.29068E+01 1.84229E+01 8.69007E+00
 -1      6654 3.25369E+01 3.10046E+00 3.21493E+00
 -1      6655 9.05920E+01 8.15839E+00 8.97985E+00
 -1      6656-2.03267E+01 9.94106E+00 3.76682E+00
 -1      6657 4.78135E+01-6.74123E+00 6.39427E+00
 -1      6658 3.19566E+01 4.33063E+00 7.55897E+00
 -1      6659 1.98784E+01-1.50127E+00 2.02136E+00
 -1      6660 6.79260E+01-4.35292E+00 7.56580E+00
 -1      6661 6.33839E+01-7.21448E+00 8.24918E+00
 -1      6662 9.86347E+01-1.23747E+01 8.68279E+00
 -1      6663 1.96423E+01-1.34439E+01 9.01176E+00
 -1      6664 1.35903E+01-1.55462E+01 2.52076E+00
 -1      6665 2.41722E+01 8.57858E+00 4.74975E+00
 -1      6666 4.78339E+01-7.72808E+00 8.94333E+00
 -3
    3C                          3310                                     1
 -1      2410    6    0    1
 -2      2249      2161      2079      4226      2363      2738      2739      4314      4313      4315
 -1      2411    6    0    1
 -2      1168      1256      1086      4226      1365      1857      1860      4317      4316      4318
 -1      2412    6    0    1
 -2       691      1252      1109      4292      4320      1320      4319      4322      4321      4323
 -1      2413    6    0    1
 -2      2083      2147      2243      4227      2790      2332      2793      4325      4324      4326
 -1      2414    6    0    1
 -2      4216      2140      4222      4311      4329      4327      4328      4331      4330      4332
 -1      2415    6    0    1
 -2      4224      1147      4216      4273      4335      4333      4334      4337      4336      4338
 -1      2416    6    0    1
 -2      4216      4222      4224      4273      4328      4339      4334      4338      4340      4337
 -1      2417    6    0    1
 -2      3706      3709      4255      4277      3774      4341      4342      4344      4343      4345
 -1      2418    6    0    1
 -2      4219      2255      4300      4306      4348      4346      4347      4350      4349      4351
 -1      2419    6    0    1
 -2      4247      2057      4239      4255      4354      4352      4353      4356      4355      4357
 -1      2420    6    0    1
 -2      3262      2190      3240      4286      4359      4358      3367      4361      4360      4362
 -1      2421    6    0    1
 -2      4239      1064      4247      4255      4364      4363      4353      4357      4365      4356
 -1      2422    6    0    1
 -2      4266      1172      4268      4270      4368      4366      4367      4370      4369      4371
 -1      2423    6    0    1
 -2      4224      4222      4259      4273      4339      4372      4373      4337      4340      4374
 -1      2424    6    0    1
 -2      4273      1131      4217      4278      4377      4375      4376      4379      4378      4380
 -1      2425    6    0    1
 -2      2147       624      2243      4227      4382      4381      2332      4324      4383      4326
 -1      2426    6    0    1
 -2      4228      1146      4238      4248      4386      4384      4385      4388      4387      4389
 -1      2427    6    0    1
 -2       580      1247      1174      4286      4391      1294      4390      4393      4392      4394
 -1      2428    6    0    1
 -2      3791      4230      4242      4281      4397      4395      4396      4399      4398      4400
 -1      2429    6    0    1
 -2      4230      2138      4237      4281      4403      4401      4402      4398      4404      4405
 -1      2430    6    0    1
 -2      4300      2255      2171      4306      4346      2884      4406      4351      4349      4407
 -1      2431    6    0    1
 -2      1257      1069      4221      4278      1911      4408      4409      4411      4410      4412
 -1      2432    6    0    1
 -2      4269      2140      4216      4311      4414      4329      4413      4415      4330      4331
 -1      2433    6    0    1
 -2      3063      2257      4265      4270      4418      4416      4417      4420      4419      4421
 -1      2434    6    0    1
 -2      4214      4220      4222      4224      4424      4422      4423      4426      4425      4339
 -1      2435    6    0    1
 -2      4276      4230      4213      4281      4429      4427      4428      4430      4398      4431
 -1      2436    6    0    1
 -2      1131      1257      4217      4278      1907      4432      4375      4378      4411      4380
 -1      2437    6    0    1
 -2      1067      1147      4216      4224      1971      4333      4433      4434      4335      4334
 -1      2438    6    0    1
 -2      1110       689      4230      4282      4437      4435      4436      4439      4438      4440
 -1      2439    6    0    1
 -2      4225      1136      4231      4239      4443      4441      4442      4445      4444      4446
 -1      2440    6    0    1
 -2      2250      2124      4217      4264      2785      4447      4448      4450      4449      4451
 -1      2441    6    0    1
 -2      1100      3706      4255      4277      4453      4342      4452      4454      4344      4345
 -1      2442    6    0    1
 -2      4291      2104      4264      4311      4457      4455      4456      4459      4458      4460
 -1      2443    6    0    1
 -2      4242      4230      4276      4281      4395      4429      4461      4400      4398      4430
 -1      2444    6    0    1
 -2      4268      1124      3245      4286      4464      4462      4463      4466      4465      4467
 -1      2445    6    0    1
 -2      4266      1172      1103      4268      4368      1751      4468      4367      4366      4469
 -1      2446    6    0    1
 -2      3264      3245      1197      4286      3316      4470      4471      4472      4467      4473
 -1      2447    6    0    1
 -2      3262      3240      3230      4286      3367      3386      3387      4361      4362      4474
 -1      2448    6    0    1
 -2       580      1174      4233      4286      4390      4475      4476      4393      4394      4477
 -1      2449    6    0    1
 -2      4220      4214      4222      4310      4424      4423      4422      4479      4478      4480
 -1      2450    6    0    1
 -2      4222      4214      4224      4287      4423      4426      4339      4482      4481      4483
 -1      2451    6    0    1
 -2      4273      4216      4222      4311      4338      4328      4340      4484      4331      4332
 -1      2452    6    0    1
 -2       663      1104      4226      4246      4487      4485      4486      4489      4488      4490
 -1      2453    6    0    1
 -2      4234      1259      4243      4267      4493      4491      4492      4495      4494      4496
 -1      2454    6    0    1
 -2      4249      2104      4291      4311      4498      4457      4497      4499      4458      4459
 -1      2455    6    0    1
 -2      4234      2181      4243      4307      4501      4500      4492      4503      4502      4504
 -1      2456    6    0    1
 -2      1188      4234      4243      4307      4506      4492      4505      4507      4503      4504
 -1      2457    6    0    1
 -2      4214      4241      4248      4274      4510      4508      4509      4512      4511      4513
 -1      2458    6    0    1
 -2      4225      2053      4231      4312      4515      4514      4442      4517      4516      4518
 -1      2459    6    0    1
 -2       633       609      4236      4245      1031      4519      4520      4522      4521      4523
 -1      2460    6    0    1
 -2      4236       609       632      4245      4519      1028      4524      4523      4521      4525
 -1      2461    6    0    1
 -2      4225      1196      1136      4239      4526      1938      4443      4445      4527      4444
 -1      2462    6    0    1
 -2       597       663      4226      4246      1056      4486      4528      4529      4489      4490
 -1      2463    6    0    1
 -2      4236       632      2163      4245      4524      4530      4531      4523      4525      4532
 -1      2464    6    0    1
 -2      4236      1170       633      4245      4534      4533      4520      4523      4535      4522
 -1      2465    6    0    1
 -2      2097       662      4226      4246      4538      4536      4537      4540      4539      4490
 -1      2466    6    0    1
 -2       691      1187        86      4228      4542      4541       700      4544      4543      4545
 -1      2467    6    0    1
 -2      1251       689      1110      4282      4546      4437      1432      4547      4438      4439
 -1      2468    6    0    1
 -2      4226       662       597      4246      4536      1052      4528      4490      4539      4529
 -1      2469    6    0    1
 -2       610       609       633      4245      1027      1031      1030      4548      4521      4522
 -1      2470    6    0    1
 -2       632       609       610      4245      1028      1027      1029      4525      4521      4548
 -1      2471    6    0    1
 -2      4227      2147       624      4256      4324      4382      4383      4550      4549      4551
 -1      2472    6    0    1
 -2      2171      2255      2053      4306      2884      3016      3014      4407      4349      4552
 -1      2473    6    0    1
 -2      2189      4225      4239      4280      4554      4445      4553      4556      4555      4557
 -1      2474    6    0    1
 -2       679       678       613      4245      1041      1040      1042      4559      4558      4560
 -1      2475    6    0    1
 -2      4215      1155      4273      4278      4563      4561      4562      4565      4564      4379
 -1      2476    6    0    1
 -2      3245      1124      1197      4286      4462      1524      4470      4467      4465      4473
 -1      2477    6    0    1
 -2       679       678      4245      4256      1041      4558      4559      4567      4566      4568
 -1      2478    6    0    1
 -2      1069      1126      4221      4278      1847      4569      4408      4410      4570      4412
 -1      2479    6    0    1
 -2      2246      2082      2164      4244      2692      2693      2400      4572      4571      4573
 -1      2480    6    0    1
 -2      1089      1253      1171      4244      2015      1402      2024      4575      4574      4576
 -1      2481    6    0    1
 -2      4264      2104      2149      4311      4455      2984      4577      4460      4458      4578
 -1      2482    6    0    1
 -2      2053      2211      4231      4312      2964      4579      4514      4516      4580      4518
 -1      2483    6    0    1
 -2      3828      1146      3820      4228      4582      4581      3849      4583      4386      4584
 -1      2484    6    0    1
 -2      2257      2095      4265      4270      3003      4585      4416      4419      4586      4421
 -1      2485    6    0    1
 -2      1155      1111      1156      4278      1915      1965      1704      4564      4587      4588
 -1      2486    6    0    1
 -2      4230      1122      4242      4276      4590      4589      4395      4429      4591      4461
 -1      2487    6    0    1
 -2      2097       662      2158      4226      4538      4592      2371      4537      4536      4593
 -1      2488    6    0    1
 -2       663      1104      1165      4226      4487      1373      4594      4486      4485      4595
 -1      2489    6    0    1
 -2      3048      4219      4257      4285      4598      4596      4597      4600      4599      4601
 -1      2490    6    0    1
 -2      4220      4216      4222      4224      4602      4328      4422      4425      4334      4339
 -1      2491    6    0    1
 -2      2211      2255      2112      4219      3001      3000      2998      4603      4348      4604
 -1      2492    6    0    1
 -2      1263      1083      4233      4303      1830      4605      4606      4608      4607      4609
 -1      2493    6    0    1
 -2      4233      2256      4265      4303      4612      4610      4611      4609      4613      4614
 -1      2494    6    0    1
 -2      4215      1155      4259      4273      4563      4615      4616      4562      4561      4374
 -1      2495    6    0    1
 -2      1188      4055      4234      4307      4618      4617      4506      4507      4619      4503
 -1      2496    6    0    1
 -2      3828      1146      4228      4248      4582      4386      4583      4620      4387      4388
 -1      2497    6    0    1
 -2      2111      2140      4216      4269      2915      4329      4621      4622      4414      4413
 -1      2498    6    0    1
 -2       691       637      1252      4292       703      4623      4320      4322      4624      4321
 -1      2499    6    0    1
 -2      4243      3256      3229      4266      4626      3405      4625      4628      4627      4629
 -1      2500    6    0    1
 -2      4222      4215      4259      4273      4630      4616      4372      4340      4562      4374
 -1      2501    6    0    1
 -2      1069      1152      1257      4221      1904      2035      1911      4408      4631      4409
 -1      2502    6    0    1
 -2      1162       665      1255      4223      4633      4632      1382      4635      4634      4636
 -1      2503    6    0    1
 -2      2060      4216      4220      4288      4638      4602      4637      4640      4639      4641
 -1      2504    6    0    1
 -2      3706      1127      4255      4302      4643      4642      4342      4645      4644      4646
 -1      2505    6    0    1
 -2      2246      2164       655      4244      2400      4647      4648      4572      4573      4649
 -1      2506    6    0    1
 -2      1171      1253       656      4244      1402      4650      4651      4576      4574      4652
 -1      2507    6    0    1
 -2      1155      4215      4259      4293      4563      4616      4615      4654      4653      4655
 -1      2508    6    0    1
 -2      4273      4222      4215      4311      4340      4630      4562      4484      4332      4656
 -1      2509    6    0    1
 -2      2124      4217      4264      4269      4447      4451      4449      4658      4657      4659
 -1      2510    6    0    1
 -2      3820      3802      4228      4292      4008      4660      4584      4662      4661      4663
 -1      2511    6    0    1
 -2      3230      3245      3264      4286      3385      3316      3421      4474      4467      4472
 -1      2512    6    0    1
 -2       624       614      4227      4256       935      4664      4383      4551      4665      4550
 -1      2513    6    0    1
 -2      1263      1198      1083      4303      1829      1827      1830      4608      4666      4607
 -1      2514    6    0    1
 -2      3814      3786      3815      4252      3870      3994      3995      4668      4667      4669
 -1      2515    6    0    1
 -2      4230      1235      1122      4276      4670      1880      4590      4429      4671      4591
 -1      2516    6    0    1
 -2      4052      2181      4234      4307      4673      4501      4672      4674      4502      4503
 -1      2517    6    0    1
 -2      1143      3706      1100      4277      4675      4453      1691      4676      4344      4454
 -1      2518    6    0    1
 -2      3067      3029      4220      4257      3217      4677      4678      4680      4679      4681
 -1      2519    6    0    1
 -2      4225      1196      4239      4280      4526      4527      4445      4555      4682      4557
 -1      2520    6    0    1
 -2      4268      1172      4265      4270      4366      4683      4684      4371      4369      4421
 -1      2521    6    0    1
 -2      4239      3235      1133      4277      4687      4685      4686      4689      4688      4690
 -1      2522    6    0    1
 -2      1244      1067      1118      4285      1973      1972      1745      4692      4691      4693
 -1      2523    6    0    1
 -2      4222      4214      4274      4310      4423      4512      4694      4480      4478      4695
 -1      2524    6    0    1
 -2      4255      3709      2093      4277      4341      4696      4697      4345      4343      4698
 -1      2525    6    0    1
 -2      4214      4220      4224      4250      4424      4425      4426      4700      4699      4701
 -1      2526    6    0    1
 -2       624      2147       651      4256      4382      4702       825      4551      4549      4703
 -1      2527    6    0    1
 -2      4229      4213      4232      4299      4706      4704      4705      4708      4707      4709
 -1      2528    6    0    1
 -2      2108      2250      4217      4284      2789      4448      4710      4712      4711      4713
 -1      2529    6    0    1
 -2      4217      1071      1131      4273      4714      1906      4375      4376      4715      4377
 -1      2530    6    0    1
 -2      4301      1079      1189      4304      4717      1975      4716      4719      4718      4720
 -1      2531    6    0    1
 -2      3049      2257      3063      4270      4721      4418      3173      4722      4419      4420
 -1      2532    6    0    1
 -2      2112      2211      4219      4301      2998      4603      4604      4724      4723      4725
 -1      2533    6    0    1
 -2      4216      1067      4224      4257      4433      4434      4334      4727      4726      4728
 -1      2534    6    0    1
 -2      2232      4229      4289      4291      4731      4729      4730      4733      4732      4734
 -1      2535    6    0    1
 -2       614      1250       625      4227      4736      4735       716      4664      4737      4738
 -1      2536    6    0    1
 -2      4030      4055      1188      4307      4126      4618      4739      4740      4619      4507
 -1      2537    6    0    1
 -2      1122      1235      1150      4276      1880      1875      1834      4591      4671      4741
 -1      2538    6    0    1
 -2      1248       580      1174      4233      4742      4390      1296      4743      4476      4475
 -1      2539    6    0    1
 -2      4269      4216      4273      4311      4413      4338      4744      4415      4331      4484
 -1      2540    6    0    1
 -2      1078      1258      4239      4280      1881      4745      4746      4748      4747      4557
 -1      2541    6    0    1
 -2      1122      1150      4242      4276      1834      4749      4589      4591      4741      4461
 -1      2542    6    0    1
 -2      4233      1083      4296      4303      4605      4750      4751      4609      4607      4752
 -1      2543    6    0    1
 -2      4228      1076      3820      4292      4754      4753      4584      4663      4755      4662
 -1      2544    6    0    1
 -2      3815      3814      4252      4254      3995      4668      4669      4757      4756      4758
 -1      2545    6    0    1
 -2      3795      3791      4242      4281      4022      4396      4759      4760      4399      4400
 -1      2546    6    0    1
 -2      1057      1155      1156      4278      1701      1704      1696      4761      4564      4588
 -1      2547    6    0    1
 -2      4265      2165      4268      4270      4763      4762      4684      4421      4764      4371
 -1      2548    6    0    1
 -2       661       595       660      4223      1051       913      1037      4766      4765      4767
 -1      2549    6    0    1
 -2      1198      3061      4296      4303      4770      4768      4769      4666      4771      4752
 -1      2550    6    0    1
 -2      2104      4249      4297      4311      4498      4772      4773      4458      4499      4774
 -1      2551    6    0    1
 -2      4265      1123      1263      4303      4776      1753      4775      4614      4777      4608
 -1      2552    6    0    1
 -2      1263      1123      1198      4303      1753      1473      1829      4608      4777      4666
 -1      2553    6    0    1
 -2      2142      3247      3234      4266      4779      3402      4778      4781      4780      4782
 -1      2554    6    0    1
 -2       658      2157      4227      4271      4785      4783      4784      4787      4786      4788
 -1      2555    6    0    1
 -2       584      1148      4218      4242      4791      4789      4790      4793      4792      4794
 -1      2556    6    0    1
 -2       651       614       624      4256       937       935       825      4703      4665      4551
 -1      2557    6    0    1
 -2      4226      1207      3805      4246      4797      4795      4796      4490      4798      4799
 -1      2558    6    0    1
 -2      1078      1161      1258      4280      1883      1501      1881      4748      4800      4747
 -1      2559    6    0    1
 -2      4218      3831      4241      4248      4803      4801      4802      4805      4804      4508
 -1      2560    6    0    1
 -2      4230      3803      3807      4282      4807      4018      4806      4440      4808      4809
 -1      2561    6    0    1
 -2      1074      1125      4224      4250      1730      4810      4811      4813      4812      4701
 -1      2562    6    0    1
 -2      4296      1083      1198      4303      4750      1827      4769      4752      4607      4666
 -1      2563    6    0    1
 -2      4267      3049      3038      4270      4815      3208      4814      4816      4722      4817
 -1      2564    6    0    1
 -2      4219      3069      2112      4301      4819      4818      4604      4725      4820      4724
 -1      2565    6    0    1
 -2      4243      1120      3256      4266      4822      4821      4626      4628      4823      4627
 -1      2566    6    0    1
 -2      4218      1085       584      4248      4825      4824      4790      4805      4826      4827
 -1      2567    6    0    1
 -2      1197      1124      1082      4286      1524      1949      1948      4473      4465      4828
 -1      2568    6    0    1
 -2      3033      3063      4265      4270      3182      4417      4829      4830      4420      4421
 -1      2569    6    0    1
 -2       665       677       611      4223       759      1011      1012      4634      4831      4832
 -1      2570    6    0    1
 -2      3706      3710      1127      4302      3759      4833      4643      4645      4834      4644
 -1      2571    6    0    1
 -2       616       691      4228      4292       804      4544      4835      4836      4322      4663
 -1      2572    6    0    1
 -2      2064      2250      2124      4217      2786      2785      2784      4837      4448      4447
 -1      2573    6    0    1
 -2      1131      1257      1071      4217      1907      1908      1906      4375      4432      4714
 -1      2574    6    0    1
 -2      3831      2078      4218      4241      4839      4838      4803      4801      4840      4802
 -1      2575    6    0    1
 -2      4259      1138      4248      4287      4843      4841      4842      4845      4844      4846
 -1      2576    6    0    1
 -2      1117      1194      1068      4232      2001      2028      2026      4848      4847      4849
 -1      2577    6    0    1
 -2      2256      2205      4233      4265      2725      4850      4612      4610      4851      4611
 -1      2578    6    0    1
 -2      4223      3810      3819      4261      4853      3989      4852      4855      4854      4856
 -1      2579    6    0    1
 -2      2158      2249      2079      4226      2366      2739      2740      4593      4314      4315
 -1      2580    6    0    1
 -2      1256      1165      1086      4226      1368      1855      1857      4316      4595      4318
 -1      2581    6    0    1
 -2      2059      2109      2186      4279      2911      2913      2776      4858      4857      4859
 -1      2582    6    0    1
 -2       675      2155      4223      4261      4862      4860      4861      4864      4863      4855
 -1      2583    6    0    1
 -2      1186      1109      1187       691      1318      1959      1821      4865      4319      4542
 -1      2584    6    0    1
 -2      2153       634      4236      4254      4868      4866      4867      4870      4869      4871
 -1      2585    6    0    1
 -2      4264      2232      2104      4291      4872      2971      4455      4456      4733      4457
 -1      2586    6    0    1
 -2      4273      1155      1057      4278      4561      1701      4873      4379      4564      4761
 -1      2587    6    0    1
 -2      3040      1189      3064      4304      4875      4874      3093      4876      4720      4877
 -1      2588    6    0    1
 -2      1252      1076      1109      4292      1962      1961      1320      4321      4755      4323
 -1      2589    6    0    1
 -2      1263      4233      4265      4303      4606      4611      4775      4608      4609      4614
 -1      2590    6    0    1
 -2      3229      3254      4243      4266      3403      4878      4625      4629      4879      4628
 -1      2591    6    0    1
 -2      4226      3799      2200      4246      4882      4880      4881      4490      4883      4884
 -1      2592    6    0    1
 -2      4245       678      2176      4256      4558      4885      4886      4568      4566      4887
 -1      2593    6    0    1
 -2      1255       665      1169      4223      4632      4888      1385      4636      4634      4889
 -1      2594    6    0    1
 -2      4269      4216      2111      4300      4413      4621      4622      4891      4890      4892
 -1      2595    6    0    1
 -2       619       659       654      4271       960       709       948      4894      4893      4895
 -1      2596    6    0    1
 -2      4248      4218      1138      4259      4805      4896      4841      4842      4897      4843
 -1      2597    6    0    1
 -2      4215      4249      4291      4311      4899      4497      4898      4656      4499      4459
 -1      2598    6    0    1
 -2      2241      2167       579      4233      2299      4900      4901      4903      4902      4904
 -1      2599    6    0    1
 -2      4241      4218      4248      4274      4802      4805      4508      4511      4905      4513
 -1      2600    6    0    1
 -2      1241      3043      4247      4302      4908      4906      4907      4910      4909      4911
 -1      2601    6    0    1
 -2      1212      1263      4233      4265      1761      4606      4912      4913      4775      4611
 -1      2602    6    0    1
 -2      4217      2250      4264      4284      4448      4450      4451      4713      4711      4914
 -1      2603    6    0    1
 -2      2062      4229      4264      4284      4917      4915      4916      4919      4918      4914
 -1      2604    6    0    1
 -2      3788      4228      4241      4248      4922      4920      4921      4923      4388      4508
 -1      2605    6    0    1
 -2      4221      1152      1257      4294      4631      2035      4409      4925      4924      4926
 -1      2606    6    0    1
 -2      1071      4217      4258      4273      4714      4927      4928      4715      4376      4929
 -1      2607    6    0    1
 -2      1133      1258      3248      4239      1506      4930      4931      4686      4745      4932
 -1      2608    6    0    1
 -2       634       600      4236      4254       993      4933      4866      4869      4934      4871
 -1      2609    6    0    1
 -2      3828      1121      1146      4248      4935      1592      4582      4620      4936      4387
 -1      2610    6    0    1
 -2      3791      3803      4230      4281      4017      4807      4397      4399      4937      4398
 -1      2611    6    0    1
 -2      4231      1079      4301      4304      4939      4717      4938      4940      4718      4719
 -1      2612    6    0    1
 -2       662       597       598      4226      1052      1054      1053      4536      4528      4941
 -1      2613    6    0    1
 -2       597       663       598      4226      1056      1055      1054      4528      4486      4941
 -1      2614    6    0    1
 -2      2153       628      2247      4236      4943      4942      2349      4867      4944      4945
 -1      2615    6    0    1
 -2      1160      1254       629      4236      1351      4946      4947      4949      4948      4950
 -1      2616    6    0    1
 -2      2241      2076      2167      4233      3009      3010      2299      4903      4951      4902
 -1      2617    6    0    1
 -2      4235      3816      3821      4283      4953      4011      4952      4955      4954      4956
 -1      2618    6    0    1
 -2      1247       580      3717      4286      4391      3725      4957      4392      4393      4958
 -1      2619    6    0    1
 -2      1143      1100      1240      4277      1691      1783      1509      4676      4454      4959
 -1      2620    6    0    1
 -2      1133      1242      4239      4277      1936      4960      4686      4690      4961      4689
 -1      2621    6    0    1
 -2      2122      3049      4267      4270      4963      4815      4962      4964      4722      4816
 -1      2622    6    0    1
 -2      3486      3433      4048       570      3616      4965      4966      3497      3614      4967
 -1      2623    6    0    1
 -2      4289      4249      2232      4291      4969      4968      4730      4734      4497      4733
 -1      2624    6    0    1
 -2      3820      1146      1076      4228      4581      1594      4753      4584      4386      4754
 -1      2625    6    0    1
 -2      1238      1126      1069      4278      1851      1847      1852      4970      4570      4410
 -1      2626    6    0    1
 -2      3800      3792      3806      4236      4020      4019      3933      4972      4971      4973
 -1      2627    6    0    1
 -2      1162      1255      1087      4223      1382      1871      1870      4635      4636      4974
 -1      2628    6    0    1
 -2      2248      2155      2080      4223      2380      2698      2699      4975      4860      4976
 -1      2629    6    0    1
 -2      1189      1079      1132      4304      1975      1974      1452      4720      4718      4977
 -1      2630    6    0    1
 -2      4228      1146      1187      4238      4386      1772      4543      4385      4384      4978
 -1      2631    6    0    1
 -2      2257      2116      3063      4265      2589      4979      4418      4416      4980      4417
 -1      2632    6    0    1
 -2       665       595       661      4223      1013      1051       762      4634      4765      4766
 -1      2633    6    0    1
 -2      1162       677      4223      4261      4981      4831      4635      4983      4982      4855
 -1      2634    6    0    1
 -2       662       630       597      4246       858      1046      1052      4539      4984      4529
 -1      2635    6    0    1
 -2       682      2146      4235      4253      4987      4985      4986      4989      4988      4990
 -1      2636    6    0    1
 -2      1153       683      4235      4253      4993      4991      4992      4995      4994      4990
 -1      2637    6    0    1
 -2      3788      3828      4228      4248      4006      4583      4922      4923      4620      4388
 -1      2638    6    0    1
 -2       602       674       666      4235      1009       900      1004      4997      4996      4998
 -1      2639    6    0    1
 -2      4279       362      2186      4310      5000      4999      4859      5002      5001      5003
 -1      2640    6    0    1
 -2      4223       661      1169      4251      4766      5004      4889      5006      5005      5007
 -1      2641    6    0    1
 -2      4222      4224      4259      4287      4339      4373      4372      4482      4483      4845
 -1      2642    6    0    1
 -2      4053      2107       570      4234      5010      5008      5009      5012      5011      5013
 -1      2643    6    0    1
 -2      1126      1073      4221      4232      1845      5014      4569      5016      5015      5017
 -1      2644    6    0    1
 -2       666       602      4235      4283      1004      4997      4998      5019      5018      4955
 -1      2645    6    0    1
 -2      4243      1173      4266      4267      5021      5020      4628      4496      5022      5023
 -1      2646    6    0    1
 -2       619       653       658      4271       945       819       959      4894      5024      4787
 -1      2647    6    0    1
 -2      3800      3806      2203      4236      3933      5025      5026      4972      4973      5027
 -1      2648    6    0    1
 -2      4245      3796      3809      4256      5029      3998      5028      4568      5030      5031
 -1      2649    6    0    1
 -2       644      2249      2158      4226      5033      2366      5032      5034      4314      4593
 -1      2650    6    0    1
 -2       645      1165      1256      4226      5036      1368      5035      5037      4595      4316
 -1      2651    6    0    1
 -2       610       633       669      4245      1030       726      1034      4548      4522      5038
 -1      2652    6    0    1
 -2       675       664       611      4223       867       910       909      4861      5039      4832
 -1      2653    6    0    1
 -2      4243      3254      2113      4266      4878      5040      5041      4628      4879      5042
 -1      2654    6    0    1
 -2      4216      1067      4257      4285      4433      4726      4727      5043      4691      4601
 -1      2655    6    0    1
 -2      1125      1260      4224      4250      1736      5044      4810      4812      5045      4701
 -1      2656    6    0    1
 -2       602       667      4235      4283      1005      5046      4997      5018      5047      4955
 -1      2657    6    0    1
 -2      4301      1189      3040      4304      4716      4875      5048      4719      4720      4876
 -1      2658    6    0    1
 -2      1151      1135      4238      4287      1864      5049      5050      5052      5051      5053
 -1      2659    6    0    1
 -2       667       676       602      4235       792      1007      1005      5046      5054      4997
 -1      2660    6    0    1
 -2      4258      4219      4300      4306      5056      4347      5055      5057      4350      4351
 -1      2661    6    0    1
 -2      4055       569      1114      4234      5060      5058      5059      4617      5061      5062
 -1      2662    6    0    1
 -2      3067      3029      3055      4220      3217      3218      3132      4678      4677      5063
 -1      2663    6    0    1
 -2      1150      1137      4242      4276      1831      5064      4749      4741      5065      4461
 -1      2664    6    0    1
 -2       628       609       632      4236       999      1028       837      4944      4519      4524
 -1      2665    6    0    1
 -2       633       609       629      4236      1031      1000       729      4520      4519      4950
 -1      2666    6    0    1
 -2      3794      3806      3792      4236      3936      4019      4023      5066      4973      4971
 -1      2667    6    0    1
 -2      4257      3029      4220      4288      4679      4677      4681      5068      5067      4641
 -1      2668    6    0    1
 -2      2104      2232      4249      4291      2971      4968      4498      4457      4733      4497
 -1      2669    6    0    1
 -2       689      4230      4282      4308      4435      4440      4438      5070      5069      5071
 -1      2670    6    0    1
 -2      4264      4215      4291      4311      5072      4898      4456      4460      4656      4459
 -1      2671    6    0    1
 -2      2149      2232      2104      4264      2808      2971      2984      4577      4872      4455
 -1      2672    6    0    1
 -2      1254      1170       629      4236      1348      5073      4946      4948      4534      4950
 -1      2673    6    0    1
 -2      2247       628      2163      4236      4942      5074      2346      4945      4944      4531
 -1      2674    6    0    1
 -2       655      2152      2246      4244      5075      2397      4648      4649      5076      4572
 -1      2675    6    0    1
 -2       656      1253      1159      4244      4650      1399      5077      4652      4574      5078
 -1      2676    6    0    1
 -2      4271      3802      3820      4292      5080      4008      5079      5081      4661      4662
 -1      2677    6    0    1
 -2      1163      1091      1249      4235      2019      2007      1419      5083      5082      5084
 -1      2678    6    0    1
 -2      2242      2084      2156      4235      2982      3022      2417      5086      5085      5087
 -1      2679    6    0    1
 -2      2162       664      2248      4223      5089      5088      2383      5090      5039      4975
 -1      2680    6    0    1
 -2      2124      2064      4217      4269      2784      4837      4447      4658      5091      4657
 -1      2681    6    0    1
 -2      2156       666      4235      4283      5092      4998      5087      5093      5019      4955
 -1      2682    6    0    1
 -2      3061      3032      4296      4303      3203      5094      4768      4771      5095      4752
 -1      2683    6    0    1
 -2       616       691        86      4228       804       700       803      4835      4544      4545
 -1      2684    6    0    1
 -2      2080      2162      2248      4223      2700      2383      2699      4976      5090      4975
 -1      2685    6    0    1
 -2      1255      1169      1087      4223      1385      1873      1871      4636      4889      4974
 -1      2686    6    0    1
 -2      1174      1247      1082      4286      1294      1952      1953      4394      4392      4828
 -1      2687    6    0    1
 -2      1133      3248      3235      4239      4931      3297      4685      4686      4932      4687
 -1      2688    6    0    1
 -2      1127      1101      4255      4302      1685      5096      4642      4644      5097      4646
 -1      2689    6    0    1
 -2      2210      3796      4245      4256      5099      5029      5098      5100      5030      4568
 -1      2690    6    0    1
 -2      4235       667      1163      4283      5046      5101      5083      4955      5047      5102
 -1      2691    6    0    1
 -2      1142      1194      1117      4232      1903      2001      1275      5103      4847      4848
 -1      2692    6    0    1
 -2      4239      1196      1078      4280      4527      1940      4746      4557      4682      4748
 -1      2693    6    0    1
 -2      2208      3815      4252      4254      5105      4669      5104      5106      4757      4758
 -1      2694    6    0    1
 -2      1189      1132      3064      4304      1452      5107      4874      4720      4977      4877
 -1      2695    6    0    1
 -2      3823      3808      4253      4263      4003      5108      5109      5111      5110      5112
 -1      2696    6    0    1
 -2      1088      1254      1160      4236      1887      1351      1885      5113      4948      4949
 -1      2697    6    0    1
 -2      2247      2081      2153      4236      2853      2850      2349      4945      5114      4867
 -1      2698    6    0    1
 -2      4235       603       682      4253      5115       920      4986      4990      5116      4989
 -1      2699    6    0    1
 -2       683       603      4235      4253       925      5115      4991      4994      5116      4990
 -1      2700    6    0    1
 -2      1258      3248      4239      4280      4930      4932      4745      4747      5117      4557
 -1      2701    6    0    1
 -2      4264      4229      2232      4291      4915      4731      4872      4456      4732      4733
 -1      2702    6    0    1
 -2      4250      4214      4220      4272      4700      4424      4699      5119      5118      5120
 -1      2703    6    0    1
 -2      1122      3791      4230      4242      5121      4397      4590      4589      4396      4395
 -1      2704    6    0    1
 -2      4264      4215      4269      4278      5072      5122      4659      5123      4565      5124
 -1      2705    6    0    1
 -2      4294      1257      4217      4309      4926      4432      5125      5127      5126      5128
 -1      2706    6    0    1
 -2      4260      1059      1261      4276      5130      1986      5129      5132      5131      5133
 -1      2707    6    0    1
 -2      2203      3800      4236      4245      5026      4972      5027      5135      5134      4523
 -1      2708    6    0    1
 -2      4264      2149      4269      4311      4577      5136      4659      4460      4578      4415
 -1      2709    6    0    1
 -2      1162       677       665      4223      4981       759      4633      4635      4831      4634
 -1      2710    6    0    1
 -2      1261      4232      4260      4276      5138      5137      5129      5133      5139      5132
 -1      2711    6    0    1
 -2      3821      3816      3793      4283      4011      4026      3972      4956      4954      5140
 -1      2712    6    0    1
 -2      1217      1094      4245      4256      1818      5141      5142      5144      5143      4568
 -1      2713    6    0    1
 -2      2181      2065      4234      4243      2705      5145      4501      4500      5146      4492
 -1      2714    6    0    1
 -2      2097       630       662      4246      5147       858      4538      4540      4984      4539
 -1      2715    6    0    1
 -2      3828      3820      3788      4228      3849      4007      4006      4583      4584      4922
 -1      2716    6    0    1
 -2      4213      4232      4260      4291      4704      5137      5148      5150      5149      5151
 -1      2717    6    0    1
 -2      4276      1137      4242      4293      5065      5064      4461      5153      5152      5154
 -1      2718    6    0    1
 -2      4225      1196      4280      4309      4526      4682      4555      5156      5155      5157
 -1      2719    6    0    1
 -2       584      1148      1085      4218      4791      1308      4824      4790      4789      4825
 -1      2720    6    0    1
 -2      3804      3830      4244      4263      3984      5158      5159      5161      5160      5162
 -1      2721    6    0    1
 -2      2112      2211      4301      4304      2998      4723      4724      5164      5163      4719
 -1      2722    6    0    1
 -2      4265      1063      1172      4268      5165      1752      4683      4684      5166      4366
 -1      2723    6    0    1
 -2      4265      2165      2056      4268      4763      2718      5167      4684      4762      5168
 -1      2724    6    0    1
 -2       629      1170       633      4236      5073      4533       729      4950      4534      4520
 -1      2725    6    0    1
 -2       628       632      2163      4236       837      4530      5074      4944      4524      4531
 -1      2726    6    0    1
 -2      4226      3805      3799      4246      4796      4012      4882      4490      4799      4883
 -1      2727    6    0    1
 -2      1135      1066      1177      4238      1894      1804      1770      5049      5169      5170
 -1      2728    6    0    1
 -2      4220      4224      4250      4257      4425      4701      4699      4681      4728      5171
 -1      2729    6    0    1
 -2      3038      1129      4267      4270      5173      5172      4814      4817      5174      4816
 -1      2730    6    0    1
 -2      4293      4215      4259      4297      4653      4616      4655      5176      5175      5177
 -1      2731    6    0    1
 -2      4250      1260      4224      4287      5045      5044      4701      5179      5178      4483
 -1      2732    6    0    1
 -2      2166      2252      2065      4267      2707      2706      2708      5181      5180      5182
 -1      2733    6    0    1
 -2      3818      3817      4235      4253      4009      5183      5184      5186      5185      4990
 -1      2734    6    0    1
 -2      3802      3788      3820      4228      3918      4007      4008      4660      4922      4584
 -1      2735    6    0    1
 -2      4223      2162       660      4251      5090      5187      4767      5006      5188      5189
 -1      2736    6    0    1
 -2      3046      3063      2116      4265      3170      4979      5190      5191      4417      4980
 -1      2737    6    0    1
 -2      4244       670      2152      4262      5193      5192      5076      5195      5194      5196
 -1      2738    6    0    1
 -2      1083      1248      4233      4296      1826      4743      4605      4750      5197      4751
 -1      2739    6    0    1
 -2       624       618       658      4227       962       958       822      4383      5198      4784
 -1      2740    6    0    1
 -2      2211      4231      4301      4304      4579      4938      4723      5163      4940      4719
 -1      2741    6    0    1
 -2      3821      2199      4235      4283      5200      5199      4952      4956      5201      4955
 -1      2742    6    0    1
 -2      3247      3266      2142      3234      3373      5202      4779      3402      3382      4778
 -1      2743    6    0    1
 -2      3249      2251      4239      4280      5205      5203      5204      5207      5206      4557
 -1      2744    6    0    1
 -2      4264      2149      2124      4269      4577      2762      4449      4659      5136      4658
 -1      2745    6    0    1
 -2      4217      1257      1071      4309      4432      1908      4714      5128      5126      5208
 -1      2746    6    0    1
 -2      4218       584      4242      4290      4790      4793      4794      5210      5209      5211
 -1      2747    6    0    1
 -2      4053      4052      2181      4234      4168      4673      5212      5012      4672      4501
 -1      2748    6    0    1
 -2      2174      2208      4252      4254      2798      5104      5213      5214      5106      4758
 -1      2749    6    0    1
 -2      3792      3794      4236      4254      4023      5066      4971      5216      5215      4871
 -1      2750    6    0    1
 -2      1147      1155      1057      4273      1702      1701      1700      4336      4561      4873
 -1      2751    6    0    1
 -2      2093      3709      2136      4277      4696      5217      2472      4698      4343      5218
 -1      2752    6    0    1
 -2      3229      3256      3236      4266      3405      3327      3404      4629      4627      5219
 -1      2753    6    0    1
 -2      4226      1104      1207      4246      4485      1861      4797      4490      4488      4798
 -1      2754    6    0    1
 -2       671       596      4244      4262      1022      5220      5221      5223      5222      5195
 -1      2755    6    0    1
 -2      2196      3810      4223      4261      5225      4853      5224      5226      4854      4855
 -1      2756    6    0    1
 -2       579      2241      4233      4296      4901      4903      4904      5228      5227      4751
 -1      2757    6    0    1
 -2      1083      1248      1174      4233      1826      1296      1824      4605      4743      4475
 -1      2758    6    0    1
 -2      4271       637       615      4292      5230       943      5229      5081      4624      5231
 -1      2759    6    0    1
 -2      3035      3069      4219      4301      3191      4819      5232      5233      4820      4725
 -1      2760    6    0    1
 -2      4252      1215      1181      4254      5235      1784      5234      4758      5236      5237
 -1      2761    6    0    1
 -2      2163      2081      2247      4236      2856      2853      2346      4531      5114      4945
 -1      2762    6    0    1
 -2      1088      1170      1254      4236      1890      1348      1887      5113      4534      4948
 -1      2763    6    0    1
 -2      1133      3235      1240      4277      4685      5238      1504      4690      4688      4959
 -1      2764    6    0    1
 -2      2102       690      4228      4292      5241      5239      5240      5243      5242      4663
 -1      2765    6    0    1
 -2      4228      3802      2069      4292      4660      5244      5245      4663      4661      5246
 -1      2766    6    0    1
 -2       669       633      1108      4245       726      5247      5248      5038      4522      5249
 -1      2767    6    0    1
 -2       687      1182      1107      4263      5251      1407      5250      5253      5252      5254
 -1      2768    6    0    1
 -2       686      2100      2175      4263      5256      2403      5255      5258      5257      5259
 -1      2769    6    0    1
 -2      3808      1216      4253      4263      5261      5260      5108      5110      5262      5112
 -1      2770    6    0    1
 -2      4282       622       680      4283      5264       979      5263      5266      5265      5267
 -1      2771    6    0    1
 -2      4223      3819      1203      4261      4852      5268      5269      4855      4856      5270
 -1      2772    6    0    1
 -2      1210      1170      4236      4245      1888      4534      5271      5272      4535      4523
 -1      2773    6    0    1
 -2      2163      2203      4236      4245      2855      5027      4531      4532      5135      4523
 -1      2774    6    0    1
 -2      4244      1211      3804      4263      5274      5273      5159      5162      5275      5161
 -1      2775    6    0    1
 -2      4269      2149      2050      4311      5136      2759      5276      4415      4578      5277
 -1      2776    6    0    1
 -2      3058      2122      3049      4267      5278      4963      3176      5279      4962      4815
 -1      2777    6    0    1
 -2      3789      3798      4223      4251      4005      5280      5281      5283      5282      5006
 -1      2778    6    0    1
 -2      2181      2123      4243      4307      2681      5284      4500      4502      5285      4504
 -1      2779    6    0    1
 -2      4243      1130      1188      4307      5286      1673      4505      4504      5287      4507
 -1      2780    6    0    1
 -2      3254      3247      2142      4266      3376      4779      5288      4879      4780      4781
 -1      2781    6    0    1
 -2      3066      3030      3057      4234      3224      3223      3180      5290      5289      5291
 -1      2782    6    0    1
 -2      3054      3030      3066      4234      3222      3224      3181      5292      5289      5290
 -1      2783    6    0    1
 -2      2174      2099       672      4252      2359      5293      5294      5213      5295      5296
 -1      2784    6    0    1
 -2       569       570      3066      4234       572      3179      3178      5061      5013      5290
 -1      2785    6    0    1
 -2      1198      3039      3061      4303      5297      3116      4770      4666      5298      4771
 -1      2786    6    0    1
 -2      3254      3252      3229      4243      3377      3407      3403      4878      5299      4625
 -1      2787    6    0    1
 -2      4246      3819      3783      4261      5301      3990      5300      5302      4856      5303
 -1      2788    6    0    1
 -2      2241      2076      4233      4296      3009      4951      4903      5227      5304      4751
 -1      2789    6    0    1
 -2      2176       678      2087      4256      4885      5305      2337      4887      4566      5306
 -1      2790    6    0    1
 -2      3807      3803      3787      4282      4018      3978      4016      4809      4808      5307
 -1      2791    6    0    1
 -2      2119      2187      2254      4229      2731      2735      2734      5309      5308      5310
 -1      2792    6    0    1
 -2      3805      1207      3784      4246      4795      5311      3876      4799      4798      5312
 -1      2793    6    0    1
 -2      2195      3806      3794      4236      5314      3936      5313      5315      4973      5066
 -1      2794    6    0    1
 -2      1251       650       689      4282      5316       801      4546      4547      5317      4438
 -1      2795    6    0    1
 -2      4215      4222      4259      4297      4630      4372      4616      5175      5318      5177
 -1      2796    6    0    1
 -2      2200      2097      4226      4246      2861      4537      4881      4884      4540      4490
 -1      2797    6    0    1
 -2      1213      3819      4246      4261      5320      5301      5319      5321      4856      5302
 -1      2798    6    0    1
 -2      1212      1063      1263      4265      1759      1755      1761      4913      5165      4775
 -1      2799    6    0    1
 -2      2056      2205      2256      4265      2715      2725      2724      5167      4851      4610
 -1      2800    6    0    1
 -2       616       637       691      4292       942       703       804      4836      4624      4322
 -1      2801    6    0    1
 -2      4230      1077      1110      4282      5322      1935      4436      4440      5323      4439
 -1      2802    6    0    1
 -2      2052      2143      2130      4289      2750      2744      2752      5325      5324      5326
 -1      2803    6    0    1
 -2      4230      1235      4276      4295      4670      4671      4429      5328      5327      5329
 -1      2804    6    0    1
 -2      4217      4264      4269      4278      4451      4659      4657      4380      5123      5124
 -1      2805    6    0    1
 -2      1127      3710      1101      4302      4833      5330      1685      4644      4834      5097
 -1      2806    6    0    1
 -2      4225      1178      4258      4312      5333      5331      5332      4517      5334      5335
 -1      2807    6    0    1
 -2       673      1106      1181      4252      5337      1360      5336      5339      5338      5234
 -1      2808    6    0    1
 -2       660       661      4223      4251      1037      4766      4767      5189      5005      5006
 -1      2809    6    0    1
 -2      2073        92      4237      4298      5342      5340      5341      5344      5343      5345
 -1      2810    6    0    1
 -2       596       670      4244      4262      1023      5193      5220      5222      5194      5195
 -1      2811    6    0    1
 -2      3714      2241       579      4296      5346      4901      3731      5347      5227      5228
 -1      2812    6    0    1
 -2      4213      4230      4237      4281      4427      4402      5348      4431      4398      4405
 -1      2813    6    0    1
 -2       654       659      1099      4271       709      5349      5350      4895      4893      5351
 -1      2814    6    0    1
 -2      4222      2105      4274      4297      5353      5352      4694      5318      5354      5355
 -1      2815    6    0    1
 -2      1069      1126      1073      4221      1847      1845      1848      4408      4569      5014
 -1      2816    6    0    1
 -2       639       687      1107      4263       780      5250      5356      5357      5253      5254
 -1      2817    6    0    1
 -2       686       638      2100      4263       888      5358      5256      5258      5359      5257
 -1      2818    6    0    1
 -2      1258      1161      3248      4280      1501      5360      4930      4747      4800      5117
 -1      2819    6    0    1
 -2      2188      4225      4275      4306      5363      5361      5362      5365      5364      5366
 -1      2820    6    0    1
 -2       633      1170      1108      4245      4533      1345      5247      4522      4535      5249
 -1      2821    6    0    1
 -2      2163       632      2101      4245      4530      5367      2343      4532      4525      5368
 -1      2822    6    0    1
 -2      4231      2236      4247      4304      5371      5369      5370      4940      5372      5373
 -1      2823    6    0    1
 -2      4234      4055      4052      4307      4617      4206      4672      4503      4619      4674
 -1      2824    6    0    1
 -2      4282       680      2151      4283      5263      5374      5375      5266      5267      5376
 -1      2825    6    0    1
 -2       570      3054      3066      4234      3081      3181      3179      5013      5292      5290
 -1      2826    6    0    1
 -2      3058      3049      3038      4267      3176      3208      3209      5279      4815      4814
 -1      2827    6    0    1
 -2      3036      3715      1140      4296      5379      5377      5378      5381      5380      5382
 -1      2828    6    0    1
 -2      2124      2149      2050      4269      2762      2759      2763      4658      5136      5276
 -1      2829    6    0    1
 -2      3066      3057       569      4234      3180      3075      3178      5290      5291      5061
 -1      2830    6    0    1
 -2      3819      3789      3810      4223      3884      4004      3989      4852      5281      4853
 -1      2831    6    0    1
 -2      3049      3063      3033      4270      3173      3182      3183      4722      4420      4830
 -1      2832    6    0    1
 -2      1065      4266      4267      4270      5384      5023      5383      5385      4370      4816
 -1      2833    6    0    1
 -2       672      2099       642      4252      5293      5386       849      5296      5295      5387
 -1      2834    6    0    1
 -2      4221      1073      3253      4232      5014      5388      5389      5017      5015      5390
 -1      2835    6    0    1
 -2       665       661      1169      4223       762      5004      4888      4634      4766      4889
 -1      2836    6    0    1
 -2      4216      4258      4273      4285      5391      4929      4338      5043      5392      5393
 -1      2837    6    0    1
 -2      1157      1252       637      4292      1323      4623      5394      5395      4321      4624
 -1      2838    6    0    1
 -2      3059      3038      1113      4267      3127      5396      5397      5398      4814      5399
 -1      2839    6    0    1
 -2      3809      1217      4245      4256      5400      5142      5028      5031      5144      4568
 -1      2840    6    0    1
 -2      2141      2078      4218      4290      2306      4838      5401      5403      5402      5210
 -1      2841    6    0    1
 -2      2243       624      2157      4227      4381      5404      2329      4326      4383      4783
 -1      2842    6    0    1
 -2      4239      2251      2071      4280      5203      2829      5405      4557      5206      5406
 -1      2843    6    0    1
 -2      2172       640      4246      4261      5409      5407      5408      5411      5410      5302
 -1      2844    6    0    1
 -2       642       606       672      4252       917       914       849      5387      5412      5296
 -1      2845    6    0    1
 -2       668       632       610      4245       834      1029      1035      5413      4525      4548
 -1      2846    6    0    1
 -2      2235      2129      2057      4239      2836      2957      2906      5415      5414      4352
 -1      2847    6    0    1
 -2      1064      1136      1242      4239      1996      1941      1957      4364      4444      4960
 -1      2848    6    0    1
 -2      2184      3802      4271      4292      5417      5080      5416      5418      4661      5081
 -1      2849    6    0    1
 -2       672       606       607      4252       914       916       915      5296      5412      5419
 -1      2850    6    0    1
 -2      4249      4215      4293      4297      4899      4653      5420      4772      5175      5176
 -1      2851    6    0    1
 -2      3049      2122      2257      4270      4963      2592      4721      4722      4964      4419
 -1      2852    6    0    1
 -2       643      1106       673      4252      5421      5337       741      5422      5338      5339
 -1      2853    6    0    1
 -2      4233       579       580      4286      4904       582      4476      4477      5423      4393
 -1      2854    6    0    1
 -2      1176      1068      1134      4295      1984      1983      1813      5425      5424      5426
 -1      2855    6    0    1
 -2      3817      3816      3818      4235      3902      4010      4009      5183      4953      5184
 -1      2856    6    0    1
 -2      1101      4247      4255      4302      5427      4356      5096      5097      4911      4646
 -1      2857    6    0    1
 -2       667       681      1163      4283       795      5428      5101      5047      5429      5102
 -1      2858    6    0    1
 -2      2246      2152      2082      4244      2397      2691      2692      4572      5076      4571
 -1      2859    6    0    1
 -2      1089      1159      1253      4244      2014      1399      2015      4575      5078      4574
 -1      2860    6    0    1
 -2       607       606       673      4252       916       929       928      5419      5412      5339
 -1      2861    6    0    1
 -2      2062      2066      4229      4284      2728      5430      4917      4919      5431      4918
 -1      2862    6    0    1
 -2      2156       680       666      4283      5432       903      5092      5093      5267      5019
 -1      2863    6    0    1
 -2      1078      1196      1161      4280      1940      1942      1883      4748      4682      4800
 -1      2864    6    0    1
 -2      1090      1164      1250      4227      1931      1331      1928      5434      5433      4737
 -1      2865    6    0    1
 -2      2157      2083      2243      4227      2796      2793      2329      4783      4325      4326
 -1      2866    6    0    1
 -2      4227      3825      2193      4256      5437      5435      5436      4550      5438      5439
 -1      2867    6    0    1
 -2      4220      4216      4224      4257      4602      4334      4425      4681      4727      4728
 -1      2868    6    0    1
 -2      3707      3706      4255      4302      3773      4342      5440      5441      4645      4646
 -1      2869    6    0    1
 -2      3234      3247      3236      4266      3402      3401      3396      4782      4780      5219
 -1      2870    6    0    1
 -2      1149      1172      1103      4266      1713      1751      1781      5442      4368      4468
 -1      2871    6    0    1
 -2       625       659       618      4227       712       961       963      4738      5443      5198
 -1      2872    6    0    1
 -2      1260      1239      1125      4224      1980      1978      1736      5044      5444      4810
 -1      2873    6    0    1
 -2       673       606       643      4252       929       930       741      5339      5412      5422
 -1      2874    6    0    1
 -2      3248      3249      4239      4280      3389      5204      4932      5117      5207      4557
 -1      2875    6    0    1
 -2      1264      1102      1129      4270      1977      1981      1479      5446      5445      5174
 -1      2876    6    0    1
 -2      4230      3807      1077      4282      4806      5447      5322      4440      4809      5323
 -1      2877    6    0    1
 -2      4217      2108      4275      4306      4710      5448      5449      5451      5450      5366
 -1      2878    6    0    1
 -2      2071      2189      4239      4280      2835      4553      5405      5406      4556      4557
 -1      2879    6    0    1
 -2      4232      4221      4260      4291      5017      5452      5137      5149      5453      5151
 -1      2880    6    0    1
 -2      3069      3045      2112      4301      3141      5454      4818      4820      5455      4724
 -1      2881    6    0    1
 -2      3235      3241      1240      4277      3298      5456      5238      4688      5457      4959
 -1      2882    6    0    1
 -2      1131      1071      1233      4273      1906      1905      1698      4377      4715      5458
 -1      2883    6    0    1
 -2      4215      4269      4273      4311      5122      4744      4562      4656      4415      4484
 -1      2884    6    0    1
 -2      3431      3452      4061      3435      3635      5459      5460      3634      3631      5461
 -1      2885    6    0    1
 -2      2183      3069      2112      4219      5462      4818      2569      5463      4819      4604
 -1      2886    6    0    1
 -2      3064      1132      4247      4304      5107      5464      5465      4877      4977      5373
 -1      2887    6    0    1
 -2      2139      3802      2069      4228      5466      5244      2488      5467      4660      5245
 -1      2888    6    0    1
 -2      1100      1242      1133      4277      1956      1936      1782      4454      4961      4690
 -1      2889    6    0    1
 -2      3048      1190      4219      4285      5469      5468      4598      4600      5470      4599
 -1      2890    6    0    1
 -2      3060      3033      1264      4270      3120      5471      5472      5473      4830      5446
 -1      2891    6    0    1
 -2       617       626       646      4262       949       876       952      5475      5474      5476
 -1      2892    6    0    1
 -2      4247      3034      3064      4304      5477      3207      5465      5373      5478      4877
 -1      2893    6    0    1
 -2      4223      2155      2196      4261      4860      2697      5224      4855      4863      5226
 -1      2894    6    0    1
 -2      4247      3042      2234      4302      5481      5479      5480      4911      5482      5483
 -1      2895    6    0    1
 -2      1187      1076      1146      4228      1960      1594      1772      4543      4754      4386
 -1      2896    6    0    1
 -2      3817      1199      4235      4253      5485      5484      5183      5185      5486      4990
 -1      2897    6    0    1
 -2      1153      1093       683      4253      1411      5487      4993      4995      5488      4994
 -1      2898    6    0    1
 -2      2086      2146       682      4253      2409      4987      5489      5490      4988      4989
 -1      2899    6    0    1
 -2      4236      1202      3792      4254      5492      5491      4971      4871      5493      5216
 -1      2900    6    0    1
 -2      3029      3055      4220      4288      3218      5063      4677      5067      5494      4641
 -1      2901    6    0    1
 -2      4249      4215      4297      4311      4899      5175      4772      4499      4656      4774
 -1      2902    6    0    1
 -2      1198      1123      3039      4303      1473      5495      5297      4666      4777      5298
 -1      2903    6    0    1
 -2       691      1187      1186        86      4542      1821      4865       700      4541      5496
 -1      2904    6    0    1
 -2      1249      1153       676      4235      1416      5497      5498      5084      4992      5054
 -1      2905    6    0    1
 -2       674      2146      2242      4235      5500      2414      5499      4996      4985      5086
 -1      2906    6    0    1
 -2      3785      3827      4227      4271      4029      5501      5502      5504      5503      4788
 -1      2907    6    0    1
 -2      4240      2128      4241      4274      5507      5505      5506      5509      5508      4511
 -1      2908    6    0    1
 -2      2198      3785      4227      4271      5511      5502      5510      5512      5504      4788
 -1      2909    6    0    1
 -2      4276      4213      4230      4295      4428      4427      4429      5329      5513      5328
 -1      2910    6    0    1
 -2      3783      2206      4246      4261      5515      5514      5300      5303      5516      5302
 -1      2911    6    0    1
 -2       620       603       683      4253       919       925       924      5517      5116      4994
 -1      2912    6    0    1
 -2       682       603       620      4253       920       919       921      4989      5116      5517
 -1      2913    6    0    1
 -2      2181      2107      4053      4234      2682      5010      5212      4501      5011      5012
 -1      2914    6    0    1
 -2      4282       681       622      4283      5518       982      5264      5266      5429      5265
 -1      2915    6    0    1
 -2      4269      4215      4273      4278      5122      4562      4744      5124      4565      4379
 -1      2916    6    0    1
 -2      1074      1125      1067      4224      1730      1798      1797      4811      4810      4434
 -1      2917    6    0    1
 -2      2130      2232      2052      4289      2968      2967      2752      5326      4730      5325
 -1      2918    6    0    1
 -2      1135      1058      1260      4287      1865      1989      1988      5051      5519      5178
 -1      2919    6    0    1
 -2      1129      3060      1264      4270      5520      5472      1479      5174      5473      5446
 -1      2920    6    0    1
 -2      1101      1241      4247      4302      1738      4907      5427      5097      4910      4911
 -1      2921    6    0    1
 -2      3800      3796      3809      4245      3930      3998      3997      5134      5029      5028
 -1      2922    6    0    1
 -2      3829      3825      4227      4256      4000      5437      5521      5522      5438      4550
 -1      2923    6    0    1
 -2      4217      4269      4273      4278      4657      4744      4376      4380      5124      4379
 -1      2924    6    0    1
 -2      3253      1152      4221      4294      5523      4631      5389      5524      4924      4925
 -1      2925    6    0    1
 -2      2200      3790      3799      4226      5525      3945      4880      4881      5526      4882
 -1      2926    6    0    1
 -2      1172      1102      4265      4270      1760      5527      4683      4369      5445      4421
 -1      2927    6    0    1
 -2      3789      3798      3810      4223      4005      3954      4004      5281      5280      4853
 -1      2928    6    0    1
 -2      2189      2129      2071      4239      2834      2833      2835      4553      5414      5405
 -1      2929    6    0    1
 -2      1136      1196      1078      4239      1938      1940      1939      4444      4527      4746
 -1      2930    6    0    1
 -2      3238      2229      2132      3720      5529      2479      5528      5531      5530      5532
 -1      2931    6    0    1
 -2      1068      1117      4232      4295      2026      4848      4849      5424      5533      5534
 -1      2932    6    0    1
 -2      4236      3794      2195      4254      5066      5313      5315      4871      5215      5535
 -1      2933    6    0    1
 -2      2138      4230      4237      4308      4403      4402      4401      5536      5069      5537
 -1      2934    6    0    1
 -2      1151      1058      1135      4287      1866      1865      1864      5052      5519      5051
 -1      2935    6    0    1
 -2      4255      2120      3707      4302      5539      5538      5440      4646      5540      5441
 -1      2936    6    0    1
 -2      3823      3808      3817      4253      4003      3899      4002      5109      5108      5185
 -1      2937    6    0    1
 -2       656       671       605      4244       774      1020      1017      4652      5221      5541
 -1      2938    6    0    1
 -2       605       670       655      4244      1019       882      1015      5541      5193      4649
 -1      2939    6    0    1
 -2      3039      1123      4265      4303      5495      4776      5542      5298      4777      4614
 -1      2940    6    0    1
 -2      3236      3254      3229      4266      3400      3403      3404      5219      4879      4629
 -1      2941    6    0    1
 -2      2139      3788      3802      4228      5543      3918      5466      5467      4922      4660
 -1      2942    6    0    1
 -2      1065      1172      4266      4270      1710      4368      5384      5385      4369      4370
 -1      2943    6    0    1
 -2      2154      2251      3267      4280      2614      5544      5545      5546      5206      5547
 -1      2944    6    0    1
 -2      2169      2127      2061      4298      2815      2814      2809      5549      5548      5550
 -1      2945    6    0    1
 -2      3804      3808      3830      4263      3896      3986      3984      5161      5110      5160
 -1      2946    6    0    1
 -2      4228      2054      4240      4279      5553      5551      5552      5555      5554      5556
 -1      2947    6    0    1
 -2      1123      1102      1264      4265      1756      1977      1476      4776      5527      5557
 -1      2948    6    0    1
 -2      2257      2095      2116      4265      3003      2720      2589      4416      4585      4980
 -1      2949    6    0    1
 -2      4266      2058      4267      4270      5559      5558      5023      4370      5560      4816
 -1      2950    6    0    1
 -2      4053       570      4040      4234      5009      5561      4165      5012      5013      5562
 -1      2951    6    0    1
 -2      2061      2127      2254      4289      2814      2817      2816      5564      5563      5565
 -1      2952    6    0    1
 -2      2201      3790      4226      4252      5567      5526      5566      5569      5568      5570
 -1      2953    6    0    1
 -2      2073      2159        92      4298      2839      5571      5342      5344      5572      5343
 -1      2954    6    0    1
 -2      2108      4217      4275      4284      4710      5449      5448      4712      4713      5573
 -1      2955    6    0    1
 -2       655       670      2152      4244       882      5192      5075      4649      5193      5076
 -1      2956    6    0    1
 -2       656      1159       671      4244      5077      5574       774      4652      5078      5221
 -1      2957    6    0    1
 -2      2169      2073      4237      4298      2841      5341      5575      5549      5344      5345
 -1      2958    6    0    1
 -2      1091      1153      1249      4235      2006      1416      2007      5082      4992      5084
 -1      2959    6    0    1
 -2      2242      2146      2084      4235      2414      2981      2982      5086      4985      5085
 -1      2960    6    0    1
 -2      1157       637      4271      4292      5394      5230      5576      5395      4624      5081
 -1      2961    6    0    1
 -2      1261      1238      1059      4260      1853      1997      1986      5129      5577      5130
 -1      2962    6    0    1
 -2      1163      1206      1091      4235      1955      2020      2019      5083      5578      5082
 -1      2963    6    0    1
 -2      1250      1164       625      4227      1331      5579      4735      4737      5433      4738
 -1      2964    6    0    1
 -2      2186      2134      2067      4220      2914      2561      2894      5581      5580      5582
 -1      2965    6    0    1
 -2       584      3824      1084      4242      3836      5583      5584      4793      5585      5586
 -1      2966    6    0    1
 -2      3069      3047      3035      4219      3138      3193      3191      4819      5587      5232
 -1      2967    6    0    1
 -2      1260      1239      4224      4287      1980      5444      5044      5178      5588      4483
 -1      2968    6    0    1
 -2      3807      1145      3791      4230      5590      5589      3911      4806      5591      4397
 -1      2969    6    0    1
 -2      1203      3789      3819      4223      5592      3884      5268      5269      5281      4852
 -1      2970    6    0    1
 -2      1139      1247      3717      4286      1694      4957      5593      5594      4392      4958
 -1      2971    6    0    1
 -2      1139      3244      1197      4286      5596      5595      1521      5594      5597      4473
 -1      2972    6    0    1
 -2      3793      2199      3821      4283      5598      5200      3972      5140      5201      4956
 -1      2973    6    0    1
 -2      1209      3789      4223      4251      5600      5281      5599      5601      5283      5006
 -1      2974    6    0    1
 -2      3811      3822      4244      4262      3987      5602      5603      5605      5604      5195
 -1      2975    6    0    1
 -2      2101       632       668      4245      5367       834      5606      5368      4525      5413
 -1      2976    6    0    1
 -2      2185      3787      4282      4283      5608      5307      5607      5610      5609      5266
 -1      2977    6    0    1
 -2       605       671       596      4244      1020      1022      1021      5541      5221      5220
 -1      2978    6    0    1
 -2       596       670       605      4244      1023      1019      1021      5220      5193      5541
 -1      2979    6    0    1
 -2      4269      2064      4217      4306      5091      4837      4657      5612      5611      5451
 -1      2980    6    0    1
 -2      3720      2132      3238      4286      5532      5528      5531      5614      5613      5615
 -1      2981    6    0    1
 -2      2130      2143      4281      4289      2744      5616      5617      5326      5324      5618
 -1      2982    6    0    1
 -2      3238      3260      2229      3720      3361      5619      5529      5531      5620      5530
 -1      2983    6    0    1
 -2      3706      3709      3707      4255      3774      3746      3773      4342      4341      5440
 -1      2984    6    0    1
 -2      1193      1125      1074      4250      1728      1730      1729      5621      4812      4813
 -1      2985    6    0    1
 -2      3801      3811      4251      4262      3988      5622      5623      5624      5605      5625
 -1      2986    6    0    1
 -2       679      1094       652      4256      5627      5626       720      4567      5143      5628
 -1      2987    6    0    1
 -2      4217      1071      4258      4309      4714      4928      4927      5128      5208      5629
 -1      2988    6    0    1
 -2      3818      3816      3821      4235      4010      4011      3969      5184      4953      4952
 -1      2989    6    0    1
 -2      4032      3443      3475      3435      5631      3629      5630      5632      3628      3627
 -1      2990    6    0    1
 -2      4247      3043      3042      4302      4906      3186      5481      4911      4909      5482
 -1      2991    6    0    1
 -2       640      2090       675      4261      5634      5633       864      5410      5635      4864
 -1      2992    6    0    1
 -2      4055      4040       569      4234      4122      5636      5060      4617      5562      5061
 -1      2993    6    0    1
 -2       649      1096       636      4254      5638      5637       735      5640      5639      5641
 -1      2994    6    0    1
 -2      2089       648       634      4254      5643       843      5642      5645      5644      4869
 -1      2995    6    0    1
 -2      1197      3244      3264      4286      5595      3313      4471      4473      5597      4472
 -1      2996    6    0    1
 -2      4217      4221      4264      4278      5647      5646      4451      4380      4412      5123
 -1      2997    6    0    1
 -2      1188      1072      1130      4243      1715      1714      1673      4505      5648      5286
 -1      2998    6    0    1
 -2      2181      2123      2065      4243      2681      2704      2705      4500      5284      5146
 -1      2999    6    0    1
 -2      4040       570       569      4234      5561       572      5636      5562      5013      5061
 -1      3000    6    0    1
 -2      1241      3037      3043      4302      5649      3101      4908      4910      5650      4909
 -1      3001    6    0    1
 -2      1198      1140      1083      4296      1470      1828      1827      4769      5382      4750
 -1      3002    6    0    1
 -2      3798      2202      4223      4251      5652      5651      5280      5282      5653      5006
 -1      3003    6    0    1
 -2      4224      1074      4250      4257      4811      4813      4701      4728      5654      5171
 -1      3004    6    0    1
 -2      1078      1258      1133      4239      1881      1506      1882      4746      4745      4686
 -1      3005    6    0    1
 -2      2126      2251      2071      4239      2619      2829      2830      5655      5203      5405
 -1      3006    6    0    1
 -2      1110      1077      1251      4282      1935      1933      1432      4439      5323      4547
 -1      3007    6    0    1
 -2      3033      3063      3046      4265      3182      3170      3184      4829      4417      5191
 -1      3008    6    0    1
 -2       585       584      4218      4290       587      4790      5656      5657      5209      5210
 -1      3009    6    0    1
 -2      4249      4213      4260      4291      5659      5148      5658      4497      5150      5151
 -1      3010    6    0    1
 -2      1140      1248      1083      4296      1681      1826      1828      5382      5197      4750
 -1      3011    6    0    1
 -2      3825      3785      3827      4227      3924      4029      4028      5437      5502      5501
 -1      3012    6    0    1
 -2      2054      2170      4240      4279      2823      5660      5551      5554      5661      5556
 -1      3013    6    0    1
 -2      3795      3803      3791      4281      3979      4017      4022      4760      4937      4399
 -1      3014    6    0    1
 -2       671      1095       647      4262      5663      5662       771      5223      5664      5665
 -1      3015    6    0    1
 -2      4259      4218      4293      4297      4897      5666      4655      5177      5667      5176
 -1      3016    6    0    1
 -2      2087       678       651      4256      5305       828      5668      5306      4566      4703
 -1      3017    6    0    1
 -2      2133      3711      2230      3036      5670      5669      2455      5672      5671      5673
 -1      3018    6    0    1
 -2      4058      3443      4032      3435      5674      5631      4210      5675      3628      5632
 -1      3019    6    0    1
 -2      2165      2058      4266      4270      2991      5559      5676      4764      5560      4370
 -1      3020    6    0    1
 -2      3451      3459      4032      3431      3599      5677      5678      3633      3643      5679
 -1      3021    6    0    1
 -2      3802      3820      3785      4271      4008      4027      3921      5080      5079      5504
 -1      3022    6    0    1
 -2      4243      3268      3251      4307      5681      3380      5680      4504      5682      5683
 -1      3023    6    0    1
 -2      3252      3268      4243      4307      3381      5681      5299      5684      5682      4504
 -1      3024    6    0    1
 -2      3817      3808      1216      4253      3899      5261      5685      5185      5108      5260
 -1      3025    6    0    1
 -2      1169       661      1105      4251      5004      5686      1390      5007      5005      5687
 -1      3026    6    0    1
 -2      4258      4217      4269      4273      4927      4657      5688      4929      4376      4744
 -1      3027    6    0    1
 -2      4231      2072      2236      4304      5689      2904      5371      4940      5690      5372
 -1      3028    6    0    1
 -2      3265      3232      3709      3239      3412      5691      5692      3355      3411      5693
 -1      3029    6    0    1
 -2      2252      2181      2065      4234      2709      2705      2706      5694      4501      5145
 -1      3030    6    0    1
 -2      4243      1173      1120      4266      5021      1707      4822      4628      5020      4823
 -1      3031    6    0    1
 -2      4216      4258      4269      4273      5391      5688      4413      4338      4929      4744
 -1      3032    6    0    1
 -2      3038      3060      1129      4270      3125      5520      5173      4817      5473      5174
 -1      3033    6    0    1
 -2      4224      1239      4259      4287      5444      5695      4373      4483      5588      4845
 -1      3034    6    0    1
 -2      4260      1137      1059      4276      5696      1879      5130      5132      5065      5131
 -1      3035    6    0    1
 -2      1071      1178      4258      4309      1787      5331      4928      5208      5697      5629
 -1      3036    6    0    1
 -2      2080      2155      2196      4223      2698      2697      2696      4976      4860      5224
 -1      3037    6    0    1
 -2      1203      1162      1087      4223      1868      1870      1869      5269      4635      4974
 -1      3038    6    0    1
 -2       595       665       611      4223      1013      1012       912      4765      4634      4832
 -1      3039    6    0    1
 -2      1088      1160      1202      4236      1885      1884      1886      5113      4949      5492
 -1      3040    6    0    1
 -2      2081      2195      2153      4236      2852      2851      2850      5114      5315      4867
 -1      3041    6    0    1
 -2      3041      3036      1140      4296      3109      5378      5698      5699      5381      5382
 -1      3042    6    0    1
 -2       646      2088       670      4262      5701      5700       879      5476      5702      5194
 -1      3043    6    0    1
 -2       675       612       640      4261       932       934       864      4864      5703      5410
 -1      3044    6    0    1
 -2       608       636       600      4254       996       995       994      5704      5641      4934
 -1      3045    6    0    1
 -2       634       608       600      4254       992       994       993      4869      5704      4934
 -1      3046    6    0    1
 -2      2128      2051      2144      4274      2773      2951      2950      5508      5705      5706
 -1      3047    6    0    1
 -2      4215      4222      4297      4311      4630      5318      5175      4656      4332      4774
 -1      3048    6    0    1
 -2      2117      2205      2056      4268      2716      2715      2712      5708      5707      5168
 -1      3049    6    0    1
 -2      1212      1124      1063      4268      1758      1749      1759      5709      4464      5166
 -1      3050    6    0    1
 -2      3817      1199      3816      4235      5485      5710      3902      5183      5484      4953
 -1      3051    6    0    1
 -2      3038      3049      3033      4270      3208      3183      3187      4817      4722      4830
 -1      3052    6    0    1
 -2      3784      1213      3819      4246      5711      5320      3881      5312      5319      5301
 -1      3053    6    0    1
 -2      3797      1207      3805      4226      5712      4795      3878      5713      4797      4796
 -1      3054    6    0    1
 -2      1104      1207      1165      4226      1861      1854      1373      4485      4797      4595
 -1      3055    6    0    1
 -2      2158      2200      2097      4226      2741      2861      2371      4593      4881      4537
 -1      3056    6    0    1
 -2      1214      3801      4251      4262      5715      5623      5714      5716      5624      5625
 -1      3057    6    0    1
 -2      4253      2209      3823      4263      5718      5717      5109      5112      5719      5111
 -1      3058    6    0    1
 -2      1100      1133      1240      4277      1782      1504      1783      4454      4690      4959
 -1      3059    6    0    1
 -2      3048      3068      3035      4219      3087      3199      3200      4598      5720      5232
 -1      3060    6    0    1
 -2      3452      4058      4061      3435      5721      4088      5459      3631      5675      5461
 -1      3061    6    0    1
 -2      2210      3796      3800      4245      5099      3930      5722      5098      5029      5134
 -1      3062    6    0    1
 -2      3442       590      4039       589      5724      4186      5723      5725       592      4185
 -1      3063    6    0    1
 -2      3819      3810      3783      4261      3989      3951      3990      4856      4854      5303
 -1      3064    6    0    1
 -2      2183      3047      4219      4288      5726      5587      5463      5728      5727      5729
 -1      3065    6    0    1
 -2      2095      2165      4265      4270      2722      4763      4585      4586      4764      4421
 -1      3066    6    0    1
 -2      4251      2173       626      4262      5732      5730      5731      5625      5733      5474
 -1      3067    6    0    1
 -2      4251       627      1180      4262      5736      5734      5735      5625      5737      5738
 -1      3068    6    0    1
 -2      1208      1086      1207      4226      1859      1856      1621      5739      4318      4797
 -1      3069    6    0    1
 -2      2079      2201      2200      4226      2736      2516      2742      4315      5566      4881
 -1      3070    6    0    1
 -2       649       636       608      4254       735       996      1025      5640      5641      5704
 -1      3071    6    0    1
 -2       634       648       608      4254       843      1026       992      4869      5644      5704
 -1      3072    6    0    1
 -2      1176      1117      1068      4295      1943      2026      1984      5425      5533      5424
 -1      3073    6    0    1
 -2       585       584      3831      4218       587      3980      3842      5656      4790      4803
 -1      3074    6    0    1
 -2       584      1084      1148      4242      5584      1306      4791      4793      5586      4792
 -1      3075    6    0    1
 -2      2183      3047      3069      4219      5726      3138      5462      5463      5587      4819
 -1      3076    6    0    1
 -2      1128      3048      4257      4285      5741      4597      5740      5742      4600      4601
 -1      3077    6    0    1
 -2      2061      2127      4289      4298      2814      5563      5564      5550      5548      5743
 -1      3078    6    0    1
 -2      2198      3785      3825      4227      5511      3924      5744      5510      5502      5437
 -1      3079    6    0    1
 -2       624       658      2157      4227       822      4785      5404      4383      4784      4783
 -1      3080    6    0    1
 -2      4260      1137      4276      4293      5696      5065      5132      5745      5152      5153
 -1      3081    6    0    1
 -2      2152       670      2088      4262      5192      5700      2394      5196      5194      5702
 -1      3082    6    0    1
 -2      1152      1073      3253      4221      1488      5388      5523      4631      5014      5389
 -1      3083    6    0    1
 -2      4238      1066      1177      4305      5169      1804      5170      5747      5746      5748
 -1      3084    6    0    1
 -2       671       647       596      4262       771       956      1022      5223      5665      5222
 -1      3085    6    0    1
 -2       580       579      3717      4286       582      3767      3725      4393      5423      4958
 -1      3086    6    0    1
 -2      2195      2153      4236      4254      2851      4867      5315      5535      4870      4871
 -1      3087    6    0    1
 -2      1160      1202      4236      4254      1884      5492      4949      5749      5493      4871
 -1      3088    6    0    1
 -2      3790      3797      4226      4252      4013      5713      5526      5568      5750      5570
 -1      3089    6    0    1
 -2      3810      3798      2202      4223      3954      5652      5751      4853      5280      5651
 -1      3090    6    0    1
 -2      2202      2162      4223      4251      2701      5090      5651      5653      5188      5006
 -1      3091    6    0    1
 -2      4223      1169      1209      4251      4889      1872      5599      5006      5007      5601
 -1      3092    6    0    1
 -2      3718      3717      3720      4286      3766      3769      3775      5752      4958      5614
 -1      3093    6    0    1
 -2      3462       589      3432      4057      5754      5753      3662      5755      4071      5756
 -1      3094    6    0    1
 -2      3715      3036      3711      4296      5379      5671      3776      5380      5381      5757
 -1      3095    6    0    1
 -2      1071      1195      1178      4309      1790      1789      1787      5208      5758      5697
 -1      3096    6    0    1
 -2      2090      2155       675      4261      2377      4862      5633      5635      4863      4864
 -1      3097    6    0    1
 -2      4247      2094      4255      4302      5760      5759      4356      4911      5761      4646
 -1      3098    6    0    1
 -2      4237      4213      4289      4298      5348      5762      5763      5345      5764      5743
 -1      3099    6    0    1
 -2       589      3432      3442      3462      5753      3659      5725      5754      3662      3660
 -1      3100    6    0    1
 -2      3821      2192      3818      4235      5766      5765      3969      4952      5767      5184
 -1      3101    6    0    1
 -2      3058      2106      2122      4267      5768      2594      5278      5279      5769      4962
 -1      3102    6    0    1
 -2      1175      3256      3251      4243      5771      3328      5770      5772      4626      5680
 -1      3103    6    0    1
 -2      1151      4238      4248      4287      5050      4389      5773      5052      5053      4846
 -1      3104    6    0    1
 -2      3794      3814      3815      4254      4024      3995      3939      5215      4756      4757
 -1      3105    6    0    1
 -2      2113      3254      2142      4266      5040      5288      2639      5042      4879      4781
 -1      3106    6    0    1
 -2      4249      2130      4281      4289      5775      5617      5774      4969      5326      5618
 -1      3107    6    0    1
 -2      4258      1118      4273      4285      5777      5776      4929      5392      4693      5393
 -1      3108    6    0    1
 -2      1203      1162      4223      4261      1868      4635      5269      5270      4983      4855
 -1      3109    6    0    1
 -2      2175      2209      4253      4263      2936      5718      5778      5259      5719      5112
 -1      3110    6    0    1
 -2      1216      1182      4253      4263      1901      5779      5260      5262      5252      5112
 -1      3111    6    0    1
 -2      3059      1113      1204      4267      5397      1483      5780      5398      5399      5781
 -1      3112    6    0    1
 -2      1199      1153      4235      4253      2004      4992      5484      5486      4995      4990
 -1      3113    6    0    1
 -2      2146      2192      4235      4253      2978      5767      4985      4988      5782      4990
 -1      3114    6    0    1
 -2      3784      3819      3783      4246      3881      3990      3991      5312      5301      5300
 -1      3115    6    0    1
 -2      2054      4228      4240      4241      5553      5552      5551      5783      4920      5506
 -1      3116    6    0    1
 -2      1135      1234      1151      4238      1774      1862      1864      5049      5784      5050
 -1      3117    6    0    1
 -2       601       602       666      4283      1002      1004      1003      5785      5018      5019
 -1      3118    6    0    1
 -2      1060      1178      4225      4312      1791      5333      5786      5787      5334      4517
 -1      3119    6    0    1
 -2      3791      3803      3807      4230      4017      4018      3911      4397      4807      4806
 -1      3120    6    0    1
 -2      4249      2232      2130      4289      4968      2968      5775      4969      4730      5326
 -1      3121    6    0    1
 -2      2062      2066      2119      4229      2728      2727      2726      4917      5430      5309
 -1      3122    6    0    1
 -2      2172      2090       640      4261      2376      5634      5409      5411      5635      5410
 -1      3123    6    0    1
 -2      3802      3785      2184      4271      3921      5788      5417      5080      5504      5416
 -1      3124    6    0    1
 -2      3450      3443      4060      4066      3700      5789      5790      5792      5791      4188
 -1      3125    6    0    1
 -2      3431      4061      3460      3436      5460      5793      3645      3642      5794      3644
 -1      3126    6    0    1
 -2      3720      3238      3260      3233      5531      3361      5620      5795      3416      3417
 -1      3127    6    0    1
 -2      3461       448      4064       590      3606      5796      5797      5799      5798      4077
 -1      3128    6    0    1
 -2      3234      3236      3258      4266      3396      3326      3319      4782      5219      5800
 -1      3129    6    0    1
 -2      2170      2128      2054      4240      2944      2943      2823      5660      5507      5551
 -1      3130    6    0    1
 -2      3787      3812      4282      4283      4015      5801      5307      5609      5802      5266
 -1      3131    6    0    1
 -2      2066      3250      4229      4284      5804      5803      5430      5431      5805      4918
 -1      3132    6    0    1
 -2       601       667       602      4283      1006      1005      1002      5785      5047      5018
 -1      3133    6    0    1
 -2      2089       634      2153      4254      5642      4868      2354      5645      4869      4870
 -1      3134    6    0    1
 -2       636      1096      1160      4254      5637      1356      5806      5641      5639      5749
 -1      3135    6    0    1
 -2      4275      2108      2188      4306      5448      2788      5362      5366      5450      5365
 -1      3136    6    0    1
 -2       590      4064      3461      4039      4077      5797      5799      4186      4142      5807
 -1      3137    6    0    1
 -2      3240      2117      2258      4268      5809      2633      5808      5810      5708      5811
 -1      3138    6    0    1
 -2      2185      3793      3787      4283      5812      3975      5608      5610      5140      5609
 -1      3139    6    0    1
 -2      3822      1201      4244      4262      5814      5813      5602      5604      5815      5195
 -1      3140    6    0    1
 -2      2252      2197      4234      4267      3020      5816      5694      5180      5817      4495
 -1      3141    6    0    1
 -2      1204      1259      4234      4267      1969      4493      5818      5781      4494      4495
 -1      3142    6    0    1
 -2      3827      1205      4227      4271      5820      5819      5501      5503      5821      4788
 -1      3143    6    0    1
 -2      2071      2235      2126      4239      2832      2831      2830      5405      5415      5655
 -1      3144    6    0    1
 -2      1078      1133      1242      4239      1882      1936      1937      4746      4686      4960
 -1      3145    6    0    1
 -2      3251      3256      3229      4243      3328      3405      3408      5680      4626      4625
 -1      3146    6    0    1
 -2      3431      4061      4032      3435      5460      4100      5679      3634      5461      5632
 -1      3147    6    0    1
 -2      3047      3048      3035      4219      3201      3200      3193      5587      4598      5232
 -1      3148    6    0    1
 -2      1217      1094      1183      4245      1818      1337      1817      5142      5141      5822
 -1      3149    6    0    1
 -2      3236      3247      3254      4266      3401      3376      3400      5219      4780      4879
 -1      3150    6    0    1
 -2      3432      3442      4039       589      3659      5723      5823      5753      5725      4185
 -1      3151    6    0    1
 -2      3068      3035      4219      4301      3199      5232      5720      5824      5233      4725
 -1      3152    6    0    1
 -2       627      1105       661      4251      5825      5686       765      5736      5687      5005
 -1      3153    6    0    1
 -2      3801      3822      3811      4262      3890      3987      3988      5624      5604      5605
 -1      3154    6    0    1
 -2      1176      1080      1117      4295      1805      1944      1943      5425      5826      5533
 -1      3155    6    0    1
 -2      4297      2148      2104      4311      5827      2983      4773      4774      5828      4458
 -1      3156    6    0    1
 -2      4229      4221      4264      4284      5829      5646      4915      4918      5830      4914
 -1      3157    6    0    1
 -2      4039      3461       590      3442      5807      5799      4186      5723      3657      5724
 -1      3158    6    0    1
 -2      3048      1190      3068      4219      5469      5831      3087      4598      5468      5720
 -1      3159    6    0    1
 -2      2194      3811      4244      4262      5833      5603      5832      5834      5605      5195
 -1      3160    6    0    1
 -2      3799      3790      3805      4226      3945      4014      4012      4882      5526      4796
 -1      3161    6    0    1
 -2      4235      2192      3818      4253      5767      5765      5184      4990      5782      5186
 -1      3162    6    0    1
 -2      3457      4031      3440      3465      5836      5835      3655      3541      5837      3704
 -1      3163    6    0    1
 -2      3707      3710      3706      4302      3781      3759      3773      5441      4834      4645
 -1      3164    6    0    1
 -2      1077      1145      3807      4230      1656      5590      5447      5322      5591      4806
 -1      3165    6    0    1
 -2       642      2099      2161      4252      5386      2360      5838      5387      5295      5839
 -1      3166    6    0    1
 -2      3484       575      4044       574      3618      5840      5841      3617       577      5842
 -1      3167    6    0    1
 -2       589      4039      3432      4057      4185      5823      5753      4071      4187      5756
 -1      3168    6    0    1
 -2      1126      1194      1073      4232      1844      1846      1845      5016      4847      5015
 -1      3169    6    0    1
 -2       625      1164       659      4227      5579      5843       712      4738      5433      5443
 -1      3170    6    0    1
 -2      4235      1206      3816      4283      5578      5844      4953      4955      5845      4954
 -1      3171    6    0    1
 -2      3235      3248      3249      4239      3297      3389      3347      4687      4932      5204
 -1      3172    6    0    1
 -2       690        87      2179      4228       692      5846      5847      5239      5848      5849
 -1      3173    6    0    1
 -2      4041      3467      3438      3474      5851      3680      5850      5852      3553      3681
 -1      3174    6    0    1
 -2      1214      3822      3801      4262      5853      3890      5715      5716      5604      5624
 -1      3175    6    0    1
 -2      1196      1092      4280      4309      2018      5854      4682      5155      5855      5157
 -1      3176    6    0    1
 -2      3815      2208      3794      4254      5105      5856      3939      4757      5106      5215
 -1      3177    6    0    1
 -2      1113      3038      1129      4267      5396      5173      1481      5399      4814      5172
 -1      3178    6    0    1
 -2      4282       623       689      4308      5857       809      4438      5071      5858      5070
 -1      3179    6    0    1
 -2      3804      1211      3808      4263      5273      5859      3896      5161      5275      5110
 -1      3180    6    0    1
 -2       651      2147      2087      4256      4702      2336      5668      4703      4549      5306
 -1      3181    6    0    1
 -2      1163       681      1098      4283      5428      5860      1424      5102      5429      5861
 -1      3182    6    0    1
 -2      3251      3268       574      4307      3380      3379      3275      5683      5682      5862
 -1      3183    6    0    1
 -2      2135      2187      4229      4298      2818      5308      5863      5865      5864      5866
 -1      3184    6    0    1
 -2      4278      4221      4264      4291      4412      5646      5123      5867      5453      4456
 -1      3185    6    0    1
 -2       681       667       601      4283       795      1006       981      5429      5047      5785
 -1      3186    6    0    1
 -2      3239      3232      3709      3713      3411      5691      5693      5869      5868      3772
 -1      3187    6    0    1
 -2        92      2073      4237      4308      5342      5341      5340      5871      5870      5537
 -1      3188    6    0    1
 -2      4247      1064      1101      4255      4363      1837      5427      4356      4365      5096
 -1      3189    6    0    1
 -2       680       601       666      4283       980      1003       903      5267      5785      5019
 -1      3190    6    0    1
 -2       643      1168      1106      4252      5872      1362      5421      5422      5873      5338
 -1      3191    6    0    1
 -2      2112      2182      2211      4304      2568      2999      2998      5164      5874      5163
 -1      3192    6    0    1
 -2      2235      2126      4239      4277      2831      5655      5415      5876      5875      4689
 -1      3193    6    0    1
 -2       660      2098       626      4251      5878      5877       873      5189      5879      5731
 -1      3194    6    0    1
 -2      3064      3034      3040      4304      3207      3202      3093      4877      5478      4876
 -1      3195    6    0    1
 -2      1069      1073      1152      4221      1848      1488      1904      4408      5014      4631
 -1      3196    6    0    1
 -2      1079      1136      1243      4231      1993      1994      1982      4939      4441      5880
 -1      3197    6    0    1
 -2      2236      2129      2072      4231      2958      2961      2904      5371      5881      5689
 -1      3198    6    0    1
 -2      3783      3810      2196      4261      3951      5225      5882      5303      4854      5226
 -1      3199    6    0    1
 -2      2101      2203      2163      4245      3028      2855      2343      5368      5135      4532
 -1      3200    6    0    1
 -2      1210      1108      1170      4245      1958      1345      1888      5272      5249      4535
 -1      3201    6    0    1
 -2      2073      2055      2169      4237      2846      2847      2841      5341      5883      5575
 -1      3202    6    0    1
 -2       657      2244       623      4282      5885      5884       908      5887      5886      5857
 -1      3203    6    0    1
 -2      2053      2211      2129      4231      2964      2960      2963      4514      4579      5881
 -1      3204    6    0    1
 -2      2208      2099      2174      4252      2797      2359      2798      5104      5295      5213
 -1      3205    6    0    1
 -2      1115      1257      4294      4309      1925      4926      5888      5889      5126      5127
 -1      3206    6    0    1
 -2       664       595       611      4223       911       912       910      5039      4765      4832
 -1      3207    6    0    1
 -2      3485      4036      3448      4035      5891      5890      3581      5892      4176      5893
 -1      3208    6    0    1
 -2       650       681       622      4282       798       982       974      5317      5518      5264
 -1      3209    6    0    1
 -2       598       645       599      4226       991       990       989      4941      5037      5894
 -1      3210    6    0    1
 -2       644       598       599      4226       987       989       988      5034      4941      5894
 -1      3211    6    0    1
 -2      4267      1129      1065      4270      5172      1709      5383      4816      5174      5385
 -1      3212    6    0    1
 -2      2094      2120      4255      4302      2466      5539      5759      5761      5540      4646
 -1      3213    6    0    1
 -2      2091       680      2156      4283      5895      5432      2422      5896      5267      5093
 -1      3214    6    0    1
 -2      1210      1170      1088      4236      1888      1890      1889      5271      4534      5113
 -1      3215    6    0    1
 -2      2163      2203      2081      4236      2855      2854      2856      4531      5027      5114
 -1      3216    6    0    1
 -2      3485       575      4044      3484      3500      5840      5897      3619      3618      5841
 -1      3217    6    0    1
 -2       646       670       596      4262       879      1023       954      5476      5194      5222
 -1      3218    6    0    1
 -2      3830      2204      4244      4263      5899      5898      5158      5160      5900      5162
 -1      3219    6    0    1
 -2       652       678       679      4256      1043      1041       720      5628      4566      4567
 -1      3220    6    0    1
 -2       652      1154       614      4256      5902      5901       717      5628      5903      4665
 -1      3221    6    0    1
 -2      2251      3249      3267      4280      5205      3344      5544      5206      5207      5547
 -1      3222    6    0    1
 -2      4224      4214      4250      4287      4426      4700      4701      4483      4481      5179
 -1      3223    6    0    1
 -2      1087      1169      1209      4223      1873      1872      1874      4974      4889      5599
 -1      3224    6    0    1
 -2      2202      2162      2080      4223      2701      2700      2702      5651      5090      4976
 -1      3225    6    0    1
 -2      3267      3246      2154      4280      3341      5904      5545      5547      5905      5546
 -1      3226    6    0    1
 -2      2140      2105      4222      4311      2873      5353      4327      4330      5906      4332
 -1      3227    6    0    1
 -2      4260      4221      4278      4291      5452      4412      5907      5151      5453      5867
 -1      3228    6    0    1
 -2      2250      2062      4264      4284      2805      4916      4450      4711      4919      4914
 -1      3229    6    0    1
 -2      3710      3712      3051      4302      3780      5908      5909      4834      5910      5911
 -1      3230    6    0    1
 -2      1187      1146      1061      4238      1772      1773      1769      4978      4384      5912
 -1      3231    6    0    1
 -2      2094      2057      4247      4255      2897      4354      5760      5759      4355      4356
 -1      3232    6    0    1
 -2      2110      2159      2073      4298      2556      2839      2840      5913      5572      5344
 -1      3233    6    0    1
 -2      3269       370      4229      4299      3330      5914      5915      5917      5916      4708
 -1      3234    6    0    1
 -2      1188      1130      4030      4307      1673      5918      4739      4507      5287      4740
 -1      3235    6    0    1
 -2      1181      1106      1215      4252      1360      1786      1784      5234      5338      5235
 -1      3236    6    0    1
 -2      3256      1175      1120      4243      5771      1534      4821      4626      5772      4822
 -1      3237    6    0    1
 -2      4055      1114      1188      4234      5059      1675      4618      4617      5062      4506
 -1      3238    6    0    1
 -2      4240      4214      4228      4272      5920      5919      5552      5921      5118      5922
 -1      3239    6    0    1
 -2      4222      2105      4297      4311      5353      5354      5318      4332      5906      4774
 -1      3240    6    0    1
 -2       621       638       686      4263       965       888       972      5923      5359      5258
 -1      3241    6    0    1
 -2       621       687       639      4263       970       780       969      5923      5253      5357
 -1      3242    6    0    1
 -2      3037      1241      1144      4302      5649      1458      5924      5650      4910      5925
 -1      3243    6    0    1
 -2      1073      1142      3253      4232      1486      5926      5388      5015      5103      5390
 -1      3244    6    0    1
 -2      3797      1208      4226      4252      5927      5739      5713      5750      5928      5570
 -1      3245    6    0    1
 -2        92      4230      4237      4299      5929      4402      5340      5931      5930      5932
 -1      3246    6    0    1
 -2      3460      4061      4063      3436      5793      4087      5933      3644      5794      5934
 -1      3247    6    0    1
 -2      1097       641       677      4261      5936       756      5935      5938      5937      4982
 -1      3248    6    0    1
 -2      4249      4215      4260      4293      4899      5939      5658      5420      4653      5745
 -1      3249    6    0    1
 -2      4218      4249      4293      4297      5940      5420      5666      5667      4772      5176
 -1      3250    6    0    1
 -2      3031      3712      3052      3051      5942      5941      3189      3188      5908      3185
 -1      3251    6    0    1
 -2      3232      3241      3242      4277      3392      3395      3394      5943      5457      5944
 -1      3252    6    0    1
 -2      4228      4214      4240      4241      5919      5920      5552      4920      4510      5506
 -1      3253    6    0    1
 -2      2104      2232      2130      4249      2971      2968      2969      4498      4968      5775
 -1      3254    6    0    1
 -2       660      2162      2098      4251      5187      2388      5878      5189      5188      5879
 -1      3255    6    0    1
 -2      1157      1076      1252      4292      2010      1962      1323      5395      4755      4321
 -1      3256    6    0    1
 -2      2111      2226      2140      4269      2780      2761      2915      4622      5945      4414
 -1      3257    6    0    1
 -2      2085      2188      4225      4275      2987      5363      5946      5947      5362      5361
 -1      3258    6    0    1
 -2       615       653      4271      4292       946      5024      5229      5231      5948      5081
 -1      3259    6    0    1
 -2      4060      3449      3443      3450      5949      3688      5789      5790      3663      3700
 -1      3260    6    0    1
 -2      4264      4215      4278      4291      5072      4565      5123      4456      4898      5867
 -1      3261    6    0    1
 -2      1142      1073      1194      4232      1486      1846      1903      5103      5015      4847
 -1      3262    6    0    1
 -2      2076      2256      4233      4303      3004      4612      4951      5950      4613      4609
 -1      3263    6    0    1
 -2      1163      1206      4235      4283      1955      5578      5083      5102      5845      4955
 -1      3264    6    0    1
 -2      4282      2244       623      4308      5886      5884      5857      5071      5951      5858
 -1      3265    6    0    1
 -2      2189      2085      2188      4225      2986      2987      2989      4554      5946      5363
 -1      3266    6    0    1
 -2       620       683       685      4253       924       786       926      5517      4994      5952
 -1      3267    6    0    1
 -2       620       684       682      4253       922       894       921      5517      5953      4989
 -1      3268    6    0    1
 -2      4052      4055      4030      4307      4206      4126      4207      4674      4619      4740
 -1      3269    6    0    1
 -2      1124      3245      1265      4268      4462      5954      1527      4464      4463      5955
 -1      3270    6    0    1
 -2      4248      1138      1151      4287      4841      1841      5773      4846      4844      5052
 -1      3271    6    0    1
 -2      4258      4216      4269      4300      5391      4413      5688      5055      4890      4891
 -1      3272    6    0    1
 -2      3792      1202      3814      4254      5491      5956      3867      5216      5493      4756
 -1      3273    6    0    1
 -2       690       616        87      4228       805       802       692      5239      4835      5848
 -1      3274    6    0    1
 -2      2205      2075      2167      4233      2891      3025      3011      4850      5957      4902
 -1      3275    6    0    1
 -2      4229       370      2135      4298      5914      5958      5863      5866      5959      5865
 -1      3276    6    0    1
 -2      1122      3824      3791      4242      5960      3912      5121      4589      5585      4396
 -1      3277    6    0    1
 -2      1199      1093      1153      4253      2008      1411      2004      5486      5488      4995
 -1      3278    6    0    1
 -2      2086      2192      2146      4253      2979      2978      2409      5490      5782      4988
 -1      3279    6    0    1
 -2      2054      2180      2074      4279      2826      2825      2824      5554      5961      5962
 -1      3280    6    0    1
 -2       690       616      4228      4292       805      4835      5239      5242      4836      4663
 -1      3281    6    0    1
 -2       584      1085      3813      4248      4824      5963      3837      4827      4826      5964
 -1      3282    6    0    1
 -2      3460       343      4061      3452      5965      4086      5793      3523      5966      5459
 -1      3283    6    0    1
 -2      1140      3715      1248      4296      5377      5967      1681      5382      5380      5197
 -1      3284    6    0    1
 -2      3459      4032       551      3451      5677      4094      5968      3599      5678      5969
 -1      3285    6    0    1
 -2      4284      3228      4221      4294      5971      5970      5830      5973      5972      4925
 -1      3286    6    0    1
 -2      4281      3795      2077      4290      4760      5974      5975      5977      5976      5978
 -1      3287    6    0    1
 -2      2159        92      2177      2073      5571      5979      2268      2839      5342      2844
 -1      3288    6    0    1
 -2      2165      2058      2142      4266      2991      2996      2941      5676      5559      4781
 -1      3289    6    0    1
 -2      1065      1172      1149      4266      1710      1713      1705      5384      4368      5442
 -1      3290    6    0    1
 -2      3437      3466      4063      3436      3639      5980      5981      3638      3640      5934
 -1      3291    6    0    1
 -2      4060      3443      3475      4032      5789      3629      5982      4183      5631      5630
 -1      3292    6    0    1
 -2      2060      2231      2118      4310      2869      2767      2868      5984      5983      5985
 -1      3293    6    0    1
 -2       579      2240      3720      4286      5987      5986      3732      5423      5988      5614
 -1      3294    6    0    1
 -2      3811      3822      3830      4244      3987      3985      3960      5603      5602      5158
 -1      3295    6    0    1
 -2       569      3433      4050      3487      3613      5989      5990      3491      3615      5991
 -1      3296    6    0    1
 -2      3061      3039      3032      4303      3116      3205      3203      4771      5298      5095
 -1      3297    6    0    1
 -2      4274      2231      4222      4310      5993      5992      4694      4695      5983      4480
 -1      3298    6    0    1
 -2      2139      3788      4228      4241      5543      4922      5467      5994      4921      4920
 -1      3299    6    0    1
 -2      2128      2144      4241      4274      2950      5995      5505      5508      5706      4511
 -1      3300    6    0    1
 -2      3455      2222      3463      4033      5997      5996      3562      5999      5998      6000
 -1      3301    6    0    1
 -2      3237      1246      1092      3259      6002      1498      6001      3287      6003      6004
 -1      3302    6    0    1
 -2      4040      4048      3433       570      4163      4965      6005      5561      4967      3614
 -1      3303    6    0    1
 -2       590      3461      3449      3442      5799      3608      6006      5724      3657      3656
 -1      3304    6    0    1
 -2      1196      1092      1161      4280      2018      1496      1942      4682      5854      4800
 -1      3305    6    0    1
 -2       624       625       618      4227       936       963       962      4383      4738      5198
 -1      3306    6    0    1
 -2      1139      3244      3718      1236      5596      6007      6008      1518      6009      6010
 -1      3307    6    0    1
 -2      1204      1113      1259      4267      1483      1968      1969      5781      5399      4494
 -1      3308    6    0    1
 -2      2106      2197      2252      4267      2596      3020      3021      5769      5817      5180
 -1      3309    6    0    1
 -2       648       607       608      4254       918      1024      1026      5644      6011      5704
 -1      3310    6    0    1
 -2       607       649       608      4254       931      1025      1024      6011      5640      5704
 -1      3311    6    0    1
 -2      1107      1182      1216      4263      1407      1901      1902      5254      5252      5262
 -1      3312    6    0    1
 -2      2100      2209      2175      4263      2937      2936      2403      5257      5719      5259
 -1      3313    6    0    1
 -2       610       669       613      4245      1034      1033      1032      4548      5038      4560
 -1      3314    6    0    1
 -2      3464      4059      4037      3437      6013      4092      6012      3637      6014      6015
 -1      3315    6    0    1
 -2      3038      3033      3060      4270      3187      3120      3125      4817      4830      5473
 -1      3316    6    0    1
 -2      3706      1127      1100      4255      4643      1689      4453      4342      4642      4452
 -1      3317    6    0    1
 -2       624       614       625      4227       935       716       936      4383      4664      4738
 -1      3318    6    0    1
 -2      4237      2127      2169      4298      6016      2815      5575      5345      5548      5549
 -1      3319    6    0    1
 -2      4033      2222      3463      4047      5998      5996      6000      4146      6017      6018
 -1      3320    6    0    1
 -2      4238      4214      4248      4287      6019      4509      4389      5053      4481      4846
 -1      3321    6    0    1
 -2      1061      1146      1234      4238      1773      1776      1775      5912      4384      5784
 -1      3322    6    0    1
 -2       682       684      2086      4253       894      6020      5489      4989      5953      5490
 -1      3323    6    0    1
 -2       685       683      1093      4253       786      5487      6021      5952      4994      5488
 -1      3324    6    0    1
 -2      3715      3711      3036      3708      3776      5671      5379      3753      3777      6022
 -1      3325    6    0    1
 -2      4032      4060      3443      4058      4183      5789      5631      4210      4208      5674
 -1      3326    6    0    1
 -2      4052      2123      2181      4307      6023      2681      4673      4674      5285      4502
 -1      3327    6    0    1
 -2      1217      1200      1094      4256      1606      1820      1818      5144      6024      5143
 -1      3328    6    0    1
 -2      2206      2200      3799      4246      2518      4880      6025      5514      4884      4883
 -1      3329    6    0    1
 -2      2211      2072      4231      4304      2959      5689      4579      5163      5690      4940
 -1      3330    6    0    1
 -2      1241      3043      1132      4247      4908      6026      1455      4907      4906      5464
 -1      3331    6    0    1
 -2      2138      2228      2055      4237      2977      2948      2946      4401      6027      5883
 -1      3332    6    0    1
 -2      3792      3814      3794      4254      3867      4024      4023      5216      4756      5215
 -1      3333    6    0    1
 -2      2105      2231      4222      4274      2870      5992      5353      5352      5993      4694
 -1      3334    6    0    1
 -2      3474      4041      3467      1220      5852      5851      3553      6029      6028      6030
 -1      3335    6    0    1
 -2      4058      4032      4061      3435      4210      4100      4088      5675      5632      5461
 -1      3336    6    0    1
 -2        86      1187      1186      4305      4541      1821      5496      6032      6031      6033
 -1      3337    6    0    1
 -2      1193      1116      1066      4250      1732      1734      1733      5621      6034      6035
 -1      3338    6    0    1
 -2      3450      4060       589      4066      5790      4184      6036      5792      4188      4072
 -1      3339    6    0    1
 -2      2212      3486      4048       570      6038      4966      6037      6039      3497      4967
 -1      3340    6    0    1
 -2      1084      3824      1122      4242      5583      5960      1659      5586      5585      4589
 -1      3341    6    0    1
 -2      2252      2107      2181      4234      3019      2682      2709      5694      5011      4501
 -1      3342    6    0    1
 -2      1188      1114      1259      4234      1675      1718      1716      4506      5062      4493
 -1      3343    6    0    1
 -2      3259      1161      1092      4280      6040      1496      6004      6041      4800      5854
 -1      3344    6    0    1
 -2      2105      2231      2140      4222      2870      2874      2873      5353      5992      4327
 -1      3345    6    0    1
 -2      4043      1130       574      4307      6044      6042      6043      6045      5287      5862
 -1      3346    6    0    1
 -2      1207      1213      3784      4246      1623      5711      5311      4798      5319      5312
 -1      3347    6    0    1
 -2      4214      4238      4250      4287      6019      6046      4700      4481      5053      5179
 -1      3348    6    0    1
 -2      1102      1063      1172      4265      1757      1752      1760      5527      5165      4683
 -1      3349    6    0    1
 -2      2165      2056      2095      4265      2718      2719      2722      4763      5167      4585
 -1      3350    6    0    1
 -2      1079      1218      4231      4301      1976      6047      4939      4717      6048      4938
 -1      3351    6    0    1
 -2      4273      1057      1131      4278      4873      1697      4377      4379      4761      4378
 -1      3352    6    0    1
 -2      3796      3825      3829      4256      3927      4000      3999      5030      5438      5522
 -1      3353    6    0    1
 -2      3452      4061      3460      3431      5459      5793      3523      3635      5460      3645
 -1      3354    6    0    1
 -2      1208      1207      3797      4226      1621      5712      5927      5739      4797      5713
 -1      3355    6    0    1
 -2      1086      1165      1207      4226      1855      1854      1856      4318      4595      4797
 -1      3356    6    0    1
 -2      2158      2079      2200      4226      2740      2742      2741      4593      4315      4881
 -1      3357    6    0    1
 -2      3708      3712      3716      3031      3778      3740      3779      6049      5942      6050
 -1      3358    6    0    1
 -2      1158       681       650      4282      6052       798      6051      6053      5518      5317
 -1      3359    6    0    1
 -2      4217      4258      4306      4309      4927      5057      5451      5128      5629      6054
 -1      3360    6    0    1
 -2      3065      3034      4247      4304      3195      5477      6055      6056      5478      5373
 -1      3361    6    0    1
 -2      2164      2100       638      4263      2405      5358      6057      6058      5257      5359
 -1      3362    6    0    1
 -2       639      1107      1171      4263      5356      1405      6059      5357      5254      6060
 -1      3363    6    0    1
 -2      4033      3455      3453      3441      5999      3612      6061      6062      3647      3646
 -1      3364    6    0    1
 -2      3481      4042      4036      2220      6064      4179      6063      6066      6065      6067
 -1      3365    6    0    1
 -2      3787      3793      3812      4283      3975      4025      4015      5609      5140      5802
 -1      3366    6    0    1
 -2      1185      1077      1110      4230      1932      1935      1934      6068      5322      4436
 -1      3367    6    0    1
 -2      4232      4213      4260      4276      4704      5148      5137      5139      4428      5132
 -1      3368    6    0    1
 -2      4274      4214      4240      4310      4512      5920      5509      4695      4478      6069
 -1      3369    6    0    1
 -2      4058      3477      3443      3435      6070      3632      5674      5675      3630      3628
 -1      3370    6    0    1
 -2      2257      2122      2095      4270      2592      3002      3003      4419      4964      4586
 -1      3371    6    0    1
 -2      2240      2132      3720      4286      2481      5532      5986      5988      5613      5614
 -1      3372    6    0    1
 -2      4066      3443      4060      4058      5791      5789      4188      4089      5674      4208
 -1      3373    6    0    1
 -2      1265      3245      3234      4268      5954      3321      6071      5955      4463      6072
 -1      3374    6    0    1
 -2      4215      4249      4260      4291      4899      5658      5939      4898      4497      5151
 -1      3375    6    0    1
 -2      3811      2207      4251      4262      6074      6073      5622      5605      6075      5625
 -1      3376    6    0    1
 -2      3244      3261      3718      1236      3310      6076      6007      6009      6077      6010
 -1      3377    6    0    1
 -2      3464      3456      4059      3437      3593      6078      6013      3637      3676      6014
 -1      3378    6    0    1
 -2      2193      3825      3796      4256      5435      3927      6079      5439      5438      5030
 -1      3379    6    0    1
 -2      1090      1154      1200      4256      1926      1819      1927      6080      5903      6024
 -1      3380    6    0    1
 -2      1150      1137      1084      4242      1831      1833      1832      4749      5064      5586
 -1      3381    6    0    1
 -2      3712      3052      3051      4302      5941      3185      5908      5910      6081      5911
 -1      3382    6    0    1
 -2      4242      4218      4249      4293      4794      5940      6082      5154      5666      5420
 -1      3383    6    0    1
 -2      4247      2234      2094      4302      5480      2848      5760      4911      5483      5761
 -1      3384    6    0    1
 -2      2188      2053      2189      4225      3015      2962      2989      5363      4515      4554
 -1      3385    6    0    1
 -2      3061      3032      3041      4296      3203      3204      3113      4768      5094      5699
 -1      3386    6    0    1
 -2       649      1181      1096      4254      6083      1354      5638      5640      5237      5639
 -1      3387    6    0    1
 -2      2174       648      2089      4254      6084      5643      2352      5214      5644      5645
 -1      3388    6    0    1
 -2      3069      3035      3045      4301      3191      3192      3141      4820      5233      5455
 -1      3389    6    0    1
 -2      3235       204      1133      1240      3296      1505      4685      5238      1503      1504
 -1      3390    6    0    1
 -2      1162      1097       677      4261      1379      5935      4981      4983      5938      4982
 -1      3391    6    0    1
 -2      1082      1247      1139      4286      1952      1694      1951      4828      4392      5594
 -1      3392    6    0    1
 -2       599       606       642      4252       985       917       984      6085      5412      5387
 -1      3393    6    0    1
 -2      2127      2143      2052      4289      2747      2750      2751      5563      5324      5325
 -1      3394    6    0    1
 -2      1082      1139      1197      4286      1951      1521      1948      4828      5594      4473
 -1      3395    6    0    1
 -2      2125      3042      2234      4247      6086      5479      2575      6087      5481      5480
 -1      3396    6    0    1
 -2      4062      4037      4059      3437      4097      4092      4098      6088      6015      6014
 -1      3397    6    0    1
 -2      3228      3253      3269      4221      3409      3331      3398      5970      5389      6089
 -1      3398    6    0    1
 -2      3720      3260      3719      3233      5620      6090      3750      5795      3417      6091
 -1      3399    6    0    1
 -2      1203      3819      1213      4261      5268      5320      1626      5270      4856      5321
 -1      3400    6    0    1
 -2      3465      3457      4031       331      3541      5836      5837      6093      6092      4104
 -1      3401    6    0    1
 -2      1235      1134      4276      4295      1810      6094      4671      5327      5426      5329
 -1      3402    6    0    1
 -2       643       606       599      4252       930       985       986      5422      5412      6085
 -1      3403    6    0    1
 -2       677       641       612      4261       756      1038      1010      4982      5937      5703
 -1      3404    6    0    1
 -2      1193      1260      1125      4250      1735      1736      1728      5621      5045      4812
 -1      3405    6    0    1
 -2      3471      4031      4045      4046      6096      4191      6095      6097      4109      4190
 -1      3406    6    0    1
 -2      4267      2058      2122      4270      5558      2992      4962      4816      5560      4964
 -1      3407    6    0    1
 -2      4240      2253      4274      4310      6099      6098      5509      6069      6100      4695
 -1      3408    6    0    1
 -2      1173      1065      4266      4267      1708      5384      5020      5022      5383      5023
 -1      3409    6    0    1
 -2      2058      2166      4266      4267      2995      6101      5559      5558      5181      5023
 -1      3410    6    0    1
 -2      2141      2063      2130      4297      2965      2966      2754      6103      6102      6104
 -1      3411    6    0    1
 -2      3462      3432      3454      4057      3662      3652      3535      5755      5756      6105
 -1      3412    6    0    1
 -2      3481      4036      4042      4038      6063      4179      6064      6106      4204      4198
 -1      3413    6    0    1
 -2      3822      1201      3804      4244      5814      6107      3893      5602      5813      5159
 -1      3414    6    0    1
 -2      4062      4059      3456      3437      4098      6078      6108      6088      6014      3676
 -1      3415    6    0    1
 -2      1094      1154       652      4256      1339      5902      5626      5143      5903      5628
 -1      3416    6    0    1
 -2      3453      2217      3455      4033      6110      6109      3612      6061      6111      5999
 -1      3417    6    0    1
 -2      2050      2226      2124      4269      2760      2764      2763      5276      5945      4658
 -1      3418    6    0    1
 -2      3442      4039      3461      3432      5723      5807      3657      3659      5823      3658
 -1      3419    6    0    1
 -2      3043      3034      3064      4247      3206      3207      3096      4906      5477      5465
 -1      3420    6    0    1
 -2      2201      3815      3790      4252      6112      3942      5567      5569      4669      5568
 -1      3421    6    0    1
 -2      4055      4052      4053      4234      4206      4168      4193      4617      4672      5012
 -1      3422    6    0    1
 -2       635       653       615      4292       816       946       940      6113      5948      5231
 -1      3423    6    0    1
 -2      4265      3046      3039      4303      5191      3220      5542      4614      6114      5298
 -1      3424    6    0    1
 -2      3030      3038      3059      4267      3210      3127      3212      6115      4814      5398
 -1      3425    6    0    1
 -2      4051      4031      3457       331      4106      5836      6116      4102      4104      6092
 -1      3426    6    0    1
 -2       689       650       623      4282       801       975       809      4438      5317      5857
 -1      3427    6    0    1
 -2      4221      4217      4264      4284      5647      4451      5646      5830      4713      4914
 -1      3428    6    0    1
 -2       574      1231      1130      4043      6117      1289      6042      6043      6118      6044
 -1      3429    6    0    1
 -2      2211      2182      2072      4304      2999      2903      2959      5163      5874      5690
 -1      3430    6    0    1
 -2      1071      1257      1115      4309      1908      1925      1924      5208      5126      5889
 -1      3431    6    0    1
 -2      2188      2053      4225      4306      3015      4515      5363      5365      4552      5364
 -1      3432    6    0    1
 -2      2125      3065      4247      4304      6119      6055      6087      6120      6056      5373
 -1      3433    6    0    1
 -2      2201      3790      2200      4226      5567      5525      2516      5566      5526      4881
 -1      3434    6    0    1
 -2      2098      2173       626      4251      2386      5730      5877      5879      5732      5731
 -1      3435    6    0    1
 -2      4246      1179      1213      4261      6121      1794      5319      5302      6122      5321
 -1      3436    6    0    1
 -2      3434      3433      3468      4050      3670      3687      3685      6123      5989      6124
 -1      3437    6    0    1
 -2      2056      2165      2096      4268      2718      2717      2714      5168      4762      6125
 -1      3438    6    0    1
 -2      1172      1063      1103      4268      1752      1750      1751      4366      5166      4469
 -1      3439    6    0    1
 -2      3437      4063      4037      3436      5981      4096      6015      3638      5934      6126
 -1      3440    6    0    1
 -2      1238      1069      1156      4278      1852      1910      1966      4970      4410      4588
 -1      3441    6    0    1
 -2      3252       575      3268      4307      3281      3378      3381      5684      6127      5682
 -1      3442    6    0    1
 -2      4298      4237      4213      4299      5345      5348      5764      6128      5932      4707
 -1      3443    6    0    1
 -2       594       631       597      4246      1048      1047      1044      6130      6129      4529
 -1      3444    6    0    1
 -2      3064      1132      3043      4247      5107      6026      3096      5465      5464      4906
 -1      3445    6    0    1
 -2      2151       680      2091      4283      5374      5895      2420      5376      5267      5896
 -1      3446    6    0    1
 -2      2104      2063      2148      4297      2970      2925      2983      4773      6102      5827
 -1      3447    6    0    1
 -2      3051      3031      3708      3050      3188      6049      6131      3104      3190      6132
 -1      3448    6    0    1
 -2       646       626      2173      4262       876      5730      6133      5476      5474      5733
 -1      3449    6    0    1
 -2      1213      1097      1203      4261      1796      1954      1626      5321      5938      5270
 -1      3450    6    0    1
 -2      4289      2127      4237      4298      5563      6016      5763      5743      5548      5345
 -1      3451    6    0    1
 -2      3441      3453      4033      4039      3646      6061      6062      6135      6134      4143
 -1      3452    6    0    1
 -2      3795      2115      3803      4281      6137      6136      3979      4760      6138      4937
 -1      3453    6    0    1
 -2      4064       448        18       590      5796      2307      4074      4077      5798       593
 -1      3454    6    0    1
 -2      1128      1190      3048      4285      1444      5469      5741      5742      5470      4600
 -1      3455    6    0    1
 -2      1234      1151      4238      4248      1862      5050      5784      6139      5773      4389
 -1      3456    6    0    1
 -2      4274      2105      2131      4297      5352      2872      6140      5355      5354      6141
 -1      3457    6    0    1
 -2      2054      2074      2170      4279      2824      2819      2823      5554      5962      5661
 -1      3458    6    0    1
 -2      1193      1141      1116      4250      1731      1270      1732      5621      6142      6034
 -1      3459    6    0    1
 -2      2112      2255      2183      4219      3000      2886      2569      4604      4348      5463
 -1      3460    6    0    1
 -2      1119      1190      1262      4219      1447      1721      1723      6143      5468      6144
 -1      3461    6    0    1
 -2      4062      4065      1227      3478      4138      6145      6146      6148      6147      6149
 -1      3462    6    0    1
 -2      3830      2194      3811      4244      6150      5833      3960      5158      5832      5603
 -1      3463    6    0    1
 -2      2238      3250      2145      4284      6152      6151      2603      6153      5805      6154
 -1      3464    6    0    1
 -2      3065      3034      3042      4247      3195      3196      3147      6055      5477      5481
 -1      3465    6    0    1
 -2       418      2190      3240      3262      2625      4358      3365      3363      4359      3367
 -1      3466    6    0    1
 -2      4278      4215      4260      4291      4565      5939      5907      5867      4898      5151
 -1      3467    6    0    1
 -2      1131      1057      1156      4278      1697      1696      1695      4378      4761      4588
 -1      3468    6    0    1
 -2      4225      2085      4275      4280      5946      5947      5361      4555      6155      6156
 -1      3469    6    0    1
 -2      2250      2062      2124      4264      2805      2806      2785      4450      4916      4449
 -1      3470    6    0    1
 -2      3788      3813      3828      4248      4001      3846      4006      4923      5964      4620
 -1      3471    6    0    1
 -2      3477      3443      4066      4058      3632      5791      6157      6070      5674      4089
 -1      3472    6    0    1
 -2      4251      1180      1214      4262      5735      1895      5714      5625      5738      5716
 -1      3473    6    0    1
 -2      3809      1200      1217      4256      6158      1606      5400      5031      6024      5144
 -1      3474    6    0    1
 -2      1219       569      4050      3487      6160      5990      6159      6161      3491      5991
 -1      3475    6    0    1
 -2      3822      3804      3830      4244      3893      3984      3985      5602      5159      5158
 -1      3476    6    0    1
 -2      3793      3816      3812      4283      4026      3905      4025      5140      4954      5802
 -1      3477    6    0    1
 -2      4228      4214      4238      4272      5919      6019      4385      5922      5118      6162
 -1      3478    6    0    1
 -2      3246      3237      4275      4280      3428      6163      6164      5905      6165      6156
 -1      3479    6    0    1
 -2      3485       547      4044      2224      6166      4170      5897      6167      2645      6168
 -1      3480    6    0    1
 -2      1144      1241      1101      4302      1458      1738      1687      5925      4910      5097
 -1      3481    6    0    1
 -2      4066      3450      3443      3477      5792      3700      5791      6157      3529      3632
 -1      3482    6    0    1
 -2      4281      4213      4249      4289      4431      5659      5774      5618      5762      4969
 -1      3483    6    0    1
 -2      2076      4233      4296      4303      4951      4751      5304      5950      4609      4752
 -1      3484    6    0    1
 -2      4221      4217      4284      4294      5647      4713      5830      4925      5125      5973
 -1      3485    6    0    1
 -2      3056      1141      1074      4250      6170      1441      6169      6171      6142      4813
 -1      3486    6    0    1
 -2      4232      1117       369      4295      4848      6172      6173      5534      5533      6174
 -1      3487    6    0    1
 -2      4298        92      4237      4299      5343      5340      5345      6128      5931      5932
 -1      3488    6    0    1
 -2      1179       641      1097      4261      6175      5936      1377      6122      5937      5938
 -1      3489    6    0    1
 -2      3228      3253      4221      4294      3409      5389      5970      5972      5524      4925
 -1      3490    6    0    1
 -2      3229      3252      3268      4243      3407      3381      3406      4625      5299      5681
 -1      3491    6    0    1
 -2      3251      3229      3268      4243      3408      3406      3380      5680      4625      5681
 -1      3492    6    0    1
 -2      3439      3479      3438      4054      3701      3666      3682      6177      6176      6178
 -1      3493    6    0    1
 -2      1142      1117       369      4232      1275      6172      6179      5103      4848      6173
 -1      3494    6    0    1
 -2      1101      3710      1144      4302      5330      6180      1687      5097      4834      5925
 -1      3495    6    0    1
 -2      3480      3446      4056      4046      3692      6181      6182      6184      6183      4112
 -1      3496    6    0    1
 -2      3065      3042      2125      4247      3147      6086      6119      6055      5481      6087
 -1      3497    6    0    1
 -2      3243      3718      3261      1236      6185      6076      3307      6186      6010      6077
 -1      3498    6    0    1
 -2      1261      1194      1126      4232      1849      1844      1850      5138      4847      5016
 -1      3499    6    0    1
 -2      4215      4264      4269      4311      5072      4659      5122      4656      4460      4415
 -1      3500    6    0    1
 -2       630       594       597      4246      1045      1044      1046      4984      6130      4529
 -1      3501    6    0    1
 -2       605       655       604      4244      1015      1014      1016      5541      4649      6187
 -1      3502    6    0    1
 -2       604       656       605      4244      1018      1017      1016      6187      4652      5541
 -1      3503    6    0    1
 -2      3055      2067      4220      4288      6188      5582      5063      5494      6189      4641
 -1      3504    6    0    1
 -2      4055      4053      4040      4234      4193      4165      4122      4617      5012      5562
 -1      3505    6    0    1
 -2      2189      2085      4225      4280      2986      5946      4554      4556      6155      4555
 -1      3506    6    0    1
 -2      4265      2116      3046      4303      4980      5190      5191      4614      6190      6114
 -1      3507    6    0    1
 -2      1104      1213      1207      4246      1795      1623      1861      4488      5319      4798
 -1      3508    6    0    1
 -2      4031      4045      3447      3471      4191      6191      6192      6096      6095      3697
 -1      3509    6    0    1
 -2      2192      2084      2146      4235      2980      2981      2978      5767      5085      4985
 -1      3510    6    0    1
 -2      1199      1153      1091      4235      2004      2006      2005      5484      4992      5082
 -1      3511    6    0    1
 -2      4250      1074      3056      4257      4813      6169      6171      5171      5654      6193
 -1      3512    6    0    1
 -2      3719      2229      3260      3720      6194      5619      6090      3750      5530      5620
 -1      3513    6    0    1
 -2      4038      4049      4065      3482      4202      4137      4195      6196      6195      6197
 -1      3514    6    0    1
 -2      4250      1066      4238      4305      6035      5169      6046      6198      5746      5747
 -1      3515    6    0    1
 -2      2114      3788      2139      4241      6199      5543      2491      6200      4921      5994
 -1      3516    6    0    1
 -2      4217      4258      4269      4306      4927      5688      4657      5451      5057      5612
 -1      3517    6    0    1
 -2      2071      2251      2154      4280      2829      2614      2837      5406      5206      5546
 -1      3518    6    0    1
 -2      1213      1179      1097      4261      1794      1377      1796      5321      6122      5938
 -1      3519    6    0    1
 -2      2151      2244       657      4282      2425      5885      6201      5375      5886      5887
 -1      3520    6    0    1
 -2      3713      3243      3232      3263      6202      3422      5868      6203      3304      3393
 -1      3521    6    0    1
 -2      2077      2115      3795      4281      2554      6137      5974      5975      6138      4760
 -1      3522    6    0    1
 -2      1084      1122      1150      4242      1659      1834      1832      5586      4589      4749
 -1      3523    6    0    1
 -2      1144      3710      3051      4302      6180      5909      6204      5925      4834      5911
 -1      3524    6    0    1
 -2      3461      4064      2215      4039      5797      6205      6206      5807      4142      6207
 -1      3525    6    0    1
 -2      1113       182      3038      3059      1482      3126      5396      5397      3123      3127
 -1      3526    6    0    1
 -2      4033      3453      2217      4039      6061      6110      6111      4143      6134      6208
 -1      3527    6    0    1
 -2      2076      2256      2205      4233      3004      2725      3007      4951      4612      4850
 -1      3528    6    0    1
 -2      4275      4217      4306      4309      5449      5451      5366      6209      5128      6054
 -1      3529    6    0    1
 -2      4062      4063      4037      3437      4083      4096      4097      6088      5981      6015
 -1      3530    6    0    1
 -2      3431      4032      3451      3435      5679      5678      3633      3634      5632      3626
 -1      3531    6    0    1
 -2      1186      1081      1167      4305      1822      1803      1301      6033      6210      6211
 -1      3532    6    0    1
 -2      4047      3472      3447      4045      6213      3699      6212      4149      6214      6191
 -1      3533    6    0    1
 -2       651       678       652      4256       828      1043       938      4703      4566      5628
 -1      3534    6    0    1
 -2       680       622       601      4283       979       978       980      5267      5265      5785
 -1      3535    6    0    1
 -2      3235      3241       204      1240      3298      3295      3296      5238      5456      1503
 -1      3536    6    0    1
 -2      3809      1217      3826      4245      5400      6215      3861      5028      5142      6216
 -1      3537    6    0    1
 -2      2256      2116      4265      4303      2723      4980      4610      4613      6190      4614
 -1      3538    6    0    1
 -2      4271       653      2150      4292      5024      6217      6218      5081      5948      6219
 -1      3539    6    0    1
 -2      3253      1142       369      4232      5926      6179      3272      5390      5103      6173
 -1      3540    6    0    1
 -2      3033      3046      3039      4265      3184      3220      3121      4829      5191      5542
 -1      3541    6    0    1
 -2      3818      2209      3823      4253      6220      5717      3966      5186      5718      5109
 -1      3542    6    0    1
 -2      2062      2232      2149      4264      2729      2808      2807      4916      4872      4577
 -1      3543    6    0    1
 -2      1193      1074      1141      4250      1729      1441      1731      5621      4813      6142
 -1      3544    6    0    1
 -2      1101      1243      1064      4247      1892      1893      1837      5427      6221      4363
 -1      3545    6    0    1
 -2      2236      2094      2057      4247      2901      2897      2942      5369      5760      4354
 -1      3546    6    0    1
 -2      4218      4242      4249      4290      4794      6082      5940      5210      5211      6222
 -1      3547    6    0    1
 -2      4214      4240      4241      4274      5920      5506      4510      4512      5509      4511
 -1      3548    6    0    1
 -2      3451      4032      3475      3435      5678      5630      3602      3626      5632      3627
 -1      3549    6    0    1
 -2      2065      2123      2168      4243      2704      2291      2703      5146      5284      6223
 -1      3550    6    0    1
 -2      1072      1175      1130      4243      1740      1287      1714      5648      5772      5286
 -1      3551    6    0    1
 -2      1059      1137      1150      4276      1879      1831      1877      5131      5065      4741
 -1      3552    6    0    1
 -2      3478      4038      4065      3482      6224      4195      6147      3511      6196      6197
 -1      3553    6    0    1
 -2      1184      1080      1185      4295      1946      1808      1945      6225      5826      6226
 -1      3554    6    0    1
 -2      4296      3062      2191      4303      6229      6227      6228      4752      6230      6231
 -1      3555    6    0    1
 -2       574       575      4044      4307       577      5840      5842      5862      6127      6232
 -1      3556    6    0    1
 -2      2245       690      2102      4292      6233      5241      2318      6234      5242      5243
 -1      3557    6    0    1
 -2      3812      3816      1206      4283      3905      5844      6235      5802      4954      5845
 -1      3558    6    0    1
 -2      4289      4213      4249      4291      5762      5659      4969      4734      5150      4497
 -1      3559    6    0    1
 -2      1072      1173      1120      4243      1777      1707      1778      5648      5021      4822
 -1      3560    6    0    1
 -2      1209      1169      1105      4251      1872      1390      2023      5601      5007      5687
 -1      3561    6    0    1
 -2      2098      2162      2202      4251      2388      2701      2940      5879      5188      5653
 -1      3562    6    0    1
 -2       448      3449      2216       590      3604      6236      2310      5798      6006      6237
 -1      3563    6    0    1
 -2      4033      3463      3455      3440      6000      3562      5999      6238      3671      3648
 -1      3564    6    0    1
 -2      3485       547      4036      4035      6166      4173      5891      5892      4175      4176
 -1      3565    6    0    1
 -2      3827      3820      1191      4271      3852      6239      6240      5503      5079      6241
 -1      3566    6    0    1
 -2      2076      2205      2167      4233      3007      3011      3010      4951      4850      4902
 -1      3567    6    0    1
 -2       622       681       601      4283       982       981       978      5265      5429      5785
 -1      3568    6    0    1
 -2      1101       272      3710      1127      1686      3754      5330      1685      1684      4833
 -1      3569    6    0    1
 -2      3711      2133      3714      4296      5670      6242      3737      5757      6243      5347
 -1      3570    6    0    1
 -2      3471      4045      3446      4046      6095      6244      3695      6097      4190      6183
 -1      3571    6    0    1
 -2      3789      3801      3798      4251      3887      3996      4005      5283      5623      5282
 -1      3572    6    0    1
 -2      3799      3805      3784      4246      4012      3876      3992      4883      4799      5312
 -1      3573    6    0    1
 -2      3786      1208      3797      4252      6245      5927      3873      4667      5928      5750
 -1      3574    6    0    1
 -2      3044      3062      2191      4296      3164      6227      6246      6247      6229      6228
 -1      3575    6    0    1
 -2      3447      3463      3472      4047      3702      3565      3699      6212      6018      6213
 -1      3576    6    0    1
 -2      4056      3439      3446      3480      6248      3691      6181      6182      3684      3692
 -1      3577    6    0    1
 -2      1208      3786      1215      4252      6245      6249      1618      5928      4667      5235
 -1      3578    6    0    1
 -2      1229      3465      4031       331      6251      5837      6250      1570      6093      4104
 -1      3579    6    0    1
 -2      3042      3043      3037      4302      3186      3101      3151      5482      4909      5650
 -1      3580    6    0    1
 -2       627       661       660      4251       765      1037       983      5736      5005      5189
 -1      3581    6    0    1
 -2      3269       370      3250      4229      3330      3276      3332      5915      5914      5803
 -1      3582    6    0    1
 -2      3472      3463      2222      4047      3565      5996      6252      6213      6018      6017
 -1      3583    6    0    1
 -2      3823      2204      3830      4263      6253      5899      3963      5111      5900      5160
 -1      3584    6    0    1
 -2      3812      1192      3807      4282      6255      6254      3908      5801      6256      4809
 -1      3585    6    0    1
 -2      2196      2155      2090      4261      2697      2377      2932      5226      4863      5635
 -1      3586    6    0    1
 -2      4264      4221      4229      4291      5646      5829      4915      4456      5453      4732
 -1      3587    6    0    1
 -2      1209      3801      3789      4251      6257      3887      5600      5601      5623      5283
 -1      3588    6    0    1
 -2      3044      2191      2133      4296      6246      2583      6258      6247      6228      6243
 -1      3589    6    0    1
 -2      3791      1145      1122      4230      5589      1658      5121      4397      5591      4590
 -1      3590    6    0    1
 -2       616        86        87      4228       803        89       802      4835      4545      5848
 -1      3591    6    0    1
 -2      4229      4213      4289      4291      4706      5762      4729      4732      5150      4734
 -1      3592    6    0    1
 -2      4238      1061      1187      4305      5912      1769      4978      5747      6259      6031
 -1      3593    6    0    1
 -2      3799      3784      3783      4246      3992      3991      3948      4883      5312      5300
 -1      3594    6    0    1
 -2      4224      1067      1074      4257      4434      1797      4811      4728      4726      5654
 -1      3595    6    0    1
 -2      4230       689        91      4308      4435       808      6260      5069      5070      6261
 -1      3596    6    0    1
 -2      1218      4231      4301      4312      6047      4938      6048      6262      4518      6263
 -1      3597    6    0    1
 -2      3790      3815      3797      4252      3942      3993      4013      5568      4669      5750
 -1      3598    6    0    1
 -2      4228      2180      2054      4279      6264      2826      5553      5555      5961      5554
 -1      3599    6    0    1
 -2      3830      3808      3823      4263      3986      4003      3963      5160      5110      5111
 -1      3600    6    0    1
 -2      1261      1068      1194      4232      1987      2028      1849      5138      4849      4847
 -1      3601    6    0    1
 -2      1125      1239      1067      4224      1978      1979      1798      4810      5444      4434
 -1      3602    6    0    1
 -2      3831      2114      2078      4241      6265      2484      4839      4801      6200      4840
 -1      3603    6    0    1
 -2       631      1179      1104      4246      6267      1371      6266      6129      6121      4488
 -1      3604    6    0    1
 -2      3461      3449       448       590      3608      3604      3606      5799      6006      5798
 -1      3605    6    0    1
 -2       627      1180      1105      4251      5734      1388      5825      5736      5735      5687
 -1      3606    6    0    1
 -2      4043       574      4044      4307      6043      5842      4212      6045      5862      6232
 -1      3607    6    0    1
 -2      1224      4051      3457       331      6269      6116      6268      1568      4102      6092
 -1      3608    6    0    1
 -2      2141      2130      4249      4297      2754      5775      6270      6103      6104      4772
 -1      3609    6    0    1
 -2      2110      2073      2169      4298      2840      2841      2810      5913      5344      5549
 -1      3610    6    0    1
 -2       668       610       613      4245      1035      1032      1036      5413      4548      4560
 -1      3611    6    0    1
 -2       669      1108      1183      4245      5248      1343      6271      5038      5249      5822
 -1      3612    6    0    1
 -2      2218      3481      4036      2220      6273      6063      6272      2649      6066      6067
 -1      3613    6    0    1
 -2       551      4037      4032      3459      4090      4095      4094      5968      6274      5677
 -1      3614    6    0    1
 -2      3478      1227      4062      3458      6149      6146      6148      3514      6275      6276
 -1      3615    6    0    1
 -2      1187      1061      1081      4305      1769      1767      1768      6031      6259      6210
 -1      3616    6    0    1
 -2      2194      2088      2207      4262      2928      2926      2530      5834      5702      6075
 -1      3617    6    0    1
 -2      3038      3030      3058      4267      3210      3211      3209      4814      6115      5279
 -1      3618    6    0    1
 -2       619       654       615      4271       948       947       944      4894      4895      5229
 -1      3619    6    0    1
 -2      2116      2056      2256      4265      2721      2724      2723      4980      5167      4610
 -1      3620    6    0    1
 -2      1063      1123      1263      4265      1754      1753      1755      5165      4776      4775
 -1      3621    6    0    1
 -2      3243      3232      3239      3713      3422      3411      3423      6202      5868      5869
 -1      3622    6    0    1
 -2      3809      3826      3800      4245      3861      4021      3997      5028      6216      5134
 -1      3623    6    0    1
 -2      1103      1124      1265      4268      1748      1527      1780      4469      4464      5955
 -1      3624    6    0    1
 -2      2258      2117      2096      4268      2633      2713      2887      5811      5708      6125
 -1      3625    6    0    1
 -2      4258      4225      4306      4309      5332      5364      5057      5629      5156      6054
 -1      3626    6    0    1
 -2       615       653       619      4271       946       945       944      5229      5024      4894
 -1      3627    6    0    1
 -2      4269      4258      4300      4306      5688      5055      4891      5612      5057      4351
 -1      3628    6    0    1
 -2      4225      4275      4306      4309      5361      5366      5364      5156      6209      6054
 -1      3629    6    0    1
 -2      3812      3807      3787      4282      3908      4016      4015      5801      4809      5307
 -1      3630    6    0    1
 -2      4039      3441      3453      3432      6135      3646      6134      5823      3650      3651
 -1      3631    6    0    1
 -2      3452      3477      4058      3435      3526      6070      5721      3631      3630      5675
 -1      3632    6    0    1
 -2      4259      1070      1155      4293      6277      1916      4615      4655      6278      4654
 -1      3633    6    0    1
 -2      4216      4258      4285      4300      5391      5392      5043      4890      5055      6279
 -1      3634    6    0    1
 -2      1233      1057      1131      4273      1699      1697      1698      5458      4873      4377
 -1      3635    6    0    1
 -2      2085      3246      4275      4280      6280      6164      5947      6155      5905      6156
 -1      3636    6    0    1
 -2      3785      3820      3827      4271      4027      3852      4029      5504      5079      5503
 -1      3637    6    0    1
 -2      4051      3457      3441      3454      6116      3654      6281      6282      3538      3653
 -1      3638    6    0    1
 -2       177      3036      1237      1140      3108      6283      1462      1466      5378      1467
 -1      3639    6    0    1
 -2      3462      3442       589      3450      3660      5725      5754      3532      3661      6036
 -1      3640    6    0    1
 -2      2195      2208      2089      4254      2510      2929      2930      5535      5106      5645
 -1      3641    6    0    1
 -2      1096      1215      1202      4254      1785      1615      2017      5639      5236      5493
 -1      3642    6    0    1
 -2      2120       480      3707      4302      2463      3741      5538      5540      6284      5441
 -1      3643    6    0    1
 -2      1202      1215      3814      4254      1615      6285      5956      5493      5236      4756
 -1      3644    6    0    1
 -2      3716      2230      3711      3053      6286      5669      3735      6288      6287      6289
 -1      3645    6    0    1
 -2      2154      3246      2085      4280      5904      6280      2609      5546      5905      6155
 -1      3646    6    0    1
 -2      4220      4216      4257      4288      4602      4727      4681      4641      4639      5068
 -1      3647    6    0    1
 -2      2171      2068      2255      4300      2882      2885      2884      4406      6290      4346
 -1      3648    6    0    1
 -2      3231      3249      3248      4280      3390      3389      3388      6291      5207      5117
 -1      3649    6    0    1
 -2       626       627       660      4251       950       983       873      5731      5736      5189
 -1      3650    6    0    1
 -2      3480      3471      3446      4046      3547      3695      3692      6184      6097      6183
 -1      3651    6    0    1
 -2      1259      1113      1173      4267      1968      1967      1779      4494      5399      5022
 -1      3652    6    0    1
 -2      2166      2106      2252      4267      3018      3021      2707      5181      5769      5180
 -1      3653    6    0    1
 -2      2097      2200      2206      4246      2861      2518      2860      4540      4884      5514
 -1      3654    6    0    1
 -2      3823      3817      3818      4253      4002      4009      3966      5109      5185      5186
 -1      3655    6    0    1
 -2      2134      3055      2067      4220      6292      6188      2561      5580      5063      5582
 -1      3656    6    0    1
 -2       421      2142      3254      3247      2634      5288      3374      3372      4779      3376
 -1      3657    6    0    1
 -2      1186      1187      1081      4305      1821      1768      1822      6033      6031      6210
 -1      3658    6    0    1
 -2      2211      2072      2129      4231      2959      2961      2960      4579      5689      5881
 -1      3659    6    0    1
 -2      1079      1218      1136      4231      1976      1992      1993      4939      6047      4441
 -1      3660    6    0    1
 -2      4056      3446      4045      4046      6181      6244      4192      4112      6183      4190
 -1      3661    6    0    1
 -2      4288      2068      2237      4300      6294      2880      6293      6295      6290      6296
 -1      3662    6    0    1
 -2      3255      3250      2238      4284      3335      6152      6297      6298      5805      6153
 -1      3663    6    0    1
 -2      4048      3433      4034      4040      4965      6299      4160      4163      6005      4189
 -1      3664    6    0    1
 -2       385      2133      2230      3036      2579      2455      2578      3159      5672      5673
 -1      3665    6    0    1
 -2       651       652       614      4256       938       717       937      4703      5628      4665
 -1      3666    6    0    1
 -2      2233      2093      2136      4277      2858      2472      2621      6300      4698      5218
 -1      3667    6    0    1
 -2      2069      3802      2184      4292      5244      5417      2490      5246      4661      5418
 -1      3668    6    0    1
 -2      2135      2066      3250      4229      2600      5804      6301      5863      5430      5803
 -1      3669    6    0    1
 -2      2059      2128      2170      4240      2774      2944      2912      6302      5507      5660
 -1      3670    6    0    1
 -2      1059      1238      1137      4260      1997      1963      1879      5130      5577      5696
 -1      3671    6    0    1
 -2      2207      2173      4251      4262      2927      5732      6073      6075      5733      5625
 -1      3672    6    0    1
 -2      2119      2066      2187      4229      2727      2732      2731      5309      5430      5308
 -1      3673    6    0    1
 -2      3231      3237      3246      4280      3430      3428      3427      6291      6165      5905
 -1      3674    6    0    1
 -2      4039      4033      3441      4051      4143      6062      6135      4205      4201      6281
 -1      3675    6    0    1
 -2      3820       284      1146      3828      3848      1593      4581      3849      3845      4582
 -1      3676    6    0    1
 -2      2133      2191      2076      4296      2583      3006      3008      6243      6228      5304
 -1      3677    6    0    1
 -2      4063      4061      4037      3436      4087      4099      4096      5934      5794      6126
 -1      3678    6    0    1
 -2      4045      3446      3447      3471      6244      3696      6191      6095      3695      3697
 -1      3679    6    0    1
 -2      2192      2209      3818      4253      2539      6220      5765      5782      5718      5186
 -1      3680    6    0    1
 -2      1062      1134      1235      4295      1811      1810      1812      6303      5426      5327
 -1      3681    6    0    1
 -2      3455       539      2222      4033      6304      2435      5997      5999      4139      5998
 -1      3682    6    0    1
 -2       612       641       640      4261      1038      1039       934      5703      5937      5410
 -1      3683    6    0    1
 -2      3827      3829      3825      4227      3855      4000      4028      5501      5521      5437
 -1      3684    6    0    1
 -2      3463       451      2222      3455      3558      2430      5996      3562      3561      5997
 -1      3685    6    0    1
 -2      1151      1085      1138      4248      1840      1842      1841      5773      4826      4841
 -1      3686    6    0    1
 -2      4039      3453      3461      3432      6134      3611      5807      5823      3651      3658
 -1      3687    6    0    1
 -2      3244      3230      3264      4286      3420      3421      3313      5597      4474      4472
 -1      3688    6    0    1
 -2      4045      3447      4047      4031      6191      6212      4149      4191      6192      4199
 -1      3689    6    0    1
 -2       628       600       609      4236       998       997       999      4944      4933      4519
 -1      3690    6    0    1
 -2       629       609       600      4236      1000       997      1001      4950      4519      4933
 -1      3691    6    0    1
 -2      1101      1064      1127      4255      1837      1836      1685      5096      4365      4642
 -1      3692    6    0    1
 -2      2190      3240      2117       418      4358      5809      2630      2625      3365      2629
 -1      3693    6    0    1
 -2      3434      4034      3433      4050      6305      6299      3670      6123      4194      5989
 -1      3694    6    0    1
 -2      2172       630      2097      4246      6306      5147      2369      5408      4984      4540
 -1      3695    6    0    1
 -2      4296      2191      2076      4303      6228      3006      5304      4752      6231      5950
 -1      3696    6    0    1
 -2      2187      2066      2135      4229      2732      2600      2818      5308      5430      5863
 -1      3697    6    0    1
 -2      1197      3244      1139       209      5595      5596      1521      1520      3308      1516
 -1      3698    6    0    1
 -2      2206      3799      3783      4246      6025      3948      5515      5514      4883      5300
 -1      3699    6    0    1
 -2      3472      2222      2225      4047      6252      2438      6307      6213      6017      6308
 -1      3700    6    0    1
 -2      1217      1210      3826      4245      1609      6309      6215      5142      5272      6216
 -1      3701    6    0    1
 -2      4282      2070      2244      4308      6310      2910      5886      5071      6311      5951
 -1      3702    6    0    1
 -2      3441      4033      3455      3440      6062      5999      3647      3649      6238      3648
 -1      3703    6    0    1
 -2      4242      3795      4281      4290      4759      4760      4400      5211      5976      5977
 -1      3704    6    0    1
 -2      1199      1216      1093      4253      1644      2027      2008      5486      5260      5488
 -1      3705    6    0    1
 -2      2086      2209      2192      4253      2990      2539      2979      5490      5718      5782
 -1      3706    6    0    1
 -2      2089      2208      2174      4254      2929      2798      2352      5645      5106      5214
 -1      3707    6    0    1
 -2      1181      1215      1096      4254      1784      1785      1354      5237      5236      5639
 -1      3708    6    0    1
 -2      2250      2145      2062      4284      2804      2803      2805      4711      6154      4919
 -1      3709    6    0    1
 -2      3434      3469      4034      4041      3664      6312      6305      6314      6313      4157
 -1      3710    6    0    1
 -2      1131      1069      1257      4278      1909      1911      1907      4378      4410      4411
 -1      3711    6    0    1
 -2      2188      2108      2064      4306      2788      2787      2782      5365      5450      5611
 -1      3712    6    0    1
 -2      2207      3798      3811      4251      6315      3957      6074      6073      5282      5622
 -1      3713    6    0    1
 -2      3250       370      2135      4229      3276      5958      6301      5803      5914      5863
 -1      3714    6    0    1
 -2      3264      3244      1197       209      3313      5595      4471      3312      3308      1520
 -1      3715    6    0    1
 -2      3446      3472      3483      4045      3698      3568      3694      6244      6214      6316
 -1      3716    6    0    1
 -2      3827      1205      3829      4227      5820      6317      3855      5501      5819      5521
 -1      3717    6    0    1
 -2      3798      3801      3811      4251      3996      3988      3957      5282      5623      5622
 -1      3718    6    0    1
 -2       442      3456      4059      2221      3588      6078      6318      2651      6319      6320
 -1      3719    6    0    1
 -2      1193      1066      1260      4250      1733      1737      1735      5621      6035      5045
 -1      3720    6    0    1
 -2       414      3709       482      3239      6321      3744      2476      3353      5693      6322
 -1      3721    6    0    1
 -2      4232      4213      4276      4295      4704      4428      5139      5534      5513      5329
 -1      3722    6    0    1
 -2      2124      2062      2149      4264      2806      2807      2762      4449      4916      4577
 -1      3723    6    0    1
 -2      3449      3443      3475      4060      3688      3629      3605      5949      5789      5982
 -1      3724    6    0    1
 -2       382      2137      2234      4302      2576      2577      2574      6324      6323      5483
 -1      3725    6    0    1
 -2      4035      3485      4044      3484      5892      5897      4174      6325      3619      5841
 -1      3726    6    0    1
 -2      3794      2208      2195      4254      5856      2510      5313      5215      5106      5535
 -1      3727    6    0    1
 -2      3471      3465      4031      1229      3544      5837      6096      6326      6251      6250
 -1      3728    6    0    1
 -2      3787      2070      2185      4282      6327      2553      5608      5307      6310      5607
 -1      3729    6    0    1
 -2      2129      2235      2071      4239      2836      2832      2833      5414      5415      5405
 -1      3730    6    0    1
 -2      1078      1242      1136      4239      1937      1941      1939      4746      4960      4444
 -1      3731    6    0    1
 -2      2238      2108      4275      4284      2955      5448      6328      6153      4712      5573
 -1      3732    6    0    1
 -2      4047      2225      3472      4045      6308      6307      6213      4149      6329      6214
 -1      3733    6    0    1
 -2      3464      4059      3456      2221      6013      6078      3593      6330      6320      6319
 -1      3734    6    0    1
 -2      3478      4065      1227      3482      6147      6145      6149      3511      6197      6331
 -1      3735    6    0    1
 -2      3249      3231      3267      4280      3390      3426      3344      5207      6291      5547
 -1      3736    6    0    1
 -2      3470      4034      3433      3434      6332      6299      3669      3665      6305      3670
 -1      3737    6    0    1
 -2      2124      2226      2064      4269      2764      2781      2784      4658      5945      5091
 -1      3738    6    0    1
 -2      3453      2215      2217      4039      6333      2669      6110      6134      6207      6208
 -1      3739    6    0    1
 -2      3485      4044       575      2224      5897      5840      3500      6167      6168      6334
 -1      3740    6    0    1
 -2      4237      4213      4281      4289      5348      4431      4405      5763      5762      5618
 -1      3741    6    0    1
 -2      3719      3239      3709      3713      6335      5693      3749      3771      5869      3772
 -1      3742    6    0    1
 -2       676       603       602      4235       927      1008      1007      5054      5115      4997
 -1      3743    6    0    1
 -2       602       603       674      4235      1008       923      1009      4997      5115      4996
 -1      3744    6    0    1
 -2      3718      3720      3719      3233      3775      3750      3782      6336      5795      6091
 -1      3745    6    0    1
 -2      1163        49       681       667      1417       794      5428      5101       790       795
 -1      3746    6    0    1
 -2      2253      2128      2059      4240      2772      2774      2775      6099      5507      6302
 -1      3747    6    0    1
 -2      2150       653       635      4292      6217       816      6337      6219      5948      6113
 -1      3748    6    0    1
 -2      4031      3447      3440      3465      6192      3703      5835      5837      3705      3704
 -1      3749    6    0    1
 -2      4059      3444      4042      4062      6339      6338      4181      4098      6340      4197
 -1      3750    6    0    1
 -2      3052      3716       479      3712      6342      3733      6341      5941      3740      3738
 -1      3751    6    0    1
 -2      3460      4063      3466      3436      5933      5980      3520      3644      5934      3640
 -1      3752    6    0    1
 -2      3474      4056      4041      1220      6343      4117      5852      6029      6344      6028
 -1      3753    6    0    1
 -2      2133      2076      2241      4296      3008      3009      2456      6243      5304      5227
 -1      3754    6    0    1
 -2      3239      3709       482      3719      5693      3744      6322      6335      3749      3748
 -1      3755    6    0    1
 -2      4230        92      4237      4308      5929      5340      4402      5069      5871      5537
 -1      3756    6    0    1
 -2      2059      2253      4240      4310      2775      6099      6302      6345      6100      6069
 -1      3757    6    0    1
 -2      3233      3261      3718      3244      3429      6076      6336      3418      3310      6007
 -1      3758    6    0    1
 -2      3465      4031      3447      3471      5837      6192      3705      3544      6096      3697
 -1      3759    6    0    1
 -2      3458      3478      1227       234      3514      6149      6275      3513      3509      1541
 -1      3760    6    0    1
 -2       654      1099      1157      4271      5350      1326      6346      4895      5351      5576
 -1      3761    6    0    1
 -2      3454      4051      3457      1224      6282      6116      3538      6347      6269      6268
 -1      3762    6    0    1
 -2      1245      3257      1246      4294      6349      6348      1493      6351      6350      6352
 -1      3763    6    0    1
 -2      1127       272      3710      3706      1684      3754      4833      4643      3758      3759
 -1      3764    6    0    1
 -2      2092       653      2150      4271      6353      6217      2325      6354      5024      6218
 -1      3765    6    0    1
 -2      4035      3448      3485      3484      5893      3581      5892      6325      3679      3619
 -1      3766    6    0    1
 -2      1236      3261      3243       207      6077      3307      6186      1514      3306      3302
 -1      3767    6    0    1
 -2      3817      1216      1199      4253      5685      1644      5485      5185      5260      5486
 -1      3768    6    0    1
 -2      4300      2171      2111      4306      4406      2778      4892      4351      4407      6355
 -1      3769    6    0    1
 -2      3042      3034      3043      4247      3196      3206      3186      5481      5477      4906
 -1      3770    6    0    1
 -2      2195      2089      2153      4254      2930      2354      2851      5535      5645      4870
 -1      3771    6    0    1
 -2      1096      1202      1160      4254      2017      1884      1356      5639      5493      5749
 -1      3772    6    0    1
 -2       585      2078        17      4290      6356      2300       588      5657      5402      6357
 -1      3773    6    0    1
 -2      1263      1083      1212      4233      1830      1825      1761      4606      4605      4912
 -1      3774    6    0    1
 -2       208      3244      1139      1236      3309      5596      1517      1513      6009      1518
 -1      3775    6    0    1
 -2      2125      2234      2094      4247      2575      2848      2849      6087      5480      5760
 -1      3776    6    0    1
 -2      1241      1132      1101      4247      1455      1739      1738      4907      5464      5427
 -1      3777    6    0    1
 -2      2170      2059      4240      4279      2912      6302      5660      5661      4858      5556
 -1      3778    6    0    1
 -2      1095      1180       647      4262      1394      6358      5662      5664      5738      5665
 -1      3779    6    0    1
 -2      3055      3029      3047      4288      3218      3227      3135      5494      5067      5727
 -1      3780    6    0    1
 -2      2145      2066      2062      4284      2602      2728      2803      6154      5431      4919
 -1      3781    6    0    1
 -2      2094      2120      2057      4255      2466      2896      2897      5759      5539      4355
 -1      3782    6    0    1
 -2       680       666       126      2156       903       899       901      5432      5092      2415
 -1      3783    6    0    1
 -2      4275      4225      4280      4309      5361      4555      6156      6209      5156      5157
 -1      3784    6    0    1
 -2      4064      2215       448      3461      6205      2308      5796      5797      6206      3606
 -1      3785    6    0    1
 -2      3044      2133       385      3036      6258      2579      3158      3161      5672      3159
 -1      3786    6    0    1
 -2      2201      2208      3815      4252      2513      5105      6112      5569      5104      4669
 -1      3787    6    0    1
 -2       659      1099        21       654      5349      1327       708       709      5350       704
 -1      3788    6    0    1
 -2      3474      3480      4056      1220      3550      6182      6343      6029      6359      6344
 -1      3789    6    0    1
 -2      3051      3708      3710       271      6131      3756      5909      6360      3751      3755
 -1      3790    6    0    1
 -2      3460       237       343      3452      3518      1555      5965      3523      3522      5966
 -1      3791    6    0    1
 -2      3459       551       445      3451      5968      2661      3595      3599      5969      3597
 -1      3792    6    0    1
 -2      1246      3257      3237      4294      6348      3289      6002      6352      6350      6361
 -1      3793    6    0    1
 -2       644       642       109      2249       852       848       850      5033      6362      2362
 -1      3794    6    0    1
 -2       643        32      1256       645       739      1364      6363       744       743      5035
 -1      3795    6    0    1
 -2      1089      1201      1159      4244      2013      2012      2014      4575      5813      5078
 -1      3796    6    0    1
 -2      2152      2194      2082      4244      2690      2689      2691      5076      5832      4571
 -1      3797    6    0    1
 -2      3231      3246      3267      4280      3427      3341      3426      6291      5905      5547
 -1      3798    6    0    1
 -2      4062      1227       341      3458      6146      1546      4081      6276      6275      6364
 -1      3799    6    0    1
 -2      1111      1137      4260      4293      1912      5696      6365      6366      5152      5745
 -1      3800    6    0    1
 -2      3456      3444      4059      4062      3673      6339      6078      6108      6340      4098
 -1      3801    6    0    1
 -2       231      1225       339      3473      1536      1538      1537      3502      6367      6368
 -1      3802    6    0    1
 -2       478      3711      2230      2133      3736      5669      2452      2454      5670      2455
 -1      3803    6    0    1
 -2      2134       362      3055      4220      6369      3077      6292      5580      6370      5063
 -1      3804    6    0    1
 -2      4066      1223      3450      3477      6372      6371      5792      6157      6373      3529
 -1      3805    6    0    1
 -2      3831      3788      2114      4241      3915      6199      6265      4801      4921      6200
 -1      3806    6    0    1
 -2      1129      1102      1172      4270      1981      1760      1711      5174      5445      4369
 -1      3807    6    0    1
 -2      1212      1083      1174      4233      1825      1824      1823      4912      4605      4475
 -1      3808    6    0    1
 -2      3472      2225      3483      4045      6307      6374      3568      6214      6329      6316
 -1      3809    6    0    1
 -2       208      3261      3244      1236      3305      3310      3309      1513      6077      6009
 -1      3810    6    0    1
 -2      3481      3476      4042      2220      3587      6375      6064      6066      6376      6065
 -1      3811    6    0    1
 -2      2194      2207      3811      4262      2530      6074      5833      5834      6075      5605
 -1      3812    6    0    1
 -2      3455      2217       539      4033      6109      2433      6304      5999      6111      4139
 -1      3813    6    0    1
 -2      2095      2056      2116      4265      2719      2721      2720      4585      5167      4980
 -1      3814    6    0    1
 -2      1063      1102      1123      4265      1757      1756      1754      5165      5527      4776
 -1      3815    6    0    1
 -2      1151      1138      1058      4287      1841      1867      1866      5052      4844      5519
 -1      3816    6    0    1
 -2      4275      3255      2238      4284      6377      6297      6328      5573      6298      6153
 -1      3817    6    0    1
 -2      2073      2177      2178      4308      2844      2843      2842      5870      6378      6379
 -1      3818    6    0    1
 -2       551      2223      4037      3459      2663      6380      4090      5968      6381      6274
 -1      3819    6    0    1
 -2      3807      1192      1077      4282      6254      1654      5447      4809      6256      5323
 -1      3820    6    0    1
 -2      1158       650      1251      4282      6051      5316      1427      6053      5317      4547
 -1      3821    6    0    1
 -2      2101       668      2176      4245      5606      6382      2342      5368      5413      4886
 -1      3822    6    0    1
 -2      3809      3829      1200      4256      3858      6383      6158      5031      5522      6024
 -1      3823    6    0    1
 -2      2104      2148      2149      4311      2983      2758      2984      4458      5828      4578
 -1      3824    6    0    1
 -2      4228      4240      4272      4279      5552      5921      5922      5555      5556      6384
 -1      3825    6    0    1
 -2      2056      2096      2117      4268      2714      2713      2712      5168      6125      5708
 -1      3826    6    0    1
 -2      1063      1124      1103      4268      1749      1748      1750      5166      4464      4469
 -1      3827    6    0    1
 -2       177      3041      3036      1140      3106      3109      3108      1466      5698      5378
 -1      3828    6    0    1
 -2       570      3433      4040       569      3614      6005      5561       572      3613      5636
 -1      3829    6    0    1
 -2      2123      4044       575      4307      6386      5840      6385      5285      6232      6127
 -1      3830    6    0    1
 -2      1214      1180      1095      4262      1895      1394      1896      5716      5738      5664
 -1      3831    6    0    1
 -2      1118      1071      1178      4258      1788      1787      1741      5777      4928      5331
 -1      3832    6    0    1
 -2      4275      3228      4284      4294      6387      5971      5573      6388      5972      5973
 -1      3833    6    0    1
 -2       240       589      1223      3450      6390      6389      1312      3527      6036      6371
 -1      3834    6    0    1
 -2      2122      2106      2166      4267      2594      3018      2994      4962      5769      5181
 -1      3835    6    0    1
 -2      1113      1129      1173      4267      1481      1712      1967      5399      5172      5022
 -1      3836    6    0    1
 -2      1176      1134      1062      4295      1813      1811      1807      5425      5426      6303
 -1      3837    6    0    1
 -2      4057      3454      3462      1222      6105      3535      5755      6392      6391      6393
 -1      3838    6    0    1
 -2        92      2177      2073      4308      5979      2844      5342      5871      6378      5870
 -1      3839    6    0    1
 -2      3791      3824      3795      4242      3912      3983      4022      4396      5585      4759
 -1      3840    6    0    1
 -2      4033       539      2222      4047      4139      2435      5998      4146      4144      6017
 -1      3841    6    0    1
 -2       442      4059       549      2221      6318      4180      2653      2651      6320      2654
 -1      3842    6    0    1
 -2      2144      2051      2131      4274      2951      2875      2974      5706      5705      6140
 -1      3843    6    0    1
 -2      4060      2216      3449       590      6394      6236      5949      4078      6237      6006
 -1      3844    6    0    1
 -2      2227      2128      2144      4241      2953      2950      2921      6395      5505      5995
 -1      3845    6    0    1
 -2      4046      3480      3471      1232      6184      3547      6097      6397      6396      6398
 -1      3846    6    0    1
 -2      2121      3047      2183      4288      6399      5726      2564      6400      5727      5728
 -1      3847    6    0    1
 -2      3458      1227       341       234      6275      1546      6364      3513      1541      1547
 -1      3848    6    0    1
 -2      2094       480      2120      4302      2465      2463      2466      5761      6284      5540
 -1      3849    6    0    1
 -2      3446      3447      3472      4045      3696      3699      3698      6244      6191      6214
 -1      3850    6    0    1
 -2      1230       343      4061      3460      1557      4086      6401      6402      5965      5793
 -1      3851    6    0    1
 -2      3437      3456      4062      3458      3676      6108      6088      3677      3674      6276
 -1      3852    6    0    1
 -2      2210      3800      2203      4245      5722      5026      2504      5098      5134      5135
 -1      3853    6    0    1
 -2      3481      4036      3448      2218      6063      5890      3584      6273      6272      6403
 -1      3854    6    0    1
 -2       575      4044      2123      2224      5840      6386      6385      6334      6168      2292
 -1      3855    6    0    1
 -2      3051      3037      1144      4302      3100      5924      6204      5911      5650      5925
 -1      3856    6    0    1
 -2      3032      3062      4296      4303      3214      6229      5094      5095      6230      4752
 -1      3857    6    0    1
 -2       240      3462       589      3450      3531      5754      6390      3527      3532      6036
 -1      3858    6    0    1
 -2      3437      4037      3464      3436      6015      6012      3637      3638      6126      3636
 -1      3859    6    0    1
 -2      1155      1070      1111      4293      1916      1914      1915      4654      6278      6366
 -1      3860    6    0    1
 -2      3797      3805      3790      4226      3878      4014      4013      5713      4796      5526
 -1      3861    6    0    1
 -2      2099      2208      2201      4252      2797      2513      2799      5295      5104      5569
 -1      3862    6    0    1
 -2      3245      3240      3234      4268      3384      3383      3321      4463      5810      6072
 -1      3863    6    0    1
 -2      2085      3246      2239      4275      6280      6404      2611      5947      6164      6405
 -1      3864    6    0    1
 -2      2074      2180      2179      4279      2825      2828      2827      5962      5961      6406
 -1      3865    6    0    1
 -2       675       113      2090       640       862      2375      5633       864       860      5634
 -1      3866    6    0    1
 -2      2190      2132      2075      4286      2627      2975      2889      4360      5613      6407
 -1      3867    6    0    1
 -2      2087       651       678       101      5668       828      5305      2335       824       826
 -1      3868    6    0    1
 -2      3461      2215      3453      4039      6206      6333      3611      5807      6207      6134
 -1      3869    6    0    1
 -2      1065      1129      1172      4270      1709      1711      1710      5385      5174      4369
 -1      3870    6    0    1
 -2      1189      1218      1079      4301      1762      1976      1975      4716      6048      4717
 -1      3871    6    0    1
 -2      3449      3475      2216      4060      3605      6408      6236      5949      5982      6394
 -1      3872    6    0    1
 -2      3473      1225      4049      3482      6367      6409      6410      3508      6411      6195
 -1      3873    6    0    1
 -2      1122      1145      1235      4230      1658      1814      1880      4590      5591      4670
 -1      3874    6    0    1
 -2      2133      2241      3714      4296      2456      5346      6242      6243      5227      5347
 -1      3875    6    0    1
 -2      3815      3786      3797      4252      3994      3873      3993      4669      4667      5750
 -1      3876    6    0    1
 -2       633      1108        26       669      5247      1344       725       726      5248       721
 -1      3877    6    0    1
 -2       361      1141      3056      4250      6412      6170      3072      6413      6142      6171
 -1      3878    6    0    1
 -2       274      3718      3243      1236      3763      6185      6414      1515      6010      6186
 -1      3879    6    0    1
 -2      1247      3717       275      1139      4957      3723      1292      1694      5593      1693
 -1      3880    6    0    1
 -2      3253      3257      1152      4294      3284      6415      5523      5524      6350      4924
 -1      3881    6    0    1
 -2        36       641       677      1097       751       756       755      1378      5936      5935
 -1      3882    6    0    1
 -2       646      2173      2088      4262      6133      2393      5701      5476      5733      5702
 -1      3883    6    0    1
 -2      1139      3718       275      1236      6008      3764      1693      1518      6010      1692
 -1      3884    6    0    1
 -2       481      3709      2136      2093      3745      5217      2468      2471      4696      2472
 -1      3885    6    0    1
 -2      2145      3250      2066      4284      6151      5804      2602      6154      5805      5431
 -1      3886    6    0    1
 -2      2210      2203      2101      4245      2504      3028      3017      5098      5135      5368
 -1      3887    6    0    1
 -2      1217      1108      1210      4245      1898      1958      1609      5142      5249      5272
 -1      3888    6    0    1
 -2       642      2161       109      2249      5838      2356       848      6362      2363      2362
 -1      3889    6    0    1
 -2      1168        32      1256       643      1358      1364      1365      5872       739      6363
 -1      3890    6    0    1
 -2      3485      4044       547      4035      5897      4170      6166      5892      4174      4175
 -1      3891    6    0    1
 -2      4232      4213      4295      4299      4704      5513      5534      4709      4707      6416
 -1      3892    6    0    1
 -2      4050      3433      3468      3487      5989      3687      6124      5991      3615      3557
 -1      3893    6    0    1
 -2      2075      2132      2240      4286      2975      2481      2976      6407      5613      5988
 -1      3894    6    0    1
 -2       661        39      1105       627       760      1389      5686       765       764      5825
 -1      3895    6    0    1
 -2       419      3240      2258      3266      3366      5808      2632      3368      3370      6417
 -1      3896    6    0    1
 -2       685      1093      1182      4253      6021      1413      6418      5952      5488      5779
 -1      3897    6    0    1
 -2       684      2175      2086      4253      6419      2411      6020      5953      5778      5490
 -1      3898    6    0    1
 -2      1239      1147      1067      4224      2003      1971      1979      5444      4335      4434
 -1      3899    6    0    1
 -2      1208      1215      1106      4252      1618      1786      2022      5928      5235      5338
 -1      3900    6    0    1
 -2       387      2191      3062      4303      2582      6227      3162      6420      6231      6230
 -1      3901    6    0    1
 -2      1129       182      3038      1113      1477      3126      5173      1481      1482      5396
 -1      3902    6    0    1
 -2      2122      2166      2058      4267      2994      2995      2992      4962      5181      5558
 -1      3903    6    0    1
 -2      1173      1129      1065      4267      1712      1709      1708      5022      5172      5383
 -1      3904    6    0    1
 -2      2258      2117      3240       419      2633      5809      5808      2632      2628      3366
 -1      3905    6    0    1
 -2      4220      2067      2060      4288      5582      2892      4637      4641      6189      4640
 -1      3906    6    0    1
 -2      4063      1230      4061      3460      6421      6401      4087      5933      6402      5793
 -1      3907    6    0    1
 -2      4297      2105      2148      4311      5354      2924      5827      4774      5906      5828
 -1      3908    6    0    1
 -2      4065      1227       341      4062      6145      1546      4135      4138      6146      4081
 -1      3909    6    0    1
 -2      4035      4049      4038      3473      4133      4202      4203      6422      6410      6423
 -1      3910    6    0    1
 -2      2217      2215       538      4039      2669      2312      2670      6208      6207      4141
 -1      3911    6    0    1
 -2      4062       341      1228      3458      4081      1548      6424      6276      6364      6425
 -1      3912    6    0    1
 -2        18       448      2216       590      2307      2310      2311       593      5798      6237
 -1      3913    6    0    1
 -2      3238      3262      3230      4286      3364      3387      3415      5615      4361      4474
 -1      3914    6    0    1
 -2      2161      2099      2201      4252      2360      2799      2737      5839      5295      5569
 -1      3915    6    0    1
 -2      1211      1216      3808      4263      1641      5261      5859      5275      5262      5110
 -1      3916    6    0    1
 -2      3053      3716       479      3052      6288      3733      6426      3155      6342      6341
 -1      3917    6    0    1
 -2      3459      3464      4037      3436      3596      6012      6274      3641      3636      6126
 -1      3918    6    0    1
 -2      2188      2171      2053      4306      2783      3014      3015      5365      4407      4552
 -1      3919    6    0    1
 -2      2145       408      3250      2238      2601      3278      6151      2603      2598      6152
 -1      3920    6    0    1
 -2      1238      1111      1137      4260      1964      1912      1963      5577      6365      5696
 -1      3921    6    0    1
 -2      4050      4040      3433       569      4123      6005      5989      5990      5636      3613
 -1      3922    6    0    1
 -2       621       639       604      4263       969       968       967      5923      5357      6427
 -1      3923    6    0    1
 -2       604       638       621      4263       966       965       967      6427      5359      5923
 -1      3924    6    0    1
 -2       617       646       596      4262       952       954       955      5475      5476      5222
 -1      3925    6    0    1
 -2       246      3480      3474      1220      3545      3550      3549      1576      6359      6029
 -1      3926    6    0    1
 -2      2111      2171      2064      4306      2778      2777      2779      6355      4407      5611
 -1      3927    6    0    1
 -2      1155      1112      1070      4259      1921      1920      1916      4615      6428      6277
 -1      3928    6    0    1
 -2      3708      3716      3053      3031      3779      6288      6429      6049      6050      3225
 -1      3929    6    0    1
 -2        86        87      4228      4272        89      5848      4545      6431      6430      5922
 -1      3930    6    0    1
 -2       548      2218      4036      2220      2684      6272      4172      2685      2649      6067
 -1      3931    6    0    1
 -2      2074      2179      2160      4279      2827      2263      2822      5962      6406      6432
 -1      3932    6    0    1
 -2       421      3254      2142      2113      3374      5288      2634      2638      5040      2639
 -1      3933    6    0    1
 -2      3712      2137      3052      4302      6434      6433      5941      5910      6323      6081
 -1      3934    6    0    1
 -2      1116      1066      4250      4305      1734      6035      6034      6435      5746      6198
 -1      3935    6    0    1
 -2      1152      3257      1245      4294      6415      6349      1490      4924      6350      6351
 -1      3936    6    0    1
 -2       672       642      2099       108       849      5386      5293       845       847      2358
 -1      3937    6    0    1
 -2       643      1106        31       673      5421      1361       740       741      5337       736
 -1      3938    6    0    1
 -2      1090      1205      1164      4227      1930      1929      1931      5434      5819      5433
 -1      3939    6    0    1
 -2      2157      2198      2083      4227      2795      2794      2796      4783      5510      4325
 -1      3940    6    0    1
 -2      2121      2068      2237      4288      2878      2880      2879      6400      6294      6293
 -1      3941    6    0    1
 -2      3053      3711      3716      3708      6289      3735      6288      6429      3777      3779
 -1      3942    6    0    1
 -2       482      2136      3709       414      2469      5217      3744      2476      2477      6321
 -1      3943    6    0    1
 -2      1118      1147      1233      4273      1970      1703      1922      5776      4336      5458
 -1      3944    6    0    1
 -2       584      3795      4242      4290      3981      4759      4793      5209      5976      5211
 -1      3945    6    0    1
 -2        99      2243       624      2157      2328      4381       820      2322      2329      5404
 -1      3946    6    0    1
 -2      1168      1208      1106      4252      1858      2022      1362      5873      5928      5338
 -1      3947    6    0    1
 -2      3484      4035      3448      3473      6325      5893      3679      3503      6422      3678
 -1      3948    6    0    1
 -2      1058      1239      1260      4287      2000      1980      1989      5519      5588      5178
 -1      3949    6    0    1
 -2      3458       341      1228       234      6364      1548      6425      3513      1547      1545
 -1      3950    6    0    1
 -2      2236      2125      2094      4247      2900      2849      2901      5369      6087      5760
 -1      3951    6    0    1
 -2      1132      1243      1101      4247      1891      1892      1739      5464      6221      5427
 -1      3952    6    0    1
 -2      2214      4032      3475      3451      6437      5630      6436      6438      5678      3602
 -1      3953    6    0    1
 -2       548      4036      4042      2220      4172      4179      4177      2685      6067      6065
 -1      3954    6    0    1
 -2       539      2222       451      3455      2435      2430      2434      6304      5997      3561
 -1      3955    6    0    1
 -2       626       116      2098       660       871      2387      5877       873       869      5878
 -1      3956    6    0    1
 -2       387      3062      3046      4303      3162      3167      3166      6420      6230      6114
 -1      3957    6    0    1
 -2      3233      3718      3261      3243      6336      6076      3429      3425      6185      3307
 -1      3958    6    0    1
 -2      1241       174      3037      1144      1453      3099      5649      1458      1457      5924
 -1      3959    6    0    1
 -2      2207      2202      3798      4251      2527      5652      6315      6073      5653      5282
 -1      3960    6    0    1
 -2      2209      2204      3823      4263      2536      6253      5717      5719      5900      5111
 -1      3961    6    0    1
 -2      3244      3238      3230      4286      3419      3415      3420      5597      5615      4474
 -1      3962    6    0    1
 -2      3445      4038      3478      3482      6439      6224      3625      3623      6196      3511
 -1      3963    6    0    1
 -2      3053      2230      3711      3036      6287      5669      6289      3160      5673      5671
 -1      3964    6    0    1
 -2      3438      3469      3434      4041      3667      3664      3668      5850      6313      6314
 -1      3965    6    0    1
 -2       118      2088       670       646      2392      5700       877       875      5701       879
 -1      3966    6    0    1
 -2       374      2159      2110      4298      2266      2556      2275      6440      5572      5913
 -1      3967    6    0    1
 -2      1163       681        49      1098      5428       794      1417      1424      5860      1423
 -1      3968    6    0    1
 -2      2133       478      3711      3714      2454      3736      5670      6242      3727      3737
 -1      3969    6    0    1
 -2      4064       538      2215      4039      4073      2312      6205      4142      4141      6207
 -1      3970    6    0    1
 -2      1135      1177      1061      4238      1770      1766      1771      5049      5170      5912
 -1      3971    6    0    1
 -2       386      2191      2133      3044      2581      2583      2580      3157      6246      6258
 -1      3972    6    0    1
 -2      2236      2125      4247      4304      2900      6087      5369      5372      6120      5373
 -1      3973    6    0    1
 -2      3720      3717       579      4286      3769      3767      3732      5614      4958      5423
 -1      3974    6    0    1
 -2      3718       275      3717      1139      3764      3723      3766      6008      1693      5593
 -1      3975    6    0    1
 -2      3796      3829      3809      4256      3999      3858      3998      5030      5522      5031
 -1      3976    6    0    1
 -2      4032      3475      4060      2214      5630      5982      4183      6437      6436      6441
 -1      3977    6    0    1
 -2      3037      3043       174      1241      3101      3095      3099      5649      4908      1453
 -1      3978    6    0    1
 -2      4062      3444      4042      4038      6340      6338      4197      4196      6442      4198
 -1      3979    6    0    1
 -2      2055      2127      2169      4237      2947      2815      2847      5883      6016      5575
 -1      3980    6    0    1
 -2       271      3710      3051      1144      3755      5909      6360      1461      6180      6204
 -1      3981    6    0    1
 -2      3064       172      1189      3040      3091      1445      4874      3093      3089      4875
 -1      3982    6    0    1
 -2       596       647       617      4262       956       953       955      5222      5665      5475
 -1      3983    6    0    1
 -2      4030      1130      4043      4307      5918      6044      4129      4740      5287      6045
 -1      3984    6    0    1
 -2      3450       589      1223      4066      6036      6389      6371      5792      4072      6372
 -1      3985    6    0    1
 -2      1105      1180      1214      4251      1388      1895      1897      5687      5735      5714
 -1      3986    6    0    1
 -2      2207      2173      2098      4251      2927      2386      2939      6073      5732      5879
 -1      3987    6    0    1
 -2      2247       105       628      2153      2344       836      4942      2349      2348      4943
 -1      3988    6    0    1
 -2      1160      1254        28       629      1351      1346      1350      4947      4946       727
 -1      3989    6    0    1
 -2      3055      3047      2121      4288      3135      6399      6443      5494      5727      6400
 -1      3990    6    0    1
 -2      2085      2108      2188      4275      2988      2788      2987      5947      5448      5362
 -1      3991    6    0    1
 -2      2245       635       690      4292      6444       813      6233      6234      6113      5242
 -1      3992    6    0    1
 -2      2113      2065      2168      4243      2711      2703      2640      5041      5146      6223
 -1      3993    6    0    1
 -2      1072      1120      1175      4243      1778      1534      1740      5648      4822      5772
 -1      3994    6    0    1
 -2      1250        23      1154       614      1329      1333      1334      4736       715      5901
 -1      3995    6    0    1
 -2      2052      2232      2254      4289      2967      2733      2949      5325      4730      5565
 -1      3996    6    0    1
 -2      3715      3714       579      4296      3770      3731      3768      5380      5347      5228
 -1      3997    6    0    1
 -2      1149      1120      1065      4266      1533      1706      1705      5442      4823      5384
 -1      3998    6    0    1
 -2      2113      2142      2058      4266      2639      2996      2997      5042      4781      5559
 -1      3999    6    0    1
 -2      2164      2204      2100      4263      2694      2938      2405      6058      5900      5257
 -1      4000    6    0    1
 -2      1211      1171      1107      4263      1899      1405      1900      5275      6060      5254
 -1      4001    6    0    1
 -2      1224      3457       243       331      6268      3536      1563      1568      6092      1569
 -1      4002    6    0    1
 -2       539       451      2217      3455      2434      2431      2433      6304      3561      6109
 -1      4003    6    0    1
 -2      3032      3062      3044      4296      3214      3164      3213      5094      6229      6247
 -1      4004    6    0    1
 -2      4060      3475      2216      2214      5982      6408      6394      6441      6436      2666
 -1      4005    6    0    1
 -2      4250      4238      4214      4272      6046      6019      4700      5119      6162      5118
 -1      4006    6    0    1
 -2      4066      1221      1223      3477      6445      1560      6372      6157      6446      6373
 -1      4007    6    0    1
 -2       387      2116      2191      4303      2584      2586      2582      6420      6190      6231
 -1      4008    6    0    1
 -2      3476      4042      3444      4038      6375      6338      3672      6447      4198      6442
 -1      4009    6    0    1
 -2      1147      1057      1233      4273      1700      1699      1703      4336      4873      5458
 -1      4010    6    0    1
 -2      3828      3813      1121      4248      3846      6448      4935      4620      5964      4936
 -1      4011    6    0    1
 -2      2086      2175      2209      4253      2411      2936      2990      5490      5778      5718
 -1      4012    6    0    1
 -2      1093      1216      1182      4253      2027      1901      1413      5488      5260      5779
 -1      4013    6    0    1
 -2      1127      1064      1100      4255      1836      1838      1689      4642      4365      4452
 -1      4014    6    0    1
 -2        17      2078      2141      4290      2300      2306      2305      6357      5402      5403
 -1      4015    6    0    1
 -2      2166      2113      2058      4266      2710      2997      2995      6101      5042      5559
 -1      4016    6    0    1
 -2      1120      1173      1065      4266      1707      1708      1706      4823      5020      5384
 -1      4017    6    0    1
 -2      3831      2078      2114       491      4839      2484      6265      3838      2301      2482
 -1      4018    6    0    1
 -2      2156       126       680      2091      2415       901      5432      2422      2421      5895
 -1      4019    6    0    1
 -2      2238      2145      2108      4284      2603      2954      2955      6153      6154      4712
 -1      4020    6    0    1
 -2      1211      1107      1216      4263      1900      1902      1641      5275      5254      5262
 -1      4021    6    0    1
 -2      2100      2204      2209      4263      2938      2536      2937      5257      5900      5719
 -1      4022    6    0    1
 -2       657       623       622      4282       908       976       977      5887      5857      5264
 -1      4023    6    0    1
 -2      3237      3228      4275      4294      3413      6387      6163      6361      5972      6388
 -1      4024    6    0    1
 -2      4249      4242      4281      4290      6082      4400      5774      6222      5211      5977
 -1      4025    6    0    1
 -2       615       637       616      4292       943       942       939      5231      4624      4836
 -1      4026    6    0    1
 -2      3791      1145      3807       304      5589      5590      3911      3909      1657      3906
 -1      4027    6    0    1
 -2      3480      4056      3439      3474      6182      6248      3684      3550      6343      3683
 -1      4028    6    0    1
 -2      2089       634       648       106      5642       843      5643      2353       839       841
 -1      4029    6    0    1
 -2       636        29      1096       649       730      1355      5637       735       734      5638
 -1      4030    6    0    1
 -2      3050      3708      3051       271      6132      6131      3104      6449      3751      6360
 -1      4031    6    0    1
 -2      3438      3434      3467      4041      3668      3686      3680      5850      6314      5851
 -1      4032    6    0    1
 -2      3068      1119       171      4301      6450      1448      3086      5824      6451      6452
 -1      4033    6    0    1
 -2      2252      2197      2107      4234      3020      2283      3019      5694      5816      5011
 -1      4034    6    0    1
 -2      1114      1204      1259      4234      1280      1969      1718      5062      5818      4493
 -1      4035    6    0    1
 -2      1101      3710       272      1144      5330      3754      1686      1687      6180      1682
 -1      4036    6    0    1
 -2      3805       293      1207      3797      3877      1622      4795      3878      3871      5712
 -1      4037    6    0    1
 -2      2121      2067      3055      4288      2560      6188      6443      6400      6189      5494
 -1      4038    6    0    1
 -2       412      3235      3249      2126      3348      3347      3343      2618      6453      6454
 -1      4039    6    0    1
 -2      2254      2127      2052      4289      2817      2751      2949      5565      5563      5325
 -1      4040    6    0    1
 -2      4050      3434      4034      4041      6123      6305      4194      4115      6314      4157
 -1      4041    6    0    1
 -2       284      1146      1076      3820      1593      1594      1595      3848      4581      4753
 -1      4042    6    0    1
 -2       379      3069      3045      2112      3136      3141      3140      2567      4818      5454
 -1      4043    6    0    1
 -2      3231      3259      3237      4280      3391      3287      3430      6291      6041      6165
 -1      4044    6    0    1
 -2      4058      1221      3477      3452      6455      6446      6070      5721      6456      3526
 -1      4045    6    0    1
 -2       249      4050      3468      3487      6457      6124      3554      3490      5991      3557
 -1      4046    6    0    1
 -2      3063      2116      2257       388      4979      2589      4418      3169      2585      2587
 -1      4047    6    0    1
 -2       171      1119      1189      4301      1448      1449      1446      6452      6451      4716
 -1      4048    6    0    1
 -2      4063      3466      1230      3460      5980      6458      6421      5933      3520      6402
 -1      4049    6    0    1
 -2       650       622       623      4282       974       976       975      5317      5264      5857
 -1      4050    6    0    1
 -2      1203      1097      1162      4261      1954      1379      1868      5270      5938      4983
 -1      4051    6    0    1
 -2        18      2215       448      4064      2309      2308      2307      4074      6205      5796
 -1      4052    6    0    1
 -2       386      3062      2191      3044      3163      6227      2581      3157      3164      6246
 -1      4053    6    0    1
 -2      1258      3248       204      1133      4930      3291      1499      1506      4931      1505
 -1      4054    6    0    1
 -2      1261      1059      1134      4276      1986      1878      1985      5133      5131      6094
 -1      4055    6    0    1
 -2      1133      3248       204      3235      4931      3291      1505      4685      3297      3296
 -1      4056    6    0    1
 -2      1131      1156      1069      4278      1695      1910      1909      4378      4588      4410
 -1      4057    6    0    1
 -2      2108      2145      2250      4284      2954      2804      2789      4712      6154      4711
 -1      4058    6    0    1
 -2        10      3824      1084       584      3835      5583      1305       586      3836      5584
 -1      4059    6    0    1
 -2      1196      1195      1092      4309      2029      2030      2018      5155      5758      5855
 -1      4060    6    0    1
 -2      3046      2116       387      4303      5190      2584      3166      6114      6190      6420
 -1      4061    6    0    1
 -2      2087      2147      2193      4256      2336      2791      2933      5306      4549      5439
 -1      4062    6    0    1
 -2      1200      1154      1094      4256      1819      1339      1820      6024      5903      5143
 -1      4063    6    0    1
 -2      1236      3243       274       207      6186      6414      1515      1514      3302      1510
 -1      4064    6    0    1
 -2       492      3788      3802      2139      3913      3918      3917      2487      5543      5466
 -1      4065    6    0    1
 -2      2061      2187      2110      4298      2813      2812      2811      5550      5864      5913
 -1      4066    6    0    1
 -2      3228      3255      4275      4284      3399      6377      6387      5971      6298      5573
 -1      4067    6    0    1
 -2      2239      2238      2108      4275      2606      2955      2956      6405      6328      5448
 -1      4068    6    0    1
 -2      4301      3040      3045      4304      5048      3197      5455      4719      4876      6459
 -1      4069    6    0    1
 -2       111       630       662      2097       856       858       854      2370      5147      4538
 -1      4070    6    0    1
 -2      1220      3480      4056       333      6359      6182      6344      1578      6460      4111
 -1      4071    6    0    1
 -2      2214       551      4032      3451      2662      4094      6437      6438      5969      5678
 -1      4072    6    0    1
 -2       663        34      1104       631       745      1372      4487       750       749      6266
 -1      4073    6    0    1
 -2      2070      2244      2151      4282      2910      2425      3013      6310      5886      5375
 -1      4074    6    0    1
 -2       103       632       668      2101       832       834       830      2341      5367      5606
 -1      4075    6    0    1
 -2       540      2225      2222      4047      2672      2438      2671      4145      6308      6017
 -1      4076    6    0    1
 -2       205      1240      3241      3263      1502      5456      3294      3300      6461      3301
 -1      4077    6    0    1
 -2      1209      1105      1214      4251      2023      1897      1632      5601      5687      5714
 -1      4078    6    0    1
 -2      2098      2202      2207      4251      2940      2527      2939      5879      5653      6073
 -1      4079    6    0    1
 -2      3477      4066      1221      4058      6157      6445      6446      6070      4089      6455
 -1      4080    6    0    1
 -2      2229       483      2132      3720      2474      2480      2479      5530      3730      5532
 -1      4081    6    0    1
 -2      2059      2186      2253      4310      2776      2771      2775      6345      5003      6100
 -1      4082    6    0    1
 -2      3068       171      3040      4301      3086      3088      3090      5824      6452      5048
 -1      4083    6    0    1
 -2      2244      2070      2103      4308      2910      2908      2428      5951      6311      6462
 -1      4084    6    0    1
 -2      2223      3464      4037      3459      6463      6012      6380      6381      3596      6274
 -1      4085    6    0    1
 -2        91       689       623      4308       808       809       806      6261      5070      5858
 -1      4086    6    0    1
 -2      2183      2068      2121      4288      2877      2878      2564      5728      6294      6400
 -1      4087    6    0    1
 -2      2087      2147       651       101      2336      4702      5668      2335      2330       824
 -1      4088    6    0    1
 -2       114      2248       664       675      2379      5088       865       863      6464       867
 -1      4089    6    0    1
 -2      2100       121       638       686      2404       884      5358      5256       886       888
 -1      4090    6    0    1
 -2       687      1107        44       639      5250      1406       779       780      5356       775
 -1      4091    6    0    1
 -2       171      1189      3040      4301      1446      4875      3088      6452      4716      5048
 -1      4092    6    0    1
 -2      3478      4062      3444      3458      6148      6340      3690      3514      6276      3675
 -1      4093    6    0    1
 -2      4258      4219      4285      4300      5056      4599      5392      5055      4347      6279
 -1      4094    6    0    1
 -2         9      1248       580      1174      1291      4742       583      1295      1296      4390
 -1      4095    6    0    1
 -2       545      4052      2181      4053      4167      4673      2680      4162      4168      5212
 -1      4096    6    0    1
 -2      2120      2093      2057      4255      2470      2895      2896      5539      4697      4355
 -1      4097    6    0    1
 -2      2131      2063      2141      4297      2923      2965      2972      6141      6102      6103
 -1      4098    6    0    1
 -2      4038      3444      3476      3445      6442      3672      6447      6439      3689      3621
 -1      4099    6    0    1
 -2      1230      1228      3466      4063      1551      6465      6458      6421      6466      5980
 -1      4100    6    0    1
 -2      3713      3718      3243       274      3765      6185      6202      3761      3763      6414
 -1      4101    6    0    1
 -2       388      3063      2116      3046      3169      4979      2585      3165      3170      5190
 -1      4102    6    0    1
 -2      2063      2105      2148      4297      2922      2924      2925      6102      5354      5827
 -1      4103    6    0    1
 -2      3067      3056      3029      4257      3131      3216      3217      4680      6193      4679
 -1      4104    6    0    1
 -2      1143      1100      3706       273      1691      4453      4675      1688      1690      3757
 -1      4105    6    0    1
 -2      1189      1119      1218      4301      1449      1763      1762      4716      6451      6048
 -1      4106    6    0    1
 -2      1095       647        41       671      5662       766      1395      5663       771       770
 -1      4107    6    0    1
 -2      1223        11       589       240      1313       591      6389      1312      1310      6390
 -1      4108    6    0    1
 -2      1186      1167        86      4305      1301      6467      5496      6033      6211      6032
 -1      4109    6    0    1
 -2      1100      1127      3706       273      1689      4643      4453      1690      1683      3757
 -1      4110    6    0    1
 -2      1247         9       580      1174      1293       583      4391      1294      1295      4390
 -1      4111    6    0    1
 -2      1081      1061      1177      4305      1767      1766      1765      6210      6259      5748
 -1      4112    6    0    1
 -2        27      1254      1170       629      1347      1348      1341       728      4946      5073
 -1      4113    6    0    1
 -2      2247       628       104      2163      4942       835      2345      2346      5074      2339
 -1      4114    6    0    1
 -2      2239      3255      2238      4275      6468      6297      2606      6405      6377      6328
 -1      4115    6    0    1
 -2      1220       246      3480       333      1576      3545      6359      1578      1577      6460
 -1      4116    6    0    1
 -2      3439      3483      3479      4054      3693      3571      3701      6177      6469      6176
 -1      4117    6    0    1
 -2      3050      3036      3708      1237      3110      6022      6132      6470      6283      6471
 -1      4118    6    0    1
 -2        10      1148      1085       584      1307      1308      1303       586      4791      4824
 -1      4119    6    0    1
 -2        99       624       658      2157       820       822       818      2322      5404      4785
 -1      4120    6    0    1
 -2      3051      3052      3037      4302      3185      3152      3100      5911      6081      5650
 -1      4121    6    0    1
 -2       114      2155      2248       675      2373      2380      2379       863      4862      6464
 -1      4122    6    0    1
 -2       652        24      1094       679       713      1338      5626       720       719      5627
 -1      4123    6    0    1
 -2        10      1084      1148       584      1305      1306      1307       586      5584      4791
 -1      4124    6    0    1
 -2       661      1105        39      1169      5686      1389       760      5004      1390      1383
 -1      4125    6    0    1
 -2        48      1249       676       667      1414      5498       787       791      6472       792
 -1      4126    6    0    1
 -2      2115      2143      2228      4281      2746      2748      2753      6138      5616      6473
 -1      4127    6    0    1
 -2      1214      3801      1209      4251      5715      6257      1632      5714      5623      5601
 -1      4128    6    0    1
 -2      2071      2154      2189      4280      2837      2838      2835      5406      5546      4556
 -1      4129    6    0    1
 -2      4033      2217       538      4039      6111      2670      4140      4143      6208      4141
 -1      4130    6    0    1
 -2      1097       677        36      1162      5935       755      1378      1379      4981      1376
 -1      4131    6    0    1
 -2      1176      1062      1080      4295      1807      1806      1805      5425      6303      5826
 -1      4132    6    0    1
 -2      2069      2180      2139      4228      2863      2862      2488      5245      6264      5467
 -1      4133    6    0    1
 -2       545      2181      2107      4053      2680      2682      2677      4162      5212      5010
 -1      4134    6    0    1
 -2       113      2090      2155       675      2375      2377      2374       862      5633      4862
 -1      4135    6    0    1
 -2      3478      3444      4038      3445      3690      6442      6224      3625      3689      6439
 -1      4136    6    0    1
 -2      1080      1062      1185      4295      1806      1809      1808      5826      6303      6226
 -1      4137    6    0    1
 -2      3067      3055       362      4220      3132      3077      3129      4678      5063      6370
 -1      4138    6    0    1
 -2      2088      2173      2207      4262      2393      2927      2926      5702      5733      6075
 -1      4139    6    0    1
 -2      4054      3483      2225      4045      6469      6374      6474      4151      6316      6329
 -1      4140    6    0    1
 -2      1077      1185      1145      4230      1932      1816      1656      5322      6068      5591
 -1      4141    6    0    1
 -2      3805      1207       293      3784      4795      1622      3877      3876      5311      3874
 -1      4142    6    0    1
 -2      3831      2114      3788       491      6265      6199      3915      3838      2482      3914
 -1      4143    6    0    1
 -2      1188       337      4055      4030      1674      4120      4618      4739      4125      4126
 -1      4144    6    0    1
 -2      1119      1218      4301      4312      1763      6048      6451      6475      6262      6263
 -1      4145    6    0    1
 -2         8      1231      1130       574      1286      1289      1288       576      6117      6042
 -1      4146    6    0    1
 -2      2182       379      3045      2112      2565      3140      6476      2568      2567      5454
 -1      4147    6    0    1
 -2       408      3255      3250      2238      3333      3335      3278      2598      6297      6152
 -1      4148    6    0    1
 -2      3795       513      2115      2077      3840      2548      6137      5974      2302      2554
 -1      4149    6    0    1
 -2      2185      2070      3787       512      2553      6327      5608      2545      2551      3973
 -1      4150    6    0    1
 -2      4217      4275      4284      4294      5449      5573      4713      5125      6388      5973
 -1      4151    6    0    1
 -2      2131      2231      2105      4274      2871      2870      2872      6140      5993      5352
 -1      4152    6    0    1
 -2      3061       179      3039      1198      3112      3114      3116      4770      1468      5297
 -1      4153    6    0    1
 -2      1128      1244      1075      4285      1747      1746      1720      5742      4692      6477
 -1      4154    6    0    1
 -2      3049       390      2122      3058      3171      2591      4963      3176      3175      5278
 -1      4155    6    0    1
 -2      3237      3257      3228      4294      3289      3410      3413      6361      6350      5972
 -1      4156    6    0    1
 -2      2143      2115      2077      4281      2746      2554      2743      5616      6138      5975
 -1      4157    6    0    1
 -2      3813      1085      1121      4248      5963      1589      6448      5964      4826      4936
 -1      4158    6    0    1
 -2      1070      1112      1138      4259      1920      1919      1918      6277      6428      4843
 -1      4159    6    0    1
 -2      2227      2114      2139      4241      2917      2491      2918      6395      6200      5994
 -1      4160    6    0    1
 -2        21      1164      1099       659      1325      1328      1327       708      5843      5349
 -1      4161    6    0    1
 -2      2093      2126      2235      4277      2857      2831      2905      4698      5875      5876
 -1      4162    6    0    1
 -2      2154       410      3246      3267      2608      3337      5904      5545      3339      3341
 -1      4163    6    0    1
 -2      2214      2216      4060       552      2666      6394      6441      2688      2313      4075
 -1      4164    6    0    1
 -2      4271      2150      2184      4292      6218      2801      5416      5081      6219      5418
 -1      4165    6    0    1
 -2      3255      3237      3228      4275      3414      3413      3399      6377      6163      6387
 -1      4166    6    0    1
 -2      1195      1071      1115      4309      1790      1924      1923      5758      5208      5889
 -1      4167    6    0    1
 -2      3707       480      3712      4302      3741      3739      3743      5441      6284      5910
 -1      4168    6    0    1
 -2      1217      1183      1108      4245      1817      1343      1898      5142      5822      5249
 -1      4169    6    0    1
 -2      2176      2210      2101      4245      2934      3017      2342      4886      5098      5368
 -1      4170    6    0    1
 -2      4298      4229       370      4299      5866      5914      5959      6128      4708      5916
 -1      4171    6    0    1
 -2      4047       540      2225      4045      4145      2672      6308      4149      4150      6329
 -1      4172    6    0    1
 -2      3029      3056      3048      4257      3216      3084      3226      4679      6193      4597
 -1      4173    6    0    1
 -2      1074       169      3056      4257      1440      3071      6169      5654      6478      6193
 -1      4174    6    0    1
 -2      2187      2135      2110      4298      2818      2278      2812      5864      5865      5913
 -1      4175    6    0    1
 -2      4272        87      4228      4279      6430      5848      5922      6384      6479      5555
 -1      4176    6    0    1
 -2      3239       415      3260      3719      3354      3356      3358      6335      6480      6090
 -1      4177    6    0    1
 -2      2152      2088       670       118      2394      5700      5192      2391      2392       877
 -1      4178    6    0    1
 -2      1095        41      1159       671      1395      1393      1396      5663       770      5574
 -1      4179    6    0    1
 -2      2170      2109      2059      4279      2820      2911      2912      5661      4857      4858
 -1      4180    6    0    1
 -2      3479      3483       454      4054      3571      3567      3569      6176      6469      6481
 -1      4181    6    0    1
 -2      1150      1235      1134      4276      1875      1810      1876      4741      4671      6094
 -1      4182    6    0    1
 -2       274      3243      3713       206      6414      6202      3761      1511      3303      6482
 -1      4183    6    0    1
 -2       412      3249      2251      2126      3343      5205      2612      2618      6454      2619
 -1      4184    6    0    1
 -2      1169        38       665      1255      1384       757      4888      1385      1380      4632
 -1      4185    6    0    1
 -2      3246      3255      2239      4275      3338      6468      6404      6164      6377      6405
 -1      4186    6    0    1
 -2      2249       110       644      2158      2361       851      5033      2366      2365      5032
 -1      4187    6    0    1
 -2      1256        33      1165       645      1363      1367      1368      5035       742      5036
 -1      4188    6    0    1
 -2      1177      1061      4238      4305      1766      5912      5170      5748      6259      5747
 -1      4189    6    0    1
 -2      1114       337      4055      1188      1669      4120      5059      1675      1674      4618
 -1      4190    6    0    1
 -2      1265      3245      1124       211      5954      4462      1527      1526      3314      1522
 -1      4191    6    0    1
 -2      3795      3824       584      4242      3983      3836      3981      4759      5585      4793
 -1      4192    6    0    1
 -2       492      3802      2069      2139      3917      5244      2489      2487      5466      2488
 -1      4193    6    0    1
 -2      2139      2180      2054      4228      2862      2826      2985      5467      6264      5553
 -1      4194    6    0    1
 -2      3045      3040      3034      4304      3197      3202      3194      6459      4876      5478
 -1      4195    6    0    1
 -2       636      1160        28       629      5806      1350       731       732      4947       727
 -1      4196    6    0    1
 -2       105       634       628      2153       838       840       836      2348      4868      4943
 -1      4197    6    0    1
 -2      3719      3260      3239      3233      6090      3358      6335      6091      3417      3424
 -1      4198    6    0    1
 -2      2149      2148      2050      4311      2758      2756      2759      4578      5828      5277
 -1      4199    6    0    1
 -2      4217      4275      4294      4309      5449      6388      5125      5128      6209      5127
 -1      4200    6    0    1
 -2      1135      1061      1234      4238      1771      1775      1774      5049      5912      5784
 -1      4201    6    0    1
 -2       390      2106      2122      3058      2595      2594      2591      3175      5768      5278
 -1      4202    6    0    1
 -2      1098      1206      1163      4283      1727      1955      1424      5861      5845      5102
 -1      4203    6    0    1
 -2       116      2162      2098       660      2381      2388      2387       869      5187      5878
 -1      4204    6    0    1
 -2      3036      3711      3053      3708      5671      6289      3160      6022      3777      6429
 -1      4205    6    0    1
 -2      2055      2228      2127      4237      2948      2749      2947      5883      6027      6016
 -1      4206    6    0    1
 -2      1074      1128       169      4257      1439      1438      1440      5654      5740      6478
 -1      4207    6    0    1
 -2      1143      3706      3713       273      4675      3762      6483      1688      3757      3760
 -1      4208    6    0    1
 -2      2115      3803       513      3795      6136      3976      2548      6137      3979      3840
 -1      4209    6    0    1
 -2      1221      1223       344      4066      1560      1314      1662      6445      6372      4067
 -1      4210    6    0    1
 -2      1119      1262      1218      4312      1723      1764      1763      6475      6484      6262
 -1      4211    6    0    1
 -2      2131      2105      2063      4297      2872      2922      2923      6141      5354      6102
 -1      4212    6    0    1
 -2      4052      4044      2123      4307      4171      6386      6023      4674      6232      5285
 -1      4213    6    0    1
 -2      3039      3046      3032      4303      3220      3215      3205      5298      6114      5095
 -1      4214    6    0    1
 -2      2150       635      2245      4292      6337      6444      2321      6219      6113      6234
 -1      4215    6    0    1
 -2      4040      3433      4034      4050      6005      6299      4189      4123      5989      4194
 -1      4216    6    0    1
 -2      3479       454      2213      4054      3569      2441      6485      6176      6481      6486
 -1      4217    6    0    1
 -2      1152      1245      3257       200      1490      6349      6415      1489      1485      3283
 -1      4218    6    0    1
 -2       543      4034      3470      2219      4153      6332      6487      2451      6488      6489
 -1      4219    6    0    1
 -2      1060      1262      1178      4312      1793      1744      1791      5787      6484      5334
 -1      4220    6    0    1
 -2      2101       103       632      2163      2341       832      5367      2343      2340      4530
 -1      4221    6    0    1
 -2        26      1170      1108       633      1342      1345      1344       725      4533      5247
 -1      4222    6    0    1
 -2      2169      2061      2110      4298      2809      2811      2810      5549      5550      5913
 -1      4223    6    0    1
 -2       377      3055      3047      2121      3078      3135      3134      2557      6443      6399
 -1      4224    6    0    1
 -2       551       445      2223      3459      2661      2658      2663      5968      3595      6381
 -1      4225    6    0    1
 -2      1104      1179      1213      4246      1371      1794      1795      4488      6121      5319
 -1      4226    6    0    1
 -2       237       343      1230      3460      1555      1557      1552      3518      5965      6402
 -1      4227    6    0    1
 -2      2212      2107        14       570      2285      2284      2279      6039      5008       573
 -1      4228    6    0    1
 -2       104       628       632      2163       835       837       833      2339      5074      4530
 -1      4229    6    0    1
 -2       633        27      1170       629       724      1341      4533       729       728      5073
 -1      4230    6    0    1
 -2      1219      1114       569         7      1282      5058      6160      1279      1281       571
 -1      4231    6    0    1
 -2      1106        31      1168       643      1361      1359      1362      5421       740      5872
 -1      4232    6    0    1
 -2       642      2161      2099       108      5838      2360      5386       847      2357      2358
 -1      4233    6    0    1
 -2      2095      2122      2165      4270      3002      2993      2722      4586      4964      4764
 -1      4234    6    0    1
 -2      2094      2137       480      4302      2467      2458      2465      5761      6323      6284
 -1      4235    6    0    1
 -2      1245      1246      1115      4294      1493      2032      2034      6351      6352      5888
 -1      4236    6    0    1
 -2      3712       480      2137      4302      3739      2458      6434      5910      6284      6323
 -1      4237    6    0    1
 -2      4062      3456      3444      3458      6108      3673      6340      6276      3674      3675
 -1      4238    6    0    1
 -2      1115      1257      1152      4294      1925      2035      2033      5888      4926      4924
 -1      4239    6    0    1
 -2      1208      1207       293      3797      1621      1622      1616      5927      5712      3871
 -1      4240    6    0    1
 -2      2200      3799      3790       501      4880      3945      5525      2517      3944      3940
 -1      4241    6    0    1
 -2        48      1163      1249       667      1418      1419      1414       791      5101      6472
 -1      4242    6    0    1
 -2      3239       482       415      3719      6322      2475      3354      6335      3748      6480
 -1      4243    6    0    1
 -2      1265      3234      3245       211      6071      3321      5954      1526      3320      3314
 -1      4244    6    0    1
 -2       439       547      3485      2224      2643      6166      3499      2288      2645      6167
 -1      4245    6    0    1
 -2       271      3051       175      1144      6360      3098      1460      1461      6204      1456
 -1      4246    6    0    1
 -2      3264      1197      3245       210      4471      4470      3316      3311      1519      3315
 -1      4247    6    0    1
 -2      3046      3062      3032      4303      3167      3214      3215      6114      6230      5095
 -1      4248    6    0    1
 -2      2156      2199      2091      4283      3023      3027      2422      5093      5201      5896
 -1      4249    6    0    1
 -2       374        92      2159      4298      2043      5571      2266      6440      5343      5572
 -1      4250    6    0    1
 -2      3043      1132       173      1241      6026      1450      3094      4908      1455      1454
 -1      4251    6    0    1
 -2       585      3795       584      4290      3843      3981       587      5657      5976      5209
 -1      4252    6    0    1
 -2       645        33      1165       663       742      1367      5036       747       746      4594
 -1      4253    6    0    1
 -2       110       662       644      2158       853       855       851      2365      4592      5032
 -1      4254    6    0    1
 -2      1058      1138      1239      4287      1867      1998      2000      5519      4844      5588
 -1      4255    6    0    1
 -2      2148      2105      2140      4311      2924      2873      2755      5828      5906      4330
 -1      4256    6    0    1
 -2      2241      2167        16       579      2299      2298      2293      4901      4900       581
 -1      4257    6    0    1
 -2       200      3257      1152      3253      3283      6415      1489      3270      3284      5523
 -1      4258    6    0    1
 -2      2229      3260       415      3719      5619      3356      2478      6194      6090      6480
 -1      4259    6    0    1
 -2       205      1143      1240      3263      1508      1509      1502      3300      6490      6461
 -1      4260    6    0    1
 -2      1150      1134      1059      4276      1876      1878      1877      4741      6094      5131
 -1      4261    6    0    1
 -2      3790       500      3815      2201      3941      3937      3942      5567      2511      6112
 -1      4262    6    0    1
 -2       302      3816      1206      3812      3900      5844      1645      3904      3905      6235
 -1      4263    6    0    1
 -2       338      1130      1231      4043      1671      1289      1676      4127      6044      6118
 -1      4264    6    0    1
 -2       369      4232      4295      4299      6173      5534      6174      6491      4709      6416
 -1      4265    6    0    1
 -2      1123      3039       179      1198      5495      3114      1472      1473      5297      1468
 -1      4266    6    0    1
 -2       585      2078      3831        17      6356      4839      3842       588      2300      3839
 -1      4267    6    0    1
 -2      1197      1124      3245       210      1524      4462      4470      1519      1523      3315
 -1      4268    6    0    1
 -2      3054      2197       391      3058      6492      2281      3080      3177      6493      3174
 -1      4269    6    0    1
 -2        16      2167      2240       579      2298      2297      2296       581      4900      5987
 -1      4270    6    0    1
 -2      3053       479       383      3052      6426      2459      3154      3155      6341      3148
 -1      4271    6    0    1
 -2      2239      2085       410      3246      2611      2610      2604      6404      6280      3337
 -1      4272    6    0    1
 -2       274      3713      1143       206      3761      6483      1512      1511      6482      1507
 -1      4273    6    0    1
 -2       377      2067      3055      2121      2559      6188      3078      2557      2560      6443
 -1      4274    6    0    1
 -2       683      1093        46       685      5487      1412       785       786      6021       781
 -1      4275    6    0    1
 -2       684      2086       123       682      6020      2410       890       894      5489       892
 -1      4276    6    0    1
 -2      1251      1077      1158      4282      1933      1725      1427      4547      5323      6053
 -1      4277    6    0    1
 -2       380      3045      3065      4304      3139      3144      3143      6494      6459      6056
 -1      4278    6    0    1
 -2       270      3715      1248      1140      3722      5967      1290      1680      5377      1681
 -1      4279    6    0    1
 -2       237      1221       343      3452      1554      1556      1555      3522      6456      5966
 -1      4280    6    0    1
 -2      2214       445       551      3451      2660      2661      2662      6438      3597      5969
 -1      4281    6    0    1
 -2      1121      1151      1234      4248      1839      1862      1863      4936      5773      6139
 -1      4282    6    0    1
 -2      2051      2231      2131      4274      2768      2871      2875      5705      5993      6140
 -1      4283    6    0    1
 -2      3045      3035      3040      4301      3192      3198      3197      5455      5233      5048
 -1      4284    6    0    1
 -2      2122      2058      2165      4270      2992      2991      2993      4964      5560      4764
 -1      4285    6    0    1
 -2      3807      1145      1077       304      5590      1656      5447      3906      1657      1655
 -1      4286    6    0    1
 -2        15       575      2123      2224       578      6385      2290      2289      6334      2292
 -1      4287    6    0    1
 -2      3715      3711      3714      4296      3776      3737      3770      5380      5757      5347
 -1      4288    6    0    1
 -2      1094      1154        24       652      1339      1332      1338      5626      5902       713
 -1      4289    6    0    1
 -2      3228      3250      3255      4284      3397      3335      3399      5971      5805      6298
 -1      4290    6    0    1
 -2      3050      3051       175       271      3104      3098      3103      6449      6360      1460
 -1      4291    6    0    1
 -2       381      3042      2234      2125      3146      5479      2573      2571      6086      2575
 -1      4292    6    0    1
 -2       574      3268       575      4307      3379      3378       577      5862      5682      6127
 -1      4293    6    0    1
 -2      3246      2085       410      2154      6280      2610      3337      5904      2609      2608
 -1      4294    6    0    1
 -2      1070      1137      1111      4293      1913      1912      1914      6278      5152      6366
 -1      4295    6    0    1
 -2      2182      3045       380      4304      6476      3139      2566      5874      6459      6494
 -1      4296    6    0    1
 -2      2148      2140      2050      4311      2755      2757      2756      5828      4330      5277
 -1      4297    6    0    1
 -2       614      1250        23       625      4736      1329       715       716      4735       710
 -1      4298    6    0    1
 -2       172      1189      1132      3064      1445      1452      1451      3091      4874      5107
 -1      4299    6    0    1
 -2      1244      1118      1075      4285      1745      1742      1746      4692      4693      6477
 -1      4300    6    0    1
 -2      2219      3470       543       457      6489      6487      2451      2448      3576      2449
 -1      4301    6    0    1
 -2      3064      1132       173      3043      5107      1450      3092      3096      6026      3094
 -1      4302    6    0    1
 -2      3815      3794      2208       499      3939      5856      5105      3938      3934      2508
 -1      4303    6    0    1
 -2      3041      3044      3036      4296      3219      3161      3109      5699      6247      5381
 -1      4304    6    0    1
 -2      1202      3814       290      3792      5956      3866      1611      5491      3867      3863
 -1      4305    6    0    1
 -2       115      2162       664      2248      2382      5089       866      2378      2383      5088
 -1      4306    6    0    1
 -2      1096      1160        29       636      1356      1349      1355      5637      5806       730
 -1      4307    6    0    1
 -2       106      2089       634      2153      2353      5642       839      2347      2354      4868
 -1      4308    6    0    1
 -2      2097      2206      2172      4246      2860      2859      2369      4540      5514      5408
 -1      4309    6    0    1
 -2      4066       344      1221      4058      4067      1662      6445      4089      4085      6455
 -1      4310    6    0    1
 -2      1153        47      1249       676      1409      1415      1416      5497       788      5498
 -1      4311    6    0    1
 -2       124      2146      2242       674      2407      2414      2413       895      5500      5499
 -1      4312    6    0    1
 -2       120      2246      2164       655      2395      2400      2399       881      4648      4647
 -1      4313    6    0    1
 -2      1171      1253        43       656      1402      1397      1401      4651      4650       772
 -1      4314    6    0    1
 -2      2133      2241       478      3714      2456      2294      2454      6242      5346      3727
 -1      4315    6    0    1
 -2      2094      2234      2137      4302      2848      2577      2467      5761      5483      6323
 -1      4316    6    0    1
 -2       690       635       616      4292       813       941       805      5242      6113      4836
 -1      4317    6    0    1
 -2       635       615       616      4292       940       939       941      6113      5231      4836
 -1      4318    6    0    1
 -2      2198      3825      3785       494      5744      3924      5511      2493      3923      3919
 -1      4319    6    0    1
 -2       683        47      1153       676       784      1409      4993       789       788      5497
 -1      4320    6    0    1
 -2       674       124      2146       682       895      2407      5500       897       893      4987
 -1      4321    6    0    1
 -2       115       664      2162       660       866      5089      2382       868       870      5187
 -1      4322    6    0    1
 -2      2237      2068      2111      4300      2880      2881      2883      6296      6290      4892
 -1      4323    6    0    1
 -2      2158       111       662      2097      2364       854      4592      2371      2370      4538
 -1      4324    6    0    1
 -2      1104      1165        34       663      1373      1366      1372      4487      4594       745
 -1      4325    6    0    1
 -2      1213      3819       294      3784      5320      3879      1619      5711      3881      3875
 -1      4326    6    0    1
 -2       305      3824      1122      1084      3834      5960      1652      1304      5583      1659
 -1      4327    6    0    1
 -2        91        92      4230      4308        94      5929      6260      6261      5871      5069
 -1      4328    6    0    1
 -2      1250      1164        22       625      1331      1324      1330      4735      5579       711
 -1      4329    6    0    1
 -2       380      3065      2125      4304      3143      6119      2570      6494      6056      6120
 -1      4330    6    0    1
 -2      4043       338      1130      4030      4127      1671      6044      4129      4124      5918
 -1      4331    6    0    1
 -2      1122      3791      3824       305      5121      3912      5960      1652      3910      3834
 -1      4332    6    0    1
 -2      2253      2186      2118      4310      2771      2770      2765      6100      5003      5985
 -1      4333    6    0    1
 -2       381      3065      3042      2125      3142      3147      3146      2571      6119      6086
 -1      4334    6    0    1
 -2      3032      3044      3041      4296      3213      3219      3204      5094      6247      5699
 -1      4335    6    0    1
 -2       652      1154        23       614      5902      1333       714       717      5901       715
 -1      4336    6    0    1
 -2      3242      3241      3235      4277      3395      3298      3349      5944      5457      4688
 -1      4337    6    0    1
 -2      3823      2204       507      3830      6253      2532      3961      3963      5899      3959
 -1      4338    6    0    1
 -2      2214      4060      4032       552      6441      4183      6437      2688      4075      4182
 -1      4339    6    0    1
 -2      3035      3068      3040      4301      3199      3090      3198      5233      5824      5048
 -1      4340    6    0    1
 -2      2191      2116      2256      4303      2586      2723      3005      6231      6190      4613
 -1      4341    6    0    1
 -2      1232      3480       246       333      6396      3545      1574      1579      6460      1577
 -1      4342    6    0    1
 -2      2210      3800      3796       496      5722      3930      5099      2499      3929      3925
 -1      4343    6    0    1
 -2       120      2164       638       655      2399      6057       883       881      4647       885
 -1      4344    6    0    1
 -2       656        43      1171       639       772      1401      4651       777       776      6059
 -1      4345    6    0    1
 -2       176      3050       175       271      3102      3103       191      1459      6449      1460
 -1      4346    6    0    1
 -2      1203      3819       294      1213      5268      3879      1625      1626      5320      1619
 -1      4347    6    0    1
 -2      1073       200      1152      3253      1487      1489      1488      5388      3270      5523
 -1      4348    6    0    1
 -2       383       384       479      3053       399      2460      2459      3154      3153      6426
 -1      4349    6    0    1
 -2      2224      4044      2123       546      6168      6386      2292      2683      4169      2679
 -1      4350    6    0    1
 -2      3228      3257      3253      4294      3410      3284      3409      5972      6350      5524
 -1      4351    6    0    1
 -2      2182       380      2125      4304      2566      2570      2572      5874      6494      6120
 -1      4352    6    0    1
 -2       302      1206      3816       301      1645      5844      3900       325      1646      3901
 -1      4353    6    0    1
 -2      2233      2126      2093      4277      2617      2857      2858      6300      5875      4698
 -1      4354    6    0    1
 -2      3793       510      2199       511      3971      2541      5598      3970       534      2543
 -1      4355    6    0    1
 -2      4052      2181      2123       545      4673      2681      6023      4167      2680      2678
 -1      4356    6    0    1
 -2      2185      2070      2151      4282      2553      3013      3012      5607      6310      5375
 -1      4357    6    0    1
 -2      1213       293      1207      3784      1620      1622      1623      5711      3874      5311
 -1      4358    6    0    1
 -2      1215      3814       291      1202      6285      3865      1614      1615      5956      1610
 -1      4359    6    0    1
 -2      4054       542      2213      4041      4152      2673      6486      4156      4155      6495
 -1      4360    6    0    1
 -2       668       678       102      2176       831       827       829      6382      4885      2333
 -1      4361    6    0    1
 -2      3058       390      2197       391      3175      2593      6493      3174       406      2281
 -1      4362    6    0    1
 -2      2236      2072      2125      4304      2904      2902      2900      5372      5690      6120
 -1      4363    6    0    1
 -2       623        92        91      4308       807        94       806      5858      5871      6261
 -1      4364    6    0    1
 -2      1188      1130       337      4030      1673      1672      1674      4739      5918      4125
 -1      4365    6    0    1
 -2       389      2122      2257      3049      2590      2592      2588      3172      4963      4721
 -1      4366    6    0    1
 -2      3820      1191       285      3827      6239      1590      3847      3852      6240      3850
 -1      4367    6    0    1
 -2      1128      1075      1190      4285      1720      1719      1444      5742      6477      5470
 -1      4368    6    0    1
 -2       112       630      2172       640       857      6306      2367       859       861      5409
 -1      4369    6    0    1
 -2      2111      2068      2171      4300      2881      2882      2778      4892      6290      4406
 -1      4370    6    0    1
 -2       623       128      2244       657       907      2423      5884       908       905      5885
 -1      4371    6    0    1
 -2       408      3250      2066      2145      3278      5804      2599      2601      6151      2602
 -1      4372    6    0    1
 -2      1230       342      1228      4063      1660      1661      1551      6421      4080      6466
 -1      4373    6    0    1
 -2      1214      3822      1201       297      5853      5814      1635      1630      3889      1634
 -1      4374    6    0    1
 -2       419      2117      3240       418      2628      5809      3366       434      2629      3365
 -1      4375    6    0    1
 -2      1121       283      1085      3813      1588      1302      1589      6448      3832      5963
 -1      4376    6    0    1
 -2      3031      3053      3708      3050      3225      6429      6049      3190      3221      6132
 -1      4377    6    0    1
 -2      3829       286      1205      3827      3853      1597      6317      3855      3851      5820
 -1      4378    6    0    1
 -2      1180      1105        39       627      1388      1389      1387      5734      5825       764
 -1      4379    6    0    1
 -2       665       661        38      1169       762       761       757      4888      5004      1384
 -1      4380    6    0    1
 -2      1217       288      1200      3809      1605      1601      1606      5400      3856      6158
 -1      4381    6    0    1
 -2        35       641      1179       631       752      6175      1369       748       753      6267
 -1      4382    6    0    1
 -2       637        20      1157       654       701      1322      5394       706       705      6346
 -1      4383    6    0    1
 -2       415       414       482      3239       430      2476      2475      3354      3353      6322
 -1      4384    6    0    1
 -2      2150       635       653        97      6337       816      6217      2320       812       814
 -1      4385    6    0    1
 -2       369      1117        91      4295      6172      6496      2046      6174      5533      6497
 -1      4386    6    0    1
 -2      3815       500      2208      2201      3937      2509      5105      6112      2511      2513
 -1      4387    6    0    1
 -2       284      1076      1191      3820      1595      1596      1591      3848      4753      6239
 -1      4388    6    0    1
 -2      2189      2154      2085      4280      2838      2609      2986      4556      5546      6155
 -1      4389    6    0    1
 -2       501      2200      3799      2206      2517      4880      3944      2514      2518      6025
 -1      4390    6    0    1
 -2      3246      3237      3255      4275      3428      3414      3338      6164      6163      6377
 -1      4391    6    0    1
 -2       417       416      2132      3238       432      2624      2623      3360      3359      5528
 -1      4392    6    0    1
 -2      3259      1092       202      1246      6004      1497      3285      6003      1498      1491
 -1      4393    6    0    1
 -2      3475      2216       447      3449      6408      2665      3601      3605      6236      3603
 -1      4394    6    0    1
 -2       659        22      1164       625       707      1324      5843       712       711      5579
 -1      4395    6    0    1
 -2      1161      1092       202      3259      1496      1497      1495      6040      6004      3285
 -1      4396    6    0    1
 -2       101       678      2087      2176       826      5305      2335      2334      4885      2337
 -1      4397    6    0    1
 -2       182      3038      3060      1129      3126      3125      3122      1477      5173      5520
 -1      4398    6    0    1
 -2      2170      2074      2109      4279      2819      2821      2820      5661      5962      4857
 -1      4399    6    0    1
 -2        50       681       650      1158       793       798       797      1420      6052      6051
 -1      4400    6    0    1
 -2        21      1099      1157       654      1327      1326      1321       704      5350      6346
 -1      4401    6    0    1
 -2      3818      2209       508      3823      6220      2535      3964      3966      5717      3962
 -1      4402    6    0    1
 -2      1252      1109        19       691      1320      1319      1317      4320      4319       698
 -1      4403    6    0    1
 -2      2078      2114      2144      4241      2484      2920      2919      4840      6200      5995
 -1      4404    6    0    1
 -2        96      2245       690      2102      2315      6233       694      2316      2318      5241
 -1      4405    6    0    1
 -2      3830      2194       506      3811      6150      2529      3958      3960      5833      3955
 -1      4406    6    0    1
 -2      1180        40       647       627      1386       767      6358      5734       763       768
 -1      4407    6    0    1
 -2      1210      1202       290      3792      1612      1611      1607      6498      5491      3863
 -1      4408    6    0    1
 -2       212      1149      3258       213      1529      6499      3317       228      1528      3322
 -1      4409    6    0    1
 -2       301      1199      3816      3817      1642      5710      3901      3897      5485      3902
 -1      4410    6    0    1
 -2      4041      4056       334      1220      4117      4110      4116      6028      6344      1666
 -1      4411    6    0    1
 -2        98      2092       653      2150      2324      6353       815      2319      2325      6217
 -1      4412    6    0    1
 -2      3813        10      1085       584      3833      1303      5963      3837       586      4824
 -1      4413    6    0    1
 -2      3450      1223       239      3477      6371      1559      3528      3529      6373      3524
 -1      4414    6    0    1
 -2      3051      3037       174      1144      3100      3099      3097      6204      5924      1457
 -1      4415    6    0    1
 -2      3813      1121       283      3828      6448      1588      3832      3846      4935      3844
 -1      4416    6    0    1
 -2      1214      3801      3822       297      5715      3890      5853      1630      3885      3889
 -1      4417    6    0    1
 -2      2103      2177       688      4308      2426      6500      6501      6462      6378      6502
 -1      4418    6    0    1
 -2      2100       638       121      2164      5358       884      2404      2405      6057      2398
 -1      4419    6    0    1
 -2      1171        44      1107       639      1400      1406      1405      6059       775      5356
 -1      4420    6    0    1
 -2       492      2114      3788      2139      2483      6199      3913      2487      2491      5543
 -1      4421    6    0    1
 -2      2191      2256      2076      4303      3005      3004      3006      6231      4613      5950
 -1      4422    6    0    1
 -2       113      2172      2090       640      2372      2376      2375       860      5409      5634
 -1      4423    6    0    1
 -2      1121      1085      1151      4248      1589      1840      1839      4936      4826      5773
 -1      4424    6    0    1
 -2       512      3803      2115      2138      3977      6136      2547      2549      6503      2550
 -1      4425    6    0    1
 -2      3719       483      2229      3720      3747      2474      6194      3750      3730      5530
 -1      4426    6    0    1
 -2      3826      1210       289      3792      6309      1608      3860      3864      6498      3862
 -1      4427    6    0    1
 -2      3707      3712      3710      4302      3743      3780      3781      5441      5910      4834
 -1      4428    6    0    1
 -2      1210       290       289      3792      1607       313      1608      6498      3863      3862
 -1      4429    6    0    1
 -2      2240      2132       483      3720      2481      2480      2295      5986      5532      3730
 -1      4430    6    0    1
 -2      3065      3045      3034      4304      3144      3194      3195      6056      6459      5478
 -1      4431    6    0    1
 -2      1183      1094        24       679      1337      1338      1336      6504      5627       719
 -1      4432    6    0    1
 -2      4052      2123      4044       546      6023      6386      4171      4166      2679      4169
 -1      4433    6    0    1
 -2      2064      2171      2188      4306      2777      2783      2782      5611      4407      5365
 -1      4434    6    0    1
 -2       244      3465      3471      1229      3539      3544      3543      1566      6251      6326
 -1      4435    6    0    1
 -2       452      3463      2222      3472      3559      5996      2429      3563      3565      6252
 -1      4436    6    0    1
 -2       304      3791      1145      1122      3909      5589      1657      1653      5121      1658
 -1      4437    6    0    1
 -2      2209       508      2192      3818      2535      2537      2539      6220      3964      5765
 -1      4438    6    0    1
 -2      2185      3787      3793       511      5608      3975      5812      2544      3974      3970
 -1      4439    6    0    1
 -2      2069      2184      3802       492      2490      5417      5244      2489      2485      3917
 -1      4440    6    0    1
 -2      2229       415       482      3719      2478      2475      2473      6194      6480      3748
 -1      4441    6    0    1
 -2       116      2098      2173       626      2387      2386      2385       871      5877      5730
 -1      4442    6    0    1
 -2      2069      2245      2102      4292      2865      2318      2867      5246      6234      5243
 -1      4443    6    0    1
 -2       101       102       678      2176       135       827       826      2334      2333      4885
 -1      4444    6    0    1
 -2      1099      1191      1157      4271      2011      2009      1326      5351      6241      5576
 -1      4445    6    0    1
 -2      2184      2092      2150      4271      2800      2325      2801      5416      6354      6218
 -1      4446    6    0    1
 -2      1237      3050      3036       177      6470      3110      6283      1462      3105      3108
 -1      4447    6    0    1
 -2       183       182      1204      3059       198      1480      1276      3124      3123      5780
 -1      4448    6    0    1
 -2      1097        36       641      1179      1378       751      5936      1377      1374      6175
 -1      4449    6    0    1
 -2       454       541      2213      4054      2442      2443      2441      6481      4148      6486
 -1      4450    6    0    1
 -2      2185      3793      2199       511      5812      5598      2546      2544      3970      2543
 -1      4451    6    0    1
 -2      4250      4238      4272      4305      6046      6162      5119      6198      5747      6505
 -1      4452    6    0    1
 -2       378      3047      3069      2183      3133      3138      3137      2562      5726      5462
 -1      4453    6    0    1
 -2       443      3464      3456      2221      3591      3593      3589      2650      6330      6319
 -1      4454    6    0    1
 -2       247      3474      3467      1220      3548      3553      3552      1575      6029      6030
 -1      4455    6    0    1
 -2      3068       170      1190      3048      3085      1443      5831      3087      3083      5469
 -1      4456    6    0    1
 -2      1153      1093        46       683      1411      1412      1410      4993      5487       785
 -1      4457    6    0    1
 -2       123      2086      2146       682      2410      2409      2408       892      5489      4987
 -1      4458    6    0    1
 -2      3469       455      2213      3479      3572      2440      6506      3574      3570      6485
 -1      4459    6    0    1
 -2      1205       287       286      3829      1600       310      1597      6317      3854      3853
 -1      4460    6    0    1
 -2       389      2257      3063      3049      2588      4418      3168      3172      4721      3173
 -1      4461    6    0    1
 -2      3458      1228      3466       235      6425      6465      3517      3512      1544      3516
 -1      4462    6    0    1
 -2      1152      1245      1115      4294      1490      2034      2033      4924      6351      5888
 -1      4463    6    0    1
 -2      1237      3708      3050       271      6471      6132      6470      1464      3751      6449
 -1      4464    6    0    1
 -2       201      1246      3257      3237      1492      6348      3282      3288      6002      3289
 -1      4465    6    0    1
 -2      1215       292      3786      1208      1613      3869      6249      1618      1617      6245
 -1      4466    6    0    1
 -2      1199      3816      1206       301      5710      5844      1647      1642      3901      1646
 -1      4467    6    0    1
 -2      3053       385      2230      3036      3156      2578      6287      3160      3159      5673
 -1      4468    6    0    1
 -2        86      1167       163      4305      6467      1299      2038      6032      6211      6507
 -1      4469    6    0    1
 -2       494      3785      2198       493      3919      5511      2493       517      3920      2492
 -1      4470    6    0    1
 -2      3814       291      3786      1215      3865      3868      3870      6285      1614      6249
 -1      4471    6    0    1
 -2      2074      2160      2109      4279      2822      2555      2821      5962      6432      4857
 -1      4472    6    0    1
 -2       300      1216      1199      3817      1639      1644      1643      3898      5685      5485
 -1      4473    6    0    1
 -2      1208       292      3786      3797      1617      3869      6245      5927      3872      3873
 -1      4474    6    0    1
 -2      2199       509       510      3821      2540       533      2541      5200      3968      3967
 -1      4475    6    0    1
 -2         6      1142      1117       369      1274      1275      1272       371      6179      6172
 -1      4476    6    0    1
 -2       669      1183        25       679      6271      1335       722       723      6504       718
 -1      4477    6    0    1
 -2      3821       510      2199      3793      3967      2541      5200      3972      3971      5598
 -1      4478    6    0    1
 -2      2118      2231      2253      4310      2767      2766      2765      5985      5983      6100
 -1      4479    6    0    1
 -2         9       580      3717      1247       583      3725      3724      1293      4391      4957
 -1      4480    6    0    1
 -2      2202      3798      3810       504      5652      3954      5751      2523      3952      3950
 -1      4481    6    0    1
 -2      3829      1200       287      3809      6383      1602      3854      3858      6158      3857
 -1      4482    6    0    1
 -2      3808      1216       300      3817      5261      1639      3894      3899      5685      3898
 -1      4483    6    0    1
 -2        17      2141      2077      4290      2305      2304      2303      6357      5403      5978
 -1      4484    6    0    1
 -2      1074      1067      1128      4257      1797      1799      1439      5654      4726      5740
 -1      4485    6    0    1
 -2      2177        92       688      4308      5979       696      6500      6378      5871      6502
 -1      4486    6    0    1
 -2       626      2173       117       646      5730      2384       872       876      6133       874
 -1      4487    6    0    1
 -2      2077      3795       513        17      5974      3840      2302      2303      3841       537
 -1      4488    6    0    1
 -2       283        10      1085      3813       306      1303      1302      3832      3833      5963
 -1      4489    6    0    1
 -2       377      3047       378      2121      3134      3133       393      2557      6399      2558
 -1      4490    6    0    1
 -2       672       648       107      2174       846       842       844      5294      6084      2350
 -1      4491    6    0    1
 -2       649        30      1181       673       733      1352      6083       738       737      5336
 -1      4492    6    0    1
 -2         9      3717       275      1247      3724      3723       282      1293      4957      1292
 -1      4493    6    0    1
 -2      2184      2198      3785       493      2494      5511      5788      2486      2492      3920
 -1      4494    6    0    1
 -2       169      1128       170      3048      1438      1437       185      3082      5741      3083
 -1      4495    6    0    1
 -2       170      1128      1190      3048      1437      1444      1443      3083      5741      5469
 -1      4496    6    0    1
 -2      1205       286       285      3827      1597       309      1598      5820      3851      3850
 -1      4497    6    0    1
 -2      3807      1077      1192       304      5447      1654      6254      3906      1655      1649
 -1      4498    6    0    1
 -2      2243       624       100        99      4381       821      2327      2328       820       133
 -1      4499    6    0    1
 -2      1183        24        25       679      1336        58      1335      6504       719       718
 -1      4500    6    0    1
 -2       242      3454      3457      1224      3533      3538      3537      1564      6347      6268
 -1      4501    6    0    1
 -2      3455       450      2217      3453      3560      2432      6109      3612      3610      6110
 -1      4502    6    0    1
 -2       295      3789      3819      1203      3882      3884      3880      1624      5592      5268
 -1      4503    6    0    1
 -2      1205       285      1191      3827      1598      1590      1599      5820      3850      6240
 -1      4504    6    0    1
 -2       494      2198      3825       495      2493      5744      3923       518      2495      3922
 -1      4505    6    0    1
 -2       113       112      2172       640       146      2367      2372       860       859      5409
 -1      4506    6    0    1
 -2      2121      3047       378      2183      6399      3133      2558      2564      5726      2562
 -1      4507    6    0    1
 -2      1237      3050       176       271      6470      3102      1463      1464      6449      1459
 -1      4508    6    0    1
 -2      2204      2194       506      3830      2533      2529      2531      5899      6150      3958
 -1      4509    6    0    1
 -2      2151       680       657       127      5374       906      6201      2418       902       904
 -1      4510    6    0    1
 -2      2200      3790      2201       501      5525      5567      2516      2517      3940      2512
 -1      4511    6    0    1
 -2      1230      4061       343      4063      6401      4086      1557      6421      4087      4079
 -1      4512    6    0    1
 -2      1161       203      3248      3259      1494      3292      5360      6040      3290      3293
 -1      4513    6    0    1
 -2      1098       681        49      1158      5860       794      1423      1422      6052      1421
 -1      4514    6    0    1
 -2        51      1251       689      1110      1425      4546       800      1431      1432      4437
 -1      4515    6    0    1
 -2      2196      2206       502      3783      2521      2515      2519      5882      5515      3947
 -1      4516    6    0    1
 -2       511      2185      3787       512      2544      5608      3974       535      2545      3973
 -1      4517    6    0    1
 -2      2060      2121      2237      4288      2898      2879      2899      4640      6400      6293
 -1      4518    6    0    1
 -2      2151       680       126      2091      5374       901      2419      2420      5895      2421
 -1      4519    6    0    1
 -2      2135        13      2110      4298      2277      2274      2278      5865      6508      5913
 -1      4520    6    0    1
 -2      1158      1077      1192      4282      1725      1654      1724      6053      5323      6256
 -1      4521    6    0    1
 -2      1179        36       641        35      1374       751      6175      1369        69       752
 -1      4522    6    0    1
 -2      2193      3796      3825       495      6079      3927      5435      2496      3926      3922
 -1      4523    6    0    1
 -2      2195      2208      3794       499      2510      5856      5313      2506      2508      3934
 -1      4524    6    0    1
 -2      1226       247      3467      1220      1581      3552      6509      1582      1575      6030
 -1      4525    6    0    1
 -2      3488      1231         8       574      6510      1286      3493      3494      6117       576
 -1      4526    6    0    1
 -2       688        92       623      4308       696       807       810      6502      5871      5858
 -1      4527    6    0    1
 -2       455      2213      2219      3469      2440      2447      2446      3572      6506      6511
 -1      4528    6    0    1
 -2      2204       506       507      3830      2531       530      2532      5899      3958      3959
 -1      4529    6    0    1
 -2      3716      3711      2230       478      3735      5669      6286      3734      3736      2452
 -1      4530    6    0    1
 -2      1251       689       650        51      4546       801      5316      1425       800       796
 -1      4531    6    0    1
 -2       420      2142       421      3247      2635      2634       436      3371      4779      3372
 -1      4532    6    0    1
 -2      1186      1167         1        86      1301      1300      1298      5496      6467        88
 -1      4533    6    0    1
 -2      2106       390      2197      3058      2595      2593      2596      5768      3175      6493
 -1      4534    6    0    1
 -2      2154      2251       411      3267      2614      2613      2607      5545      5544      3340
 -1      4535    6    0    1
 -2      1161      3248       203      1258      5360      3292      1494      1501      4930      1500
 -1      4536    6    0    1
 -2      2085      2239      2108      4275      2611      2956      2988      5947      6405      5448
 -1      4537    6    0    1
 -2      1180        39        40       627      1387        73      1386      5734       764       763
 -1      4538    6    0    1
 -2      4063       342      1228      4062      4080      1661      6466      4083      4082      6424
 -1      4539    6    0    1
 -2      2193      2210      3796       496      2501      5099      6079      2497      2499      3925
 -1      4540    6    0    1
 -2       295      1209      3789      1203      1628      5600      3882      1624      1629      5592
 -1      4541    6    0    1
 -2      2194      2207       505      3811      2530      2526      2528      5833      6074      3956
 -1      4542    6    0    1
 -2      1248       580      3715         9      4742      3726      5967      1291       583      3721
 -1      4543    6    0    1
 -2      4272       361      4250      4305      6512      6413      5119      6505      6513      6198
 -1      4544    6    0    1
 -2       546      4052      2123       545      4166      6023      2679       561      4167      2678
 -1      4545    6    0    1
 -2       118      2173      2088       646      2389      2393      2392       875      6133      5701
 -1      4546    6    0    1
 -2      1205      1200       287      3829      1603      1602      1600      6317      6383      3854
 -1      4547    6    0    1
 -2        26      1108      1183       669      1344      1343      1340       721      5248      6271
 -1      4548    6    0    1
 -2       370        92      4298      4299      2049      5343      5959      5916      5931      6128
 -1      4549    6    0    1
 -2      3814       290       291      1202      3866       314      3865      5956      1611      1610
 -1      4550    6    0    1
 -2      1200       288       287      3809      1601       311      1602      6158      3856      3857
 -1      4551    6    0    1
 -2      2144      2114      2227      4241      2920      2917      2921      5995      6200      6395
 -1      4552    6    0    1
 -2      1208       293       292      3797      1616       316      1617      5927      3871      3872
 -1      4553    6    0    1
 -2       637      1252        19       691      4623      1317       702       703      4320       698
 -1      4554    6    0    1
 -2      2206      3799       502      3783      6025      3943      2515      5515      3948      3947
 -1      4555    6    0    1
 -2       207      3243       274       206      3302      6414      1510       222      3303      1511
 -1      4556    6    0    1
 -2      2245       690       635        96      6233       813      6444      2315       694       811
 -1      4557    6    0    1
 -2      1167      1081      1116      4305      1803      1802      1433      6211      6210      6435
 -1      4558    6    0    1
 -2        21      1157        20       654      1321      1322        54       704      6346       705
 -1      4559    6    0    1
 -2       370       369        92      4299       372      2047      2049      5916      6491      5931
 -1      4560    6    0    1
 -2      2193      3825      2198       495      5435      5744      2498      2496      3922      2495
 -1      4561    6    0    1
 -2      3708      3053      3036      3050      6429      3160      6022      6132      3221      3110
 -1      4562    6    0    1
 -2      2150       653        98        97      6217       815      2319      2320       814       131
 -1      4563    6    0    1
 -2      1177      1066      1116      4305      1804      1734      1801      5748      5746      6435
 -1      4564    6    0    1
 -2      3254       421       422      2113      3374       437      3375      5040      2638      2637
 -1      4565    6    0    1
 -2        20      1157      1252       637      1322      1323      1316       701      5394      4623
 -1      4566    6    0    1
 -2      3808       299      1211      3804      3895      1636      5859      3896      3892      5273
 -1      4567    6    0    1
 -2      1229      3471       244      1232      6326      3543      1566      1573      6398      1572
 -1      4568    6    0    1
 -2       452      2222      2225      3472      2429      2438      2437      3563      6252      6307
 -1      4569    6    0    1
 -2      2223      3464       443      2221      6463      3591      2656      2657      6330      2650
 -1      4570    6    0    1
 -2      2251      3249       411      3267      5205      3342      2613      5544      3344      3340
 -1      4571    6    0    1
 -2      1181        31      1106       673      1357      1361      1360      5336       736      5337
 -1      4572    6    0    1
 -2       108      2099       672      2174      2358      5293       845      2355      2359      5294
 -1      4573    6    0    1
 -2      2196      3810       503      2202      5225      3949      2520      2524      5751      2522
 -1      4574    6    0    1
 -2       181       182      3060      1129       197      3122      3118      1478      1477      5520
 -1      4575    6    0    1
 -2      2150      2245       635        97      2321      6444      6337      2320      2314       812
 -1      4576    6    0    1
 -2       248      3467      3468      1226      3551      3556      3555      1580      6509      6514
 -1      4577    6    0    1
 -2      4041       334      4050      1226      4116      4114      4115      6515      1667      6516
 -1      4578    6    0    1
 -2      1209      3789       296       295      5600      3883      1627      1628      3882       319
 -1      4579    6    0    1
 -2       456      2219      3470      3469      2445      6489      3575      3573      6511      3577
 -1      4580    6    0    1
 -2      1230      3466      1228       235      6458      6465      1551      1550      3516      1544
 -1      4581    6    0    1
 -2       180      3060      3033      1264      3117      3120      3119      1475      5472      5471
 -1      4582    6    0    1
 -2       245      3471      3480      1232      3542      3547      3546      1571      6398      6396
 -1      4583    6    0    1
 -2      3483       453      2225      3472      3566      2436      6374      3568      3564      6307
 -1      4584    6    0    1
 -2      2159      2177        92         4      2268      5979      5571      2267      2264        95
 -1      4585    6    0    1
 -2       338       337      1130      4030       353      1672      1671      4124      4125      5918
 -1      4586    6    0    1
 -2      1142       200      1073      3253      1273      1487      1486      5926      3270      5388
 -1      4587    6    0    1
 -2      2202      3810       503       504      5751      3949      2522      2523      3950       527
 -1      4588    6    0    1
 -2      2103      2070      2178      4308      2908      2909      2907      6462      6311      6379
 -1      4589    6    0    1
 -2       505      2207      3798      3811      2526      6315      3953      3956      6074      3957
 -1      4590    6    0    1
 -2       118       117      2173       646       151      2384      2389       875       874      6133
 -1      4591    6    0    1
 -2      1129      3060       181      1264      5520      3118      1478      1479      5472      1474
 -1      4592    6    0    1
 -2      2072      2182      2125      4304      2903      2572      2902      5690      5874      6120
 -1      4593    6    0    1
 -2      2097       111       630      2172      2370       856      5147      2369      2368      6306
 -1      4594    6    0    1
 -2       409      3246      3255      2239      3336      3338      3334      2605      6404      6468
 -1      4595    6    0    1
 -2      1104        34      1179       631      1372      1370      1371      6266       749      6267
 -1      4596    6    0    1
 -2      1245      1246      3257       201      1493      6348      6349      1484      1492      3282
 -1      4597    6    0    1
 -2      3269       369       370      4299      3329       372      3330      5917      6491      5916
 -1      4598    6    0    1
 -2      2174      2089       648       106      2352      5643      6084      2351      2353       841
 -1      4599    6    0    1
 -2      1096        29      1181       649      1355      1353      1354      5638       734      6083
 -1      4600    6    0    1
 -2       209      3244      1139       208      3308      5596      1516       224      3309      1517
 -1      4601    6    0    1
 -2       440      3481      3448      2218      3582      3584      3580      2641      6273      6403
 -1      4602    6    0    1
 -2       298      1201      1211      3804      1633      1638      1637      3891      6107      5273
 -1      4603    6    0    1
 -2      2110        13       374      4298      2274       376      2275      5913      6508      6440
 -1      4604    6    0    1
 -2      1081      1177      1116      4305      1765      1801      1802      6210      5748      6435
 -1      4605    6    0    1
 -2        50        49       681      1158        83       794       793      1420      1421      6052
 -1      4606    6    0    1
 -2       303       302      1206      3812       326      1645      1648      3903      3904      6235
 -1      4607    6    0    1
 -2       295      3819       294      1203      3880      3879       318      1624      5268      1625
 -1      4608    6    0    1
 -2      3237       201      1246      3259      3288      1492      6002      3287      3286      6003
 -1      4609    6    0    1
 -2      2151       126       680       127      2419       901      5374      2418       160       902
 -1      4610    6    0    1
 -2       491      3831      2078        17      3838      4839      2301       514      3839      2300
 -1      4611    6    0    1
 -2      1221       239      1223      3477      1558      1559      1560      6446      3524      6373
 -1      4612    6    0    1
 -2      3059       182      1204      1113      3123      1480      5780      5397      1482      1483
 -1      4613    6    0    1
 -2      3475       447      2216      2214      3601      2665      6408      6436      2664      2666
 -1      4614    6    0    1
 -2        16      2240      3720       579      2296      5986      3729       581      5987      3732
 -1      4615    6    0    1
 -2      3477      1221       238      3452      6446      1553      3525      3526      6456      3521
 -1      4616    6    0    1
 -2      3804       298      1201      3822      3891      1633      6107      3893      3888      5814
 -1      4617    6    0    1
 -2       408      2066      3250      2135      2599      5804      3278      2276      2600      6301
 -1      4618    6    0    1
 -2      1211      1216       299      3808      1641      1640      1636      5859      5261      3895
 -1      4619    6    0    1
 -2      2060      2067      2121      4288      2892      2560      2898      4640      6189      6400
 -1      4620    6    0    1
 -2       408       409      3255      2238       424      3334      3333      2598      2597      6297
 -1      4621    6    0    1
 -2      2214      3475       446      3451      6436      3600      2659      6438      3602      3598
 -1      4622    6    0    1
 -2       116       115      2162       660       149      2382      2381       869       868      5187
 -1      4623    6    0    1
 -2      1250        22        23       625      1330        56      1329      4735       711       710
 -1      4624    6    0    1
 -2      2251       411      3249       412      2613      3342      5205      2612       427      3343
 -1      4625    6    0    1
 -2         6       200      1142      3253       215      1273      1274      3271      3270      5926
 -1      4626    6    0    1
 -2      4043      4044      4030      4307      4212      4211      4129      6045      6232      4740
 -1      4627    6    0    1
 -2      3800      3806       497      2203      3933      3931      3928      5026      5025      2502
 -1      4628    6    0    1
 -2       273      3713      1143       274      3760      6483      1688       280      3761      1512
 -1      4629    6    0    1
 -2      3822       298      1201       297      3888      1633      5814      3889       321      1634
 -1      4630    6    0    1
 -2       284      1121      1146      3828      1587      1592      1593      3845      4935      4582
 -1      4631    6    0    1
 -2      3714      2241        16       579      5346      2293      3728      3731      4901       581
 -1      4632    6    0    1
 -2       545      2107       544      4053      2677      2676       560      4162      5010      4161
 -1      4633    6    0    1
 -2       504      2202      3798      2207      2523      5652      3952      2525      2527      6315
 -1      4634    6    0    1
 -2      2135       370        13      4298      5958       373      2277      5865      5959      6508
 -1      4635    6    0    1
 -2      2112       379      3069      2183      2567      3136      4818      2569      2563      5462
 -1      4636    6    0    1
 -2      2203       497      3800      2210      2502      3928      5026      2504      2500      5722
 -1      4637    6    0    1
 -2      2223       444      3464      3459      2655      3592      6463      6381      3594      3596
 -1      4638    6    0    1
 -2      1224       242      3454      1222      1564      3533      6347      1565      1562      6391
 -1      4639    6    0    1
 -2       450      2215      2217      3453      2668      2669      2432      3610      6333      6110
 -1      4640    6    0    1
 -2      3460      3466      1230       236      3520      6458      6402      3519      3515      1549
 -1      4641    6    0    1
 -2      1107        44      1182       687      1406      1404      1407      5250       779      5251
 -1      4642    6    0    1
 -2      2100      2175       121       686      2403      2402      2404      5256      5255       886
 -1      4643    6    0    1
 -2       298      1211       299      3804      1637      1636       322      3891      5273      3892
 -1      4644    6    0    1
 -2       171      1190      1119      3068      1442      1447      1448      3086      5831      6450
 -1      4645    6    0    1
 -2      2196       503      3810      3783      2520      3949      5225      5882      3946      3951
 -1      4646    6    0    1
 -2       117       116      2173       626       150      2385      2384       872       871      5730
 -1      4647    6    0    1
 -2      3453       449      2215      3461      3609      2667      6333      3611      3607      6206
 -1      4648    6    0    1
 -2      1154        23        24       652      1333        57      1332      5902       714       713
 -1      4649    6    0    1
 -2      3826       288      1217      3809      3859      1605      6215      3861      3856      5400
 -1      4650    6    0    1
 -2      1222      3454      3462       241      6391      3535      6393      1561      3534      3530
 -1      4651    6    0    1
 -2      3256       214      1175      3251      3323      1283      5771      3328      3274      5770
 -1      4652    6    0    1
 -2      2115       513      3803       512      2548      3976      6136      2547       536      3977
 -1      4653    6    0    1
 -2      1262      1060      1218      4312      1793      1995      1764      6484      5787      6262
 -1      4654    6    0    1
 -2      1227      1225       233      3482      1543      1540      1542      6331      6411      3506
 -1      4655    6    0    1
 -2       202       203      1161      3259       218      1494      1495      3285      3290      6040
 -1      4656    6    0    1
 -2        13       408      3250      2135       423      3278      3277      2277      2276      6301
 -1      4657    6    0    1
 -2         5      1141       169      3056      1269      1268       184      3070      6170      3071
 -1      4658    6    0    1
 -2      1265      3258      3234       211      6517      3319      6071      1526      3318      3320
 -1      4659    6    0    1
 -2      2178      2177      2103      4308      2843      2426      2907      6379      6378      6462
 -1      4660    6    0    1
 -2      1180       647        41      1095      6358       766      1391      1394      5662      1395
 -1      4661    6    0    1
 -2      1114      4055       337       336      5059      4120      1669      1670      4119       352
 -1      4662    6    0    1
 -2       303      1206      1192      3812      1648      1651      1650      3903      6235      6255
 -1      4663    6    0    1
 -2      2134      3055        12       377      6292      3076      2271      2272      3078       392
 -1      4664    6    0    1
 -2      2192       509      2199      3821      2538      2540      2542      5766      3968      5200
 -1      4665    6    0    1
 -2      2218       441      3481      2220      2646      3583      6273      2649      2648      6066
 -1      4666    6    0    1
 -2      3720       483      2240        16      3730      2295      5986      3729       490      2296
 -1      4667    6    0    1
 -2      2184      3785      3802       493      5788      3921      5417      2486      3920      3916
 -1      4668    6    0    1
 -2      2101       668       103      2176      5606       830      2341      2342      6382      2338
 -1      4669    6    0    1
 -2      2212        14      3486       570      2279      3496      6038      6039       573      3497
 -1      4670    6    0    1
 -2       172       171      1189      3040       187      1446      1445      3089      3088      4875
 -1      4671    6    0    1
 -2         7       569      1219      3487       571      6160      1279      3489      3491      6161
 -1      4672    6    0    1
 -2       271       272      3710      1144       278      3754      3755      1461      1682      6180
 -1      4673    6    0    1
 -2      2174       648       107       106      6084       842      2350      2351       841       140
 -1      4674    6    0    1
 -2        30      1181        29       649      1352      1353        63       733      6083       734
 -1      4675    6    0    1
 -2       274       275      3718      1236       281      3764      3763      1515      1692      6010
 -1      4676    6    0    1
 -2       177       178      3041      1140       193      3107      3106      1466      1465      5698
 -1      4677    6    0    1
 -2       492      3788      2114       491      3913      6199      2483       515      3914      2482
 -1      4678    6    0    1
 -2       441      3476      3481      2220      3585      3587      3583      2648      6376      6066
 -1      4679    6    0    1
 -2       248       247      3467      1226       267      3552      3551      1580      1581      6509
 -1      4680    6    0    1
 -2       214      1175      1120      3256      1283      1534      1531      3323      5771      4821
 -1      4681    6    0    1
 -2       386      2133       385      3044      2580      2579       401      3157      6258      3158
 -1      4682    6    0    1
 -2      1223       589        11      4066      6389       591      1313      6372      4072      4068
 -1      4683    6    0    1
 -2      2184      2150      2069      4292      2801      2864      2490      5418      6219      5246
 -1      4684    6    0    1
 -2       456       455      2219      3469       475      2446      2445      3573      3572      6511
 -1      4685    6    0    1
 -2      1074       169      1141      3056      1440      1268      1441      6169      3071      6170
 -1      4686    6    0    1
 -2       232       233      1225      3482       252      1540      1535      3507      3506      6411
 -1      4687    6    0    1
 -2        37       665        38      1255       758       757        71      1381      4632      1380
 -1      4688    6    0    1
 -2       296      3801      3789      1209      3886      3887      3883      1627      6257      5600
 -1      4689    6    0    1
 -2      1092      1195      1115      4309      2030      1923      2031      5855      5758      5889
 -1      4690    6    0    1
 -2      2067      3055      2134       377      6188      6292      2561      2559      3078      2272
 -1      4691    6    0    1
 -2       481      2136      3709       482      2468      5217      3745       488      2469      3744
 -1      4692    6    0    1
 -2       502       501      3799      2206       525      3944      3943      2515      2514      6025
 -1      4693    6    0    1
 -2       285       284      1191      3820       308      1591      1590      3847      3848      6239
 -1      4694    6    0    1
 -2       301       300      1199      3817       324      1643      1642      3897      3898      5485
 -1      4695    6    0    1
 -2      3478      1227       233      3482      6149      1542      3510      3511      6331      3506
 -1      4696    6    0    1
 -2        26      1183        25       669      1340      1335        59       721      6271       722
 -1      4697    6    0    1
 -2       204       203      3248      1258       219      3292      3291      1499      1500      4930
 -1      4698    6    0    1
 -2      4044      4052      4030      4307      4171      4207      4211      6232      4674      4740
 -1      4699    6    0    1
 -2      3056         5      1141       361      3070      1269      6170      3072       363      6412
 -1      4700    6    0    1
 -2      1158       650        50      1251      6051       797      1420      1427      5316      1426
 -1      4701    6    0    1
 -2      3256      1120       214       213      4821      1531      3323      3324      1532       229
 -1      4702    6    0    1
 -2       370        92       374      4298      2049      2043      2045      5959      5343      6440
 -1      4703    6    0    1
 -2      1222       242      3454       241      1562      3533      6391      1561       261      3534
 -1      4704    6    0    1
 -2       450       449      2215      3453       469      2667      2668      3610      3609      6333
 -1      4705    6    0    1
 -2      4054      2225       540      4045      6474      2672      4147      4151      6329      4150
 -1      4706    6    0    1
 -2      1221       238       239      3477      1553       258      1558      6446      3525      3524
 -1      4707    6    0    1
 -2       303      1192      3807      3812      1650      6254      3907      3903      6255      3908
 -1      4708    6    0    1
 -2       446       447      3475      2214       466      3601      3600      2659      2664      6436
 -1      4709    6    0    1
 -2      3815      2208       500       499      5105      2509      3937      3938      2508       523
 -1      4710    6    0    1
 -2       661        39        38      1169       760        72       761      5004      1383      1384
 -1      4711    6    0    1
 -2        30        31      1181       673        64      1357      1352       737       736      5336
 -1      4712    6    0    1
 -2       108       672       107      2174       845       844       141      2355      5294      2350
 -1      4713    6    0    1
 -2       300       299      1216      3808       323      1640      1639      3894      3895      5261
 -1      4714    6    0    1
 -2      1084       305      3824        10      1304      3834      5583      1305       329      3835
 -1      4715    6    0    1
 -2      2207      3798       504       505      6315      3952      2525      2526      3953       528
 -1      4716    6    0    1
 -2        13      3250       370      2135      3277      3276       373      2277      6301      5958
 -1      4717    6    0    1
 -2      1251       650        50        51      5316       797      1426      1425       796        84
 -1      4718    6    0    1
 -2       270      1248      3715         9      1290      5967      3722       276      1291      3721
 -1      4719    6    0    1
 -2       388      2116       387      3046      2585      2584       403      3165      5190      3166
 -1      4720    6    0    1
 -2       498      2203      3806      2195      2503      5025      3932      2505      2507      5314
 -1      4721    6    0    1
 -2       441      3481       440      2218      3583      3582       460      2646      6273      2641
 -1      4722    6    0    1
 -2      2204       507      2209      3823      2532      2534      2536      6253      3961      5717
 -1      4723    6    0    1
 -2      1240      3241       204       205      5456      3295      1503      1502      3294       220
 -1      4724    6    0    1
 -2      2178      2070      2138      4308      2909      2552      2945      6379      6311      5536
 -1      4725    6    0    1
 -2      2172       111       630       112      2368       856      6306      2367       145       857
 -1      4726    6    0    1
 -2       676        47      1249        48       788      1415      5498       787        81      1414
 -1      4727    6    0    1
 -2       674      2242       124       125      5499      2413       895       896      2412       158
 -1      4728    6    0    1
 -2        35      1179        34       631      1369      1370        68       748      6267       749
 -1      4729    6    0    1
 -2       379       378      3069      2183       394      3137      3136      2563      2562      5462
 -1      4730    6    0    1
 -2      2196       502       503      3783      2519       526      2520      5882      3947      3946
 -1      4731    6    0    1
 -2       123      2175      2086       684      2406      2411      2410       890      6419      6020
 -1      4732    6    0    1
 -2      1093      1182        46       685      1413      1408      1412      6021      6418       781
 -1      4733    6    0    1
 -2       183      1204      3057      3059      1276      6518      3073      3124      5780      3128
 -1      4734    6    0    1
 -2       647        41        40      1180       766        74       767      6358      1391      1386
 -1      4735    6    0    1
 -2       390      2122       389      3049      2591      2590       405      3171      4963      3172
 -1      4736    6    0    1
 -2       166         6      1117       369       168      1272      1271      2044       371      6172
 -1      4737    6    0    1
 -2      2192       508       509      3818      2537       532      2538      5765      3964      3965
 -1      4738    6    0    1
 -2       493      3802      2184       492      3916      5417      2486       516      3917      2485
 -1      4739    6    0    1
 -2      2154       411       410      3267      2607       426      2608      5545      3340      3339
 -1      4740    6    0    1
 -2       413       412      2233      3242       428      2616      2615      3346      3345      6519
 -1      4741    6    0    1
 -2      1256        32        33       645      1364        66      1363      5035       743       742
 -1      4742    6    0    1
 -2       110       644       109      2249       851       850       143      2361      5033      2362
 -1      4743    6    0    1
 -2      2203      3806       497       498      5025      3931      2502      2503      3932       521
 -1      4744    6    0    1
 -2        15      3485       575      2224      3498      3500       578      2289      6167      6334
 -1      4745    6    0    1
 -2       270      3708      1237       271      3752      6471      1679       277      3751      1464
 -1      4746    6    0    1
 -2       444      3464       443      2223      3592      3591       463      2655      6463      2656
 -1      4747    6    0    1
 -2      1217      1210       289      3826      1609      1608      1604      6215      6309      3860
 -1      4748    6    0    1
 -2      1213       294       293      3784      1619       317      1620      5711      3875      3874
 -1      4749    6    0    1
 -2      1184         2      1166        91      1429      1435      1800      6520        93      6521
 -1      4750    6    0    1
 -2      2210       497      3800       496      2500      3928      5722      2499       520      3929
 -1      4751    6    0    1
 -2       103       104       632      2163       137       833       832      2340      2339      4530
 -1      4752    6    0    1
 -2        27      1170        26       633      1341      1342        60       724      4533       725
 -1      4753    6    0    1
 -2        18      2216      4060       590      2311      6394      4076       593      6237      4078
 -1      4754    6    0    1
 -2      2120       480       481      3707      2463       487      2464      5538      3741      3742
 -1      4755    6    0    1
 -2       245       244      3471      1232       264      3543      3542      1571      1572      6398
 -1      4756    6    0    1
 -2       453       452      2225      3472       472      2437      2436      3564      3563      6307
 -1      4757    6    0    1
 -2       498      3806      3794      2195      3932      3936      3935      2505      5314      5313
 -1      4758    6    0    1
 -2      1182        44        45       687      1404        78      1403      5251       779       778
 -1      4759    6    0    1
 -2       121      2175       122       686      2402      2401       155       886      5255       887
 -1      4760    6    0    1
 -2       170      1190       171      3068      1443      1442       186      3085      5831      3086
 -1      4761    6    0    1
 -2       235      1230      3466       236      1550      6458      3516       255      1549      3515
 -1      4762    6    0    1
 -2      2194       505       506      3811      2528       529      2529      5833      3956      3955
 -1      4763    6    0    1
 -2         2        51       689      1184        85       800       799      1429      1428      6522
 -1      4764    6    0    1
 -2       362        86       361      4272      2041      2042       364      6523      6431      6512
 -1      4765    6    0    1
 -2      2218      3448       440       439      6403      3580      2641      2642      3579       459
 -1      4766    6    0    1
 -2       550      2223      4037       551      2687      6380      4091       566      2663      4090
 -1      4767    6    0    1
 -2        28      1254        27       629      1346      1347        61       727      4946       728
 -1      4768    6    0    1
 -2       105       628       104      2247       836       835       138      2344      4942      2345
 -1      4769    6    0    1
 -2       100       651      2147       101       823      4702      2331       134       824      2330
 -1      4770    6    0    1
 -2       214         8      1175      3251       230      1284      1283      3274      3273      5770
 -1      4771    6    0    1
 -2        15      3252       422      2168      3280      3279       438      2286      6524      2287
 -1      4772    6    0    1
 -2      1167      1116       163      4305      1433      1266      1299      6211      6435      6507
 -1      4773    6    0    1
 -2       119      2246       120       655      2396      2395       153       880      4648       881
 -1      4774    6    0    1
 -2      1253        42        43       656      1398        76      1397      4650       773       772
 -1      4775    6    0    1
 -2      1186         1        19       691      1298        52      1297      4865       699       698
 -1      4776    6    0    1
 -2      2201      3790       500       501      5567      3941      2511      2512      3940       524
 -1      4777    6    0    1
 -2        96      2179       690         3      2259      5847       694       129      2260       693
 -1      4778    6    0    1
 -2      2238       409      3255      2239      2597      3334      6297      2606      2605      6468
 -1      4779    6    0    1
 -2      2150      2245      2069      4292      2321      2865      2864      6219      6234      5246
 -1      4780    6    0    1
 -2        21        22      1164       659        55      1324      1325       708       707      5843
 -1      4781    6    0    1
 -2       210      1124      3245       211      1523      4462      3315       226      1522      3314
 -1      4782    6    0    1
 -2      3473       231      1225       232      3502      1536      6367      3501       251      1535
 -1      4783    6    0    1
 -2      1122       304      3791       305      1653      3909      5121      1652       328      3910
 -1      4784    6    0    1
 -2      2177       128       688         4      2265       697      6500      2264       162       695
 -1      4785    6    0    1
 -2       303      3807      1192       304      3907      6254      1650       327      3906      1649
 -1      4786    6    0    1
 -2       292      3786       291      1215      3869      3868       315      1613      6249      1614
 -1      4787    6    0    1
 -2      1167       163         1        86      1299       164      1300      6467      2038        88
 -1      4788    6    0    1
 -2        46      1182        45       685      1408      1403        79       781      6418       782
 -1      4789    6    0    1
 -2       123       122      2175       684       156      2401      2406       890       889      6419
 -1      4790    6    0    1
 -2       657       128      2244       127       905      2423      5885       904       161      2424
 -1      4791    6    0    1
 -2       111       662       110      2158       854       853       144      2364      4592      2365
 -1      4792    6    0    1
 -2        33        34      1165       663        67      1366      1367       746       745      4594
 -1      4793    6    0    1
 -2      3706      1127       272       273      4643      1684      3758      3757      1683       279
 -1      4794    6    0    1
 -2        12       362      3055      2134       365      3077      3076      2271      6369      6292
 -1      4795    6    0    1
 -2       642       109      2161       108       848      2356      5838       847       142      2357
 -1      4796    6    0    1
 -2      1168        31        32       643      1359        65      1358      5872       740       739
 -1      4797    6    0    1
 -2       183      3057      1204         7      3073      6518      1276       199      3074      1277
 -1      4798    6    0    1
 -2      2164       638       121       120      6057       884      2398      2399       883       154
 -1      4799    6    0    1
 -2      1171        43        44       639      1401        77      1400      6059       776       775
 -1      4800    6    0    1
 -2      2248       664       115       114      5088       866      2378      2379       865       148
 -1      4801    6    0    1
 -2       232      1225      3473      3482      1535      6367      3501      3507      6411      3508
 -1      4802    6    0    1
 -2       202      1246       201      3259      1491      1492       217      3285      6003      3286
 -1      4803    6    0    1
 -2       369         6      1142      3253       371      1274      6179      3272      3271      5926
 -1      4804    6    0    1
 -2        99       658        98      2157       818       817       132      2322      4785      2323
 -1      4805    6    0    1
 -2        20      1252        19       637      1316      1317        53       701      4623       702
 -1      4806    6    0    1
 -2        86       163       361      4305      2038      2037      2042      6032      6507      6513
 -1      4807    6    0    1
 -2      3818       509      2192      3821      3965      2538      5765      3969      3968      5766
 -1      4808    6    0    1
 -2        96       635      2245        97       811      6444      2315       130       812      2314
 -1      4809    6    0    1
 -2       284       283      1121      3828       307      1588      1587      3845      3844      4935
 -1      4810    6    0    1
 -2      2137       479       480      3712      2457       486      2458      6434      3738      3739
 -1      4811    6    0    1
 -2        36       677        37      1162       755       754        70      1376      4981      1375
 -1      4812    6    0    1
 -2       114       113      2155       675       147      2374      2373       863       862      4862
 -1      4813    6    0    1
 -2       103       668       102      2176       830       829       136      2338      6382      2333
 -1      4814    6    0    1
 -2      2197       391        14      3054      2281       407      2282      6492      3080      3079
 -1      4815    6    0    1
 -2       125       126       666      2156       159       899       898      2416      2415      5092
 -1      4816    6    0    1
 -2       495      2193      3796       496      2496      6079      3926       519      2497      3925
 -1      4817    6    0    1
 -2      2195      3794       498       499      5313      3935      2505      2506      3934       522
 -1      4818    6    0    1
 -2       385      2230       384      3053      2578      2462       400      3156      6287      3153
 -1      4819    6    0    1
 -2       540       541      2225      4054       556      2444      2672      4147      4148      6474
 -1      4820    6    0    1
 -2      1217       289       288      3826      1604       312      1605      6215      3860      3859
 -1      4821    6    0    1
 -2       478      2241        16      3714      2294      2293       484      3727      5346      3728
 -1      4822    6    0    1
 -2       380      3065       381      2125      3143      3142       396      2570      6119      2571
 -1      4823    6    0    1
 -2       118       670      2152       119       877      5192      2391       152       878      2390
 -1      4824    6    0    1
 -2      1159        41        42       671      1393        75      1392      5574       770       769
 -1      4825    6    0    1
 -2        92       369        91      4299      2047      2046        94      5931      6491      6525
 -1      4826    6    0    1
 -2      1149      3258      1265       212      6499      6517      1530      1529      3317      1525
 -1      4827    6    0    1
 -2       362        87        86      4272      2040        89      2041      6523      6430      6431
 -1      4828    6    0    1
 -2        48        49      1163       667        82      1417      1418       791       790      5101
 -1      4829    6    0    1
 -2       381      2234      3042       382      2573      5479      3146       397      2574      3145
 -1      4830    6    0    1
 -2      2224       547      4044       546      2645      4170      6168      2683       562      4169
 -1      4831    6    0    1
 -2       374      2159        92         4      2266      5571      2043       375      2267        95
 -1      4832    6    0    1
 -2      3449      2216       447       448      6236      2665      3603      3604      2310       467
 -1      4833    6    0    1
 -2      1184        51       689      1110      1428       800      6522      1430      1431      4437
 -1      4834    6    0    1
 -2       374        13       370      4298       376       373      2045      6440      6508      5959
 -1      4835    6    0    1
 -2       172      1132       173      3064      1451      1450       188      3091      5107      3092
 -1      4836    6    0    1
 -2      3043       173       174      1241      3094       189      3095      4908      1454      1453
 -1      4837    6    0    1
 -2        91       369      4295      4299      2046      6174      6497      6525      6491      6416
 -1      4838    6    0    1
 -2      1237       176      3050       177      1463      3102      6470      1462       192      3105
 -1      4839    6    0    1
 -2      1160        28        29       636      1350        62      1349      5806       731       730
 -1      4840    6    0    1
 -2       105       106       634      2153       139       839       838      2348      2347      4868
 -1      4841    6    0    1
 -2      3061       178       179      1198      3111       194      3112      4770      1469      1468
 -1      4842    6    0    1
 -2      3051       174       175      1144      3097       190      3098      6204      1457      1456
 -1      4843    6    0    1
 -2      2209       507       508      3823      2534       531      2535      5717      3961      3962
 -1      4844    6    0    1
 -2       379      3045       380      2182      3140      3139       395      2565      6476      2566
 -1      4845    6    0    1
 -2      1153        46        47       683      1410        80      1409      4993       785       784
 -1      4846    6    0    1
 -2       124       123      2146       682       157      2408      2407       893       892      4987
 -1      4847    6    0    1
 -2       686      2175       122       684      5255      2401       887       891      6419       889
 -1      4848    6    0    1
 -2       687        45      1182       685       778      1403      5251       783       782      6418
 -1      4849    6    0    1
 -2      2151       657      2244       127      6201      5885      2425      2418       904      2424
 -1      4850    6    0    1
 -2       341      1228       342      4062      1548      1661       357      4081      6424      4082
 -1      4851    6    0    1
 -2      2229       482       483      3719      2473       489      2474      6194      3748      3747
 -1      4852    6    0    1
 -2       240      1223       239      3450      1312      1559       259      3527      6371      3528
 -1      4853    6    0    1
 -2       362       366        87      4279      2039      2036      2040      5000      6526      6479
 -1      4854    6    0    1
 -2      1186        19      1109       691      1297      1319      1318      4865       698      4319
 -1      4855    6    0    1
 -2      1214      3801       296      1209      5715      3886      1631      1632      6257      1627
 -1      4856    6    0    1
 -2       690      2179        87         3      5847      5846       692       693      2260        90
 -1      4857    6    0    1
 -2        96       690      2179      2102       694      5847      2259      2316      5241      2317
 -1      4858    6    0    1
 -2       691      1186         1        86      4865      1298       699       700      5496        88
 -1      4859    6    0    1
 -2       539      2217       538      4033      2433      2670       554      4139      6111      4140
 -1      4860    6    0    1
 -2       332      1229      4031       331      1664      6250      4105       347      1570      4104
 -1      4861    6    0    1
 -2        86       361      4272      4305      2042      6512      6431      6032      6513      6505
 -1      4862    6    0    1
 -2       180      3039       179      1123      3115      3114       195      1471      5495      1472
 -1      4863    6    0    1
 -2       237       238      1221      3452       257      1553      1554      3522      3521      6456
 -1      4864    6    0    1
 -2      2160       366      2109      4279      2262      2269      2555      6432      6526      4857
 -1      4865    6    0    1
 -2      2214       446       445      3451      2659       465      2660      6438      3598      3597
 -1      4866    6    0    1
 -2       382       383      2137      3052       398      2461      2576      3149      3148      6433
 -1      4867    6    0    1
 -2       445       444      2223      3459       464      2655      2658      3595      3594      6381
 -1      4868    6    0    1
 -2      2214      4032       551       552      6437      4094      2662      2688      4182       567
 -1      4869    6    0    1
 -2      3460      1230       237       236      6402      1552      3518      3519      1549       256
 -1      4870    6    0    1
 -2      2177       688       128      2103      6500       697      2265      2426      6501      2427
 -1      4871    6    0    1
 -2       410      3246       409      2239      3337      3336       425      2604      6404      2605
 -1      4872    6    0    1
 -2       339       338      1231      4043       354      1676      1539      4128      4127      6118
 -1      4873    6    0    1
 -2      1220      4056       334       333      6344      4110      1666      1578      4111       349
 -1      4874    6    0    1
 -2       552      2216      4060        18      2313      6394      4075       568      2311      4076
 -1      4875    6    0    1
 -2       245      3480       246      1232      3546      3545       265      1571      6396      1574
 -1      4876    6    0    1
 -2       454       453      2225      3483       473      2436      2439      3567      3566      6374
 -1      4877    6    0    1
 -2       442       443      3456      2221       462      3589      3588      2651      2650      6319
 -1      4878    6    0    1
 -2      1219      4050       336       335      6159      4118      1668      1585      4113       351
 -1      4879    6    0    1
 -2       249       248      3468      1226       268      3555      3554      1583      1580      6514
 -1      4880    6    0    1
 -2       212      3258      1265       211      3317      6517      1525       227      3318      1526
 -1      4881    6    0    1
 -2      2177       688        92         4      6500       696      5979      2264       695        95
 -1      4882    6    0    1
 -2       457      2219      3470       456      2448      6489      3576       476      2445      3575
 -1      4883    6    0    1
 -2      1221       344       343      4058      1662       359      1556      6455      4085      4084
 -1      4884    6    0    1
 -2      2215       449       448      3461      2667       468      2308      6206      3607      3606
 -1      4885    6    0    1
 -2       231      1231         8      3488      1285      1286       250      3492      6510      3493
 -1      4886    6    0    1
 -2       241      3462      1222       240      3530      6393      1561       260      3531      1309
 -1      4887    6    0    1
 -2      2109       366        12      4279      2269       368      2270      4857      6526      6527
 -1      4888    6    0    1
 -2       387      3062      2191       386      3162      6227      2582       402      3163      2581
 -1      4889    6    0    1
 -2       166      1166         2        91      1434      1435       167      2048      6521        93
 -1      4890    6    0    1
 -2       234      1228      3458       235      1545      6425      3513       254      1544      3512
 -1      4891    6    0    1
 -2       181      3060       180      1264      3118      3117       196      1474      5472      1475
 -1      4892    6    0    1
 -2        15       439      3485      2224       458      3499      3498      2289      2288      6167
 -1      4893    6    0    1
 -2         7      1219       249      3487      1279      1278       269      3489      6161      3490
 -1      4894    6    0    1
 -2       457        14      3486      2212       477      3496      3495      2280      2279      6038
 -1      4895    6    0    1
 -2       479      3716      2230       478      3733      6286      2453       485      3734      2452
 -1      4896    6    0    1
 -2      1214       296      3801       297      1631      3886      5715      1630       320      3885
 -1      4897    6    0    1
 -2       201      3257      1245       200      3282      6349      1484       216      3283      1485
 -1      4898    6    0    1
 -2      1184       689         2        91      6522       799      1429      6520       808        93
 -1      4899    6    0    1
 -2       362        87      4272      4279      2040      6430      6523      5000      6479      6384
 -1      4900    6    0    1
 -2        12       366       362      4279       368      2039       365      6527      6526      5000
 -1      4901    6    0    1
 -2       242      3457       243      1224      3537      3536       262      1564      6268      1563
 -1      4902    6    0    1
 -2       450      2217       451      3455      2432      2431       470      3560      6109      3561
 -1      4903    6    0    1
 -2       335      4050       334      1226      4113      4114       350      1586      6516      1667
 -1      4904    6    0    1
 -2       542      4034       543      2219      4154      4153       558      2674      6488      2451
 -1      4905    6    0    1
 -2       442      3476       441      2220      3586      3585       461      2647      6376      2648
 -1      4906    6    0    1
 -2      3478       233      1227       234      3510      1542      6149      3509       253      1541
 -1      4907    6    0    1
 -2       210      3264      1197       209      3311      4471      1519       225      3312      1520
 -1      4908    6    0    1
 -2       247       246      3474      1220       266      3549      3548      1575      1576      6029
 -1      4909    6    0    1
 -2       455       454      2213      3479       474      2441      2440      3570      3569      6485
 -1      4910    6    0    1
 -2       331      1224      4051       330      1568      6269      4102       346      1663      4101
 -1      4911    6    0    1
 -2       205       206      1143      3263       221      1507      1508      3300      3299      6490
 -1      4912    6    0    1
 -2       243      3465       244      1229      3540      3539       263      1567      6251      1566
 -1      4913    6    0    1
 -2      3463      2222       451       452      5996      2430      3558      3559      2429       471
 -1      4914    6    0    1
 -2       344      1223        11      4066      1314      1313       360      4067      6372      4068
 -1      4915    6    0    1
 -2       418       417      2190      3262       433      2626      2625      3363      3362      4359
 -1      4916    6    0    1
 -2      1236       208      3261       207      1513      3305      6077      1514       223      3306
 -1      4917    6    0    1
 -2      2218      4036       547       548      6272      4173      2644      2684      4172       563
 -1      4918    6    0    1
 -2       414      2136      3265       413      2477      6528      3351       429      2620      3350
 -1      4919    6    0    1
 -2       389      3063      2257       388      3168      4418      2588       404      3169      2587
 -1      4920    6    0    1
 -2       548      4042       549      2220      4177      4178       564      2685      6065      2652
 -1      4921    6    0    1
 -2       339      4049      1225       340      4130      6409      1538       355      4131      1677
 -1      4922    6    0    1
 -2      1222      4057       330        11      6392      4069      1315      1311      4070       345
 -1      4923    6    0    1
 -2       415       416      3260      2229       431      3357      3356      2478      2622      5619
 -1      4924    6    0    1
 -2       550       549      4059      2221       565      4180      4093      2686      2654      6320
 -1      4925    6    0    1
 -2        18       538      2215      4064       553      2312      2309      4074      4073      6205
 -1      4926    6    0    1
 -2      2212      4048       543       544      6037      4158      2450      2675      4159       559
 -1      4927    6    0    1
 -2       341       340      1227      4065       356      1678      1546      4135      4136      6145
 -1      4928    6    0    1
 -2       542      2213       541      4054      2673      2443       557      4152      6486      4148
 -1      4929    6    0    1
 -2      1230       343       342      4063      1557       358      1660      6421      4079      4080
 -1      4930    6    0    1
 -2       539       540      2222      4047       555      2671      2435      4144      4145      6017
 -1      4931    6    0    1
 -2       333      1232      4046       332      1579      6397      4108       348      1665      4107
 -1      4932    6    0    1
 -2       420       419      2258      3266       435      2632      2631      3369      3368      6417
 -1      4933    6    0    1
 -2      4287      4274      4222      4214      6529      4694      4482      4481      4512      4423
 -1      4934    6    0    1
 -2      4222      4274      4287      4259      4694      6529      4482      4372      6530      4845
 -1      4935    6    0    1
 -2      4256      1250      1090      1154      6531      1928      6080      5903      1334      1926
 -1      4936    6    0    1
 -2      1250      4256      1090      4227      6531      6080      1928      4737      4550      5434
 -1      4937    6    0    1
 -2       614      1250      4256      1154      4736      6531      4665      5901      1334      5903
 -1      4938    6    0    1
 -2      1250       614      4256      4227      4736      4665      6531      4737      4664      4550
 -1      4939    6    0    1
 -2      3245      4286      3240      4268      4467      4362      3384      4463      4466      5810
 -1      4940    6    0    1
 -2      3240      4286      3245      3230      4362      4467      3384      3386      4474      3385
 -1      4941    6    0    1
 -2      4248      4274      4287      4214      4513      6529      4846      4509      4512      4481
 -1      4942    6    0    1
 -2       362      2186      4220      2134      4999      5581      6370      6369      2914      5580
 -1      4943    6    0    1
 -2      4220      2186       362      4310      5581      4999      6370      4479      5003      5001
 -1      4944    6    0    1
 -2      3706      3232      3713      3709      6532      5868      3762      3774      5691      3772
 -1      4945    6    0    1
 -2      4277      3232      3706      3709      5943      6532      4344      4343      5691      3774
 -1      4946    6    0    1
 -2      4249      4276      4281      4242      6533      4430      5774      6082      4461      4400
 -1      4947    6    0    1
 -2      4276      4249      4281      4213      6533      5774      4430      4428      5659      4431
 -1      4948    6    0    1
 -2      4276      4260      4249      4213      5132      5658      6533      4428      5148      5659
 -1      4949    6    0    1
 -2      1215      3814      4252      3786      6285      4668      5235      6249      3870      4667
 -1      4950    6    0    1
 -2      4252      3814      1215      4254      4668      6285      5235      4758      4756      5236
 -1      4951    6    0    1
 -2      4279      2059      4310      2186      4858      6345      5002      4859      2776      5003
 -1      4952    6    0    1
 -2      2059      4279      4310      4240      4858      5002      6345      6302      5556      6069
 -1      4953    6    0    1
 -2      4297      4259      4274      4222      5177      6530      5355      5318      4372      4694
 -1      4954    6    0    1
 -2      4259      4297      4274      4218      5177      5355      6530      4897      5667      4905
 -1      4955    6    0    1
 -2      4301      4312      2211      4219      6263      4580      4723      4725      6534      4603
 -1      4956    6    0    1
 -2      2211      4312      4301      4231      4580      6263      4723      4579      4518      4938
 -1      4957    6    0    1
 -2      4215      4293      1111      4260      4653      6366      6535      5939      5745      6365
 -1      4958    6    0    1
 -2      1111      4293      4215      1155      6366      4653      6535      1915      4654      4563
 -1      4959    6    0    1
 -2      4278      4215      1111      4260      4565      6535      4587      5907      5939      6365
 -1      4960    6    0    1
 -2      1111      4215      4278      1155      6535      4565      4587      1915      4563      4564
 -1      4961    6    0    1
 -2      4217      1257      4221      4278      4432      4409      5647      4380      4411      4412
 -1      4962    6    0    1
 -2      1257      4217      4221      4294      4432      5647      4409      4926      5125      4925
 -1      4963    6    0    1
 -2      1060      1136      4225      1196      1991      4443      5786      1990      1938      4526
 -1      4964    6    0    1
 -2      2201      2161      4226      2079      2737      4313      5566      2736      2738      4315
 -1      4965    6    0    1
 -2      2161      2201      4226      4252      2737      5566      4313      5839      5569      5570
 -1      4966    6    0    1
 -2      1208      4226      1168      1086      5739      4317      1858      1859      4318      1860
 -1      4967    6    0    1
 -2      1168      4226      1208      4252      4317      5739      1858      5873      5570      5928
 -1      4968    6    0    1
 -2      2165      4266      4268      4270      5676      4367      4762      4764      4370      4371
 -1      4969    6    0    1
 -2      4291      4229      4232      4221      4732      4705      5149      5453      5829      5017
 -1      4970    6    0    1
 -2      4229      4291      4232      4213      4732      5149      4705      4706      5150      4704
 -1      4971    6    0    1
 -2      2193      4227      2147      2083      5436      4324      2791      2792      4325      2790
 -1      4972    6    0    1
 -2      2147      4227      2193      4256      4324      5436      2791      4549      4550      5439
 -1      4973    6    0    1
 -2      2078      4274      2144      2131      6536      5706      2919      2973      6140      2974
 -1      4974    6    0    1
 -2      2144      4274      2078      4241      5706      6536      2919      5995      4511      4840
 -1      4975    6    0    1
 -2      4274      4218      2078      4241      4905      4838      6536      4511      4802      4840
 -1      4976    6    0    1
 -2      4265      4268      2205      4233      4684      5707      4851      4611      6537      4850
 -1      4977    6    0    1
 -2      2205      4268      4265      2056      5707      4684      4851      2715      5168      5167
 -1      4978    6    0    1
 -2      2189      4231      2053      2129      6538      4514      2962      2834      5881      2963
 -1      4979    6    0    1
 -2      2053      4231      2189      4225      4514      6538      2962      4515      4442      4554
 -1      4980    6    0    1
 -2      2189      4239      4231      2129      4553      4446      6538      2834      5414      5881
 -1      4981    6    0    1
 -2      4231      4239      2189      4225      4446      4553      6538      4442      4445      4554
 -1      4982    6    0    1
 -2      4234      4267      2065      2252      4495      5182      5145      5694      5180      2706
 -1      4983    6    0    1
 -2      2065      4267      4234      4243      5182      4495      5145      5146      4496      4492
 -1      4984    6    0    1
 -2      1173      1259      4243      1072      1779      4491      5021      1777      1717      5648
 -1      4985    6    0    1
 -2      4243      1259      1173      4267      4491      1779      5021      4496      4494      5022
 -1      4986    6    0    1
 -2      1147      4285      4273      1118      6539      5393      4336      1970      4693      5776
 -1      4987    6    0    1
 -2      4273      4285      1147      4216      5393      6539      4336      4338      5043      4333
 -1      4988    6    0    1
 -2      1147      1067      4285      1118      1971      4691      6539      1970      1972      4693
 -1      4989    6    0    1
 -2      4285      1067      1147      4216      4691      1971      6539      5043      4433      4333
 -1      4990    6    0    1
 -2      2228      4281      2138      2115      6473      4404      2977      2753      6138      2550
 -1      4991    6    0    1
 -2      2138      4281      2228      4237      4404      6473      2977      4401      4405      6027
 -1      4992    6    0    1
 -2      4265      4268      1212      1063      4684      5709      4913      5165      5166      1759
 -1      4993    6    0    1
 -2      1212      4268      4265      4233      5709      4684      4913      4912      6537      4611
 -1      4994    6    0    1
 -2      2254      4229      2232      2119      5310      4731      2733      2734      5309      2730
 -1      4995    6    0    1
 -2      2232      4229      2254      4289      4731      5310      2733      4730      4729      5565
 -1      4996    6    0    1
 -2       612       677      4223       611      1010      4831      6540       933      1011      4832
 -1      4997    6    0    1
 -2       677       612      4223      4261      1010      6540      4831      4982      5703      4855
 -1      4998    6    0    1
 -2       612      4223       675       611      6540      4861       932       933      4832       909
 -1      4999    6    0    1
 -2      4223       612       675      4261      6540       932      4861      4855      5703      4864
 -1      5000    6    0    1
 -2      1265      4268      4266      1103      5955      4367      6541      1780      4469      4468
 -1      5001    6    0    1
 -2      1149      4266      1265      3258      5442      6541      1530      6499      5800      6517
 -1      5002    6    0    1
 -2      1265      4266      1149      1103      6541      5442      1530      1780      4468      1781
 -1      5003    6    0    1
 -2      4231      1064      1136      1243      6542      1996      4441      5880      1893      1994
 -1      5004    6    0    1
 -2      1136      1064      4231      4239      1996      6542      4441      4444      4364      4446
 -1      5005    6    0    1
 -2      4231      4247      1064      1243      5370      4363      6542      5880      6221      1893
 -1      5006    6    0    1
 -2      1064      4247      4231      4239      4363      5370      6542      4364      4353      4446
 -1      5007    6    0    1
 -2      4231      2129      2057      2236      5881      2957      6543      5371      2958      2942
 -1      5008    6    0    1
 -2      2129      4231      2057      4239      5881      6543      2957      5414      4446      4352
 -1      5009    6    0    1
 -2      4231      2057      4247      2236      6543      4354      5370      5371      2942      5369
 -1      5010    6    0    1
 -2      2057      4231      4247      4239      6543      5370      4354      4352      4446      4353
 -1      5011    6    0    1
 -2      1234      4248      1146      1121      6139      4387      1776      1863      4936      1592
 -1      5012    6    0    1
 -2      1146      4248      1234      4238      4387      6139      1776      4384      4389      5784
 -1      5013    6    0    1
 -2      3803      2138      4281      2115      6503      4404      4937      6136      2550      6138
 -1      5014    6    0    1
 -2      2138      3803      4281      4230      6503      4937      4404      4403      4807      4398
 -1      5015    6    0    1
 -2      4228      2179      2102      2180      5849      2317      5240      6264      2828      2866
 -1      5016    6    0    1
 -2      2179      4228      2102       690      5849      5240      2317      5847      5239      5241
 -1      5017    6    0    1
 -2      1188      4243      1259      1072      4505      4491      1716      1715      5648      1717
 -1      5018    6    0    1
 -2      1259      4243      1188      4234      4491      4505      1716      4493      4492      4506
 -1      5019    6    0    1
 -2      2142      4268      2258      2096      6544      5811      2636      2888      6125      2887
 -1      5020    6    0    1
 -2      4268      4266      2142      3234      4367      4781      6544      6072      4782      4778
 -1      5021    6    0    1
 -2      3826      3800      4236      3792      4021      4972      6545      3864      4020      4971
 -1      5022    6    0    1
 -2      4236      3800      3826      4245      4972      4021      6545      4523      5134      6216
 -1      5023    6    0    1
 -2      1210      3826      4236      3792      6309      6545      5271      6498      3864      4971
 -1      5024    6    0    1
 -2      4236      3826      1210      4245      6545      6309      5271      4523      6216      5272
 -1      5025    6    0    1
 -2      3249      2126      4239      2251      6454      5655      5204      5205      2619      5203
 -1      5026    6    0    1
 -2      1238      1111      4278      1156      1964      4587      4970      1966      1965      4588
 -1      5027    6    0    1
 -2      1111      1238      4278      4260      1964      4970      4587      6365      5577      5907
 -1      5028    6    0    1
 -2      2204      4244      2164      2082      5898      4573      2694      2695      4571      2693
 -1      5029    6    0    1
 -2      2164      4244      2204      4263      4573      5898      2694      6058      5162      5900
 -1      5030    6    0    1
 -2      1211      1171      4244      1089      1899      4576      5274      2025      2024      4575
 -1      5031    6    0    1
 -2      1171      1211      4244      4263      1899      5274      4576      6060      5275      5162
 -1      5032    6    0    1
 -2      1178      4285      1262      1075      6547      6546      1744      1743      6477      1722
 -1      5033    6    0    1
 -2      1178      1118      4285      1075      1741      4693      6547      1743      1742      6477
 -1      5034    6    0    1
 -2      4285      1118      1178      4258      4693      1741      6547      5392      5777      5331
 -1      5035    6    0    1
 -2      2108      2064      4217      2250      2787      4837      4710      2789      2786      4448
 -1      5036    6    0    1
 -2      4217      2064      2108      4306      4837      2787      4710      5451      5611      5450
 -1      5037    6    0    1
 -2       631       663      4246      1104       750      4489      6129      6266      4487      4488
 -1      5038    6    0    1
 -2       663       631      4246       597       750      6129      4489      1056      1047      4529
 -1      5039    6    0    1
 -2      2111      2060      4216      2140      2916      4638      4621      2915      2876      4329
 -1      5040    6    0    1
 -2      4235      1249       667       676      5084      6472      5046      5054      5498       792
 -1      5041    6    0    1
 -2      1249      4235       667      1163      5084      5046      6472      1419      5083      5101
 -1      5042    6    0    1
 -2      2199      4235      2156      2084      5199      5087      3023      3024      5085      3022
 -1      5043    6    0    1
 -2      2156      4235      2199      4283      5087      5199      3023      5093      4955      5201
 -1      5044    6    0    1
 -2      4225      1178      4309      4258      5333      5697      5156      5332      5331      5629
 -1      5045    6    0    1
 -2       627      4262       626       617      5737      5474       950       951      5475       949
 -1      5046    6    0    1
 -2       626      4262       627      4251      5474      5737       950      5731      5625      5736
 -1      5047    6    0    1
 -2       641       640      4246       594      1039      5407      6548      1050      1049      6130
 -1      5048    6    0    1
 -2      4246       640       641      4261      5407      1039      6548      5302      5410      5937
 -1      5049    6    0    1
 -2      4246       641      1179      4261      6548      6175      6121      5302      5937      6122
 -1      5050    6    0    1
 -2      4253       687      4263      1182      6549      5253      5112      5779      5251      5252
 -1      5051    6    0    1
 -2       687      4253      4263       621      6549      5112      5253       970      6550      5923
 -1      5052    6    0    1
 -2       685       687      4253      1182       783      6549      5952      6418      5251      5779
 -1      5053    6    0    1
 -2       687       685      4253       621       783      5952      6549       970       971      6550
 -1      5054    6    0    1
 -2      4253      4263       686      2175      5112      5258      6551      5778      5259      5255
 -1      5055    6    0    1
 -2       686      4263      4253       621      5258      5112      6551       972      5923      6550
 -1      5056    6    0    1
 -2       684      4253       686      2175      5953      6551       891      6419      5778      5255
 -1      5057    6    0    1
 -2       686      4253       684       621      6551      5953       891       972      6550       973
 -1      5058    6    0    1
 -2      4270      4265      1264      1102      4421      5557      5446      5445      5527      1977
 -1      5059    6    0    1
 -2      1264      4265      4270      3033      5557      4421      5446      5471      4829      4830
 -1      5060    6    0    1
 -2      2210      4256      2176      2087      5100      4887      2934      2935      5306      2337
 -1      5061    6    0    1
 -2      2176      4256      2210      4245      4887      5100      2934      4886      4568      5098
 -1      5062    6    0    1
 -2       679      1094      4245      1183      5627      5141      4559      6504      1337      5822
 -1      5063    6    0    1
 -2      4245      1094       679      4256      5141      5627      4559      4568      5143      4567
 -1      5064    6    0    1
 -2      4249      4276      4293      4260      6533      5153      5420      5658      5132      5745
 -1      5065    6    0    1
 -2      4276      4249      4293      4242      6533      5420      5153      4461      6082      5154
 -1      5066    6    0    1
 -2      4268      3266      2142      2258      6552      5202      6544      5811      6417      2636
 -1      5067    6    0    1
 -2      2142      3266      4268      3234      5202      6552      6544      4778      3382      6072
 -1      5068    6    0    1
 -2      4268      3240      3266      2258      5810      3370      6552      5811      5808      6417
 -1      5069    6    0    1
 -2      3266      3240      4268      3234      3370      5810      6552      3382      3383      6072
 -1      5070    6    0    1
 -2      4266      4267      2065      4243      5023      5182      6553      4628      4496      5146
 -1      5071    6    0    1
 -2      2065      4267      4266      2166      5182      5023      6553      2708      5181      6101
 -1      5072    6    0    1
 -2      2113      4266      2065      4243      5042      6553      2711      5041      4628      5146
 -1      5073    6    0    1
 -2      2065      4266      2113      2166      6553      5042      2711      2708      6101      2710
 -1      5074    6    0    1
 -2      4277      3241      3263      3232      5457      3301      6554      5943      3392      3393
 -1      5075    6    0    1
 -2      4277      3263      3706      3232      6554      6555      4344      5943      3393      6532
 -1      5076    6    0    1
 -2      3263      4277      3706      1143      6554      4344      6555      6490      4676      4675
 -1      5077    6    0    1
 -2      3706      3263      3713      3232      6555      6203      3762      6532      3393      5868
 -1      5078    6    0    1
 -2      3263      3706      3713      1143      6555      3762      6203      6490      4675      6483
 -1      5079    6    0    1
 -2      4282      2138      4230      3803      6556      4403      4440      4808      6503      4807
 -1      5080    6    0    1
 -2      4230      2138      4282      4308      4403      6556      4440      5069      5536      5071
 -1      5081    6    0    1
 -2      2138      2070      4282      4308      2552      6310      6556      5536      6311      5071
 -1      5082    6    0    1
 -2      4277      4239      1064      1242      4689      4364      6557      4961      4960      1957
 -1      5083    6    0    1
 -2      1064      4239      4277      4255      4364      4689      6557      4365      4357      4345
 -1      5084    6    0    1
 -2      1100      4277      1064      1242      4454      6557      1838      1956      4961      1957
 -1      5085    6    0    1
 -2      1064      4277      1100      4255      6557      4454      1838      4365      4345      4452
 -1      5086    6    0    1
 -2      2232      4229      2062      2119      4731      4917      2729      2730      5309      2726
 -1      5087    6    0    1
 -2      2062      4229      2232      4264      4917      4731      2729      4916      4915      4872
 -1      5088    6    0    1
 -2       628      4236       634       600      4944      4866       840       998      4933       993
 -1      5089    6    0    1
 -2       634      4236       628      2153      4866      4944       840      4868      4867      4943
 -1      5090    6    0    1
 -2      3237      4309      4294      4275      6558      5127      6361      6163      6209      6388
 -1      5091    6    0    1
 -2      4277      2057      4239      2235      6559      4352      4689      5876      2906      5415
 -1      5092    6    0    1
 -2      4239      2057      4277      4255      4352      6559      4689      4357      4355      4345
 -1      5093    6    0    1
 -2      4277      2093      2057      2235      4698      2895      6559      5876      2905      2906
 -1      5094    6    0    1
 -2      2057      2093      4277      4255      2895      4698      6559      4355      4697      4345
 -1      5095    6    0    1
 -2      4266      3234      1265      3258      4782      6071      6541      5800      3319      6517
 -1      5096    6    0    1
 -2      3234      4266      1265      4268      4782      6541      6071      6072      4367      5955
 -1      5097    6    0    1
 -2       362      4310      4272      4220      5001      6560      6523      6370      4479      5120
 -1      5098    6    0    1
 -2      4272      4214      4310      4240      5118      4478      6560      5921      5920      6069
 -1      5099    6    0    1
 -2      4310      4214      4272      4220      4478      5118      6560      4479      4424      5120
 -1      5100    6    0    1
 -2      1212      4286      1174      1082      6561      4394      1823      1950      4828      1953
 -1      5101    6    0    1
 -2      1174      4286      1212      4233      4394      6561      1823      4475      4477      4912
 -1      5102    6    0    1
 -2      4286      4268      1212      4233      4466      5709      6561      4477      6537      4912
 -1      5103    6    0    1
 -2      4280      4309      3237      4275      5157      6558      6165      6156      6209      6163
 -1      5104    6    0    1
 -2      2198      2193      4227      3825      2498      5436      5510      5744      5435      5437
 -1      5105    6    0    1
 -2      2193      2198      4227      2083      2498      5510      5436      2792      2794      4325
 -1      5106    6    0    1
 -2      2198      4271      2157      2092      5512      4786      2795      2802      6354      2326
 -1      5107    6    0    1
 -2      2157      4271      2198      4227      4786      5512      2795      4783      4788      5510
 -1      5108    6    0    1
 -2      4294      1092      3237      1246      6562      6001      6361      6352      1498      6002
 -1      5109    6    0    1
 -2      3237      1092      4294      4309      6001      6562      6361      6558      5855      5127
 -1      5110    6    0    1
 -2      4294      1115      1092      1246      5888      2031      6562      6352      2032      1498
 -1      5111    6    0    1
 -2      1092      1115      4294      4309      2031      5888      6562      5855      5889      5127
 -1      5112    6    0    1
 -2      2128      2054      4241      2227      2943      5783      5505      2953      2952      6395
 -1      5113    6    0    1
 -2      2054      2128      4241      4240      2943      5505      5783      5551      5507      5506
 -1      5114    6    0    1
 -2      1128      4285      1067      1244      5742      4691      1799      1747      4692      1973
 -1      5115    6    0    1
 -2      1067      4285      1128      4257      4691      5742      1799      4726      4601      5740
 -1      5116    6    0    1
 -2      4245       669       679      1183      5038       723      4559      5822      6271      6504
 -1      5117    6    0    1
 -2       669      4245       679       613      5038      4559       723      1033      4560      1042
 -1      5118    6    0    1
 -2      1138      4218      1085      1148      4896      4825      1842      1843      4789      1308
 -1      5119    6    0    1
 -2      1085      4218      1138      4248      4825      4896      1842      4826      4805      4841
 -1      5120    6    0    1
 -2      1202      4236      1210      1088      5492      5271      1612      1886      5113      1889
 -1      5121    6    0    1
 -2      1210      4236      1202      3792      5271      5492      1612      6498      4971      5491
 -1      5122    6    0    1
 -2      4272      4279      4310       362      6384      5002      6560      6523      5000      5001
 -1      5123    6    0    1
 -2      4279      4272      4310      4240      6384      6560      5002      5556      5921      6069
 -1      5124    6    0    1
 -2      4268      2142      2165      2096      6544      2941      4762      6125      2888      2717
 -1      5125    6    0    1
 -2      2142      4268      2165      4266      6544      4762      2941      4781      4367      5676
 -1      5126    6    0    1
 -2      4274      4248      4259      4218      4513      4842      6530      4905      4805      4897
 -1      5127    6    0    1
 -2      4259      4248      4274      4287      4842      4513      6530      4845      4846      6529
 -1      5128    6    0    1
 -2      2126      4239      3235      3249      5655      4687      6453      6454      5204      3347
 -1      5129    6    0    1
 -2      3235      4239      2126      4277      4687      5655      6453      4688      4689      5875
 -1      5130    6    0    1
 -2      2067      4310      2060      2118      6563      5984      2892      2893      5985      2868
 -1      5131    6    0    1
 -2      2060      4310      2067      4220      5984      6563      2892      4637      4479      5582
 -1      5132    6    0    1
 -2      2067      2186      4310      2118      2894      5003      6563      2893      2770      5985
 -1      5133    6    0    1
 -2      4310      2186      2067      4220      5003      2894      6563      4479      5581      5582
 -1      5134    6    0    1
 -2       645      4226       663      1165      5037      4486       747      5036      4595      4594
 -1      5135    6    0    1
 -2       663      4226       645       598      4486      5037       747      1055      4941       991
 -1      5136    6    0    1
 -2       644      4226       662       598      5034      4536       855       987      4941      1053
 -1      5137    6    0    1
 -2       662      4226       644      2158      4536      5034       855      4592      4593      5032
 -1      5138    6    0    1
 -2      4223       664       660      2162      5039       870      4767      5090      5089      5187
 -1      5139    6    0    1
 -2       664      4223       660       595      5039      4767       870       911      4765       913
 -1      5140    6    0    1
 -2      4259      1147      1155      1112      6564      1702      4615      6428      2002      1921
 -1      5141    6    0    1
 -2      1155      1147      4259      4273      1702      6564      4615      4561      4336      4374
 -1      5142    6    0    1
 -2      1147      4224      4259      4273      4335      4373      6564      4336      4337      4374
 -1      5143    6    0    1
 -2      1126      1261      4260      1238      1850      5129      6565      1851      1853      5577
 -1      5144    6    0    1
 -2      1261      1126      4260      4232      1850      6565      5129      5138      5016      5137
 -1      5145    6    0    1
 -2      1126      4260      4278      1238      6565      5907      4570      1851      5577      4970
 -1      5146    6    0    1
 -2      2240      2075      4233      2167      2976      5957      6566      2297      3025      4902
 -1      5147    6    0    1
 -2      4233      2075      2240      4286      5957      2976      6566      4477      6407      5988
 -1      5148    6    0    1
 -2       579      2240      4233      2167      5987      6566      4904      4900      2297      4902
 -1      5149    6    0    1
 -2      4233      2240       579      4286      6566      5987      4904      4477      5988      5423
 -1      5150    6    0    1
 -2      1140      4296      3061      3041      5382      4768      6567      5698      5699      3113
 -1      5151    6    0    1
 -2      3061      4296      1140      1198      4768      5382      6567      4770      4769      1470
 -1      5152    6    0    1
 -2       178      1140      3061      3041      1465      6567      3111      3107      5698      3113
 -1      5153    6    0    1
 -2      3061      1140       178      1198      6567      1465      3111      4770      1470      1469
 -1      5154    6    0    1
 -2      1190      1262      4285      1075      1721      6546      5470      1719      1722      6477
 -1      5155    6    0    1
 -2      1262      1190      4285      4219      1721      5470      6546      6144      5468      4599
 -1      5156    6    0    1
 -2      1118      1071      4273      1233      1788      4715      5776      1922      1905      5458
 -1      5157    6    0    1
 -2      1071      1118      4273      4258      1788      5776      4715      4928      5777      4929
 -1      5158    6    0    1
 -2      2069      4228      2102      2180      5245      5240      2867      2863      6264      2866
 -1      5159    6    0    1
 -2      2102      4228      2069      4292      5240      5245      2867      5243      4663      5246
 -1      5160    6    0    1
 -2      1203      4223      1209      3789      5269      5599      1629      5592      5281      5600
 -1      5161    6    0    1
 -2      1209      4223      1203      1087      5599      5269      1629      1874      4974      1869
 -1      5162    6    0    1
 -2      2194      4262      2152      2088      5834      5196      2690      2928      5702      2394
 -1      5163    6    0    1
 -2      2152      4262      2194      4244      5196      5834      2690      5076      5195      5832
 -1      5164    6    0    1
 -2      1139      3718      4286      3717      6008      5752      5594      5593      3766      4958
 -1      5165    6    0    1
 -2      3718      1139      4286      3244      6008      5594      5752      6007      5596      5597
 -1      5166    6    0    1
 -2      1201      1211      4244      1089      1638      5274      5813      2013      2025      4575
 -1      5167    6    0    1
 -2      1211      1201      4244      3804      1638      5813      5274      5273      6107      5159
 -1      5168    6    0    1
 -2      3470      4048      3433      4034      6568      4965      3669      6332      4160      6299
 -1      5169    6    0    1
 -2      3433      4048      3470      3486      4965      6568      3669      3616      4966      3578
 -1      5170    6    0    1
 -2      3470       543      4048      4034      6487      4158      6568      6332      4153      4160
 -1      5171    6    0    1
 -2      4226       644       642       599      5034       852      6569      5894       988       984
 -1      5172    6    0    1
 -2      4252      4226       642       599      5570      6569      5387      6085      5894       984
 -1      5173    6    0    1
 -2       642      4226      4252      2161      6569      5570      5387      5838      4313      5839
 -1      5174    6    0    1
 -2      1260      4238      1066      1135      6570      5169      1737      1988      5049      1894
 -1      5175    6    0    1
 -2      1066      4238      1260      4250      5169      6570      1737      6035      6046      5045
 -1      5176    6    0    1
 -2      1260      4287      4238      1135      5178      5053      6570      1988      5051      5049
 -1      5177    6    0    1
 -2      4238      4287      1260      4250      5053      5178      6570      6046      5179      5045
 -1      5178    6    0    1
 -2       213      4266      3256      1120      6571      4627      3324      1532      4823      4821
 -1      5179    6    0    1
 -2      3256      4266       213      3236      4627      6571      3324      3327      5219      3325
 -1      5180    6    0    1
 -2       213      1149      4266      1120      1528      5442      6571      1532      1533      4823
 -1      5181    6    0    1
 -2      2078      4218       585      3831      4838      5656      6356      4839      4803      3842
 -1      5182    6    0    1
 -2       585      4218      2078      4290      5656      4838      6356      5657      5210      5402
 -1      5183    6    0    1
 -2      4267      3057      3059      3030      6572      3128      5398      6115      3223      3212
 -1      5184    6    0    1
 -2      3057      4267      3059      1204      6572      5398      3128      6518      5781      5780
 -1      5185    6    0    1
 -2      4234      3057      4267      3030      5291      6572      4495      5289      3223      6115
 -1      5186    6    0    1
 -2      3057      4234      4267      1204      5291      4495      6572      6518      5818      5781
 -1      5187    6    0    1
 -2      3251      1130      4307       574      6573      5287      5683      3275      6042      5862
 -1      5188    6    0    1
 -2         8      3251      1130      1175      3273      6573      1288      1284      5770      1287
 -1      5189    6    0    1
 -2      3251         8      1130       574      3273      1288      6573      3275       576      6042
 -1      5190    6    0    1
 -2      1214      1201      4262      1095      1635      5815      5716      1896      2016      5664
 -1      5191    6    0    1
 -2      1201      1214      4262      3822      1635      5716      5815      5814      5853      5604
 -1      5192    6    0    1
 -2      4228      4305      4272      4238      6574      6505      5922      4385      5747      6162
 -1      5193    6    0    1
 -2      4272      4305      4228        86      6505      6574      5922      6431      6032      4545
 -1      5194    6    0    1
 -2      4228      1187      4305      4238      4543      6031      6574      4385      4978      5747
 -1      5195    6    0    1
 -2      4305      1187      4228        86      6031      4543      6574      6032      4541      4545
 -1      5196    6    0    1
 -2      2172      4261      2206      2090      5411      5516      2859      2376      5635      2931
 -1      5197    6    0    1
 -2      2206      4261      2172      4246      5516      5411      2859      5514      5302      5408
 -1      5198    6    0    1
 -2       641       631      4246      1179       753      6129      6548      6175      6267      6121
 -1      5199    6    0    1
 -2       631       641      4246       594       753      6548      6129      1048      1050      6130
 -1      5200    6    0    1
 -2      4236       636       629      1160      6575       732      4950      4949      5806      4947
 -1      5201    6    0    1
 -2       636      4236       629       600      6575      4950       732       995      4933      1001
 -1      5202    6    0    1
 -2      4254       636      4236      1160      5641      6575      4871      5749      5806      4949
 -1      5203    6    0    1
 -2       636      4254      4236       600      5641      4871      6575       995      4934      4933
 -1      5204    6    0    1
 -2       676      4235       683       603      5054      4991       789       927      5115       925
 -1      5205    6    0    1
 -2       683      4235       676      1153      4991      5054       789      4993      4992      5497
 -1      5206    6    0    1
 -2       674       682      4235       603       897      4986      4996       923       920      5115
 -1      5207    6    0    1
 -2       682       674      4235      2146       897      4996      4986      4987      5500      4985
 -1      5208    6    0    1
 -2      3045      2112      4304      2182      5454      5164      6459      6476      2568      5874
 -1      5209    6    0    1
 -2      2112      3045      4304      4301      5454      6459      5164      4724      5455      4719
 -1      5210    6    0    1
 -2      4216      4300      2237      2111      4890      6296      6576      4621      4892      2883
 -1      5211    6    0    1
 -2      2237      4300      4216      4288      6296      4890      6576      6293      6295      4639
 -1      5212    6    0    1
 -2      2060      4216      2237      2111      4638      6576      2899      2916      4621      2883
 -1      5213    6    0    1
 -2      2237      4216      2060      4288      6576      4638      2899      6293      4639      4640
 -1      5214    6    0    1
 -2      3708      3712      3051      3710      3778      5908      6131      3756      3780      5909
 -1      5215    6    0    1
 -2      3712      3708      3051      3031      3778      6131      5908      5942      6049      3188
 -1      5216    6    0    1
 -2      4228      4279      2179      2180      5555      6406      5849      6264      5961      2828
 -1      5217    6    0    1
 -2      2179      4279      4228        87      6406      5555      5849      5846      6479      5848
 -1      5218    6    0    1
 -2      4249      2141      4218      4290      6270      5401      5940      6222      5403      5210
 -1      5219    6    0    1
 -2      4218      2141      4249      4297      5401      6270      5940      5667      6103      4772
 -1      5220    6    0    1
 -2       640      4246       630      2172      5407      4984       861      5409      5408      6306
 -1      5221    6    0    1
 -2       630      4246       640       594      4984      5407       861      1045      6130      1049
 -1      5222    6    0    1
 -2      3831      4248       584      3813      4804      4827      3980      3982      5964      3837
 -1      5223    6    0    1
 -2       584      4248      3831      4218      4827      4804      3980      4790      4805      4803
 -1      5224    6    0    1
 -2      2104      4297      2130      2063      4773      6104      2969      2970      6102      2966
 -1      5225    6    0    1
 -2      2130      4297      2104      4249      6104      4773      2969      5775      4772      4498
 -1      5226    6    0    1
 -2      4280      3237      1092      3259      6165      6001      5854      6041      3287      6004
 -1      5227    6    0    1
 -2      1092      3237      4280      4309      6001      6165      5854      5855      6558      5157
 -1      5228    6    0    1
 -2      4033      3457      4031      3440      6577      5836      4200      6238      3655      5835
 -1      5229    6    0    1
 -2      4031      3457      4033      4051      5836      6577      4200      4106      6116      4201
 -1      5230    6    0    1
 -2      4033      3441      3457      3440      6062      3654      6577      6238      3649      3655
 -1      5231    6    0    1
 -2      3457      3441      4033      4051      3654      6062      6577      6116      6281      4201
 -1      5232    6    0    1
 -2      4298      4229      4213      4289      5866      4706      5764      5743      4729      5762
 -1      5233    6    0    1
 -2      4213      4229      4298      4299      4706      5866      5764      4707      4708      6128
 -1      5234    6    0    1
 -2      1199      4235      1206      3816      5484      5578      1647      5710      4953      5844
 -1      5235    6    0    1
 -2      1206      4235      1199      1091      5578      5484      1647      2020      5082      2005
 -1      5236    6    0    1
 -2      3250      4221      3228      3269      6578      5970      3397      3332      6089      3398
 -1      5237    6    0    1
 -2      3228      4221      3250      4284      5970      6578      3397      5971      5830      5805
 -1      5238    6    0    1
 -2      3250      4229      4221      3269      5803      5829      6578      3332      5915      6089
 -1      5239    6    0    1
 -2      4221      4229      3250      4284      5829      5803      6578      5830      4918      5805
 -1      5240    6    0    1
 -2      2133      4296      3036      3044      6243      5381      5672      6258      6247      3161
 -1      5241    6    0    1
 -2      3036      4296      2133      3711      5381      6243      5672      5671      5757      5670
 -1      5242    6    0    1
 -2      3788      4248      3831      3813      4923      4804      3915      4001      5964      3982
 -1      5243    6    0    1
 -2      3831      4248      3788      4241      4804      4923      3915      4801      4508      4921
 -1      5244    6    0    1
 -2      2128      4274      2253      2051      5508      6098      2772      2773      5705      2769
 -1      5245    6    0    1
 -2      2253      4274      2128      4240      6098      5508      2772      6099      5509      5507
 -1      5246    6    0    1
 -2      4269      2111      4306      4300      4622      6355      5612      4891      4892      4351
 -1      5247    6    0    1
 -2      4218      4259      1070      1138      4897      6277      6579      4896      4843      1918
 -1      5248    6    0    1
 -2      1070      4259      4218      4293      6277      4897      6579      6278      4655      5666
 -1      5249    6    0    1
 -2      1148      4218      1070      1138      4789      6579      1917      1843      4896      1918
 -1      5250    6    0    1
 -2      4312      4219      1119      1262      6534      6143      6475      6484      6144      1723
 -1      5251    6    0    1
 -2      1119      4219      4312      4301      6143      6534      6475      6451      4725      6263
 -1      5252    6    0    1
 -2       654       637      4271      1157       706      5230      4895      6346      5394      5576
 -1      5253    6    0    1
 -2       637       654      4271       615       706      4895      5230       943       947      5229
 -1      5254    6    0    1
 -2      3052      3716      3031      3053      6342      6050      3189      3155      6288      3225
 -1      5255    6    0    1
 -2      3716      3052      3031      3712      6342      3189      6050      3740      5941      5942
 -1      5256    6    0    1
 -2       231      4035      3488      3484      6581      6580      3492      3504      6325      3505
 -1      5257    6    0    1
 -2      3473       231      4035       339      3502      6581      6422      6368      1537      4132
 -1      5258    6    0    1
 -2       231      3473      4035      3484      3502      6422      6581      3504      3503      6325
 -1      5259    6    0    1
 -2      3269      4232      3253       369      6582      5390      3331      3329      6173      3272
 -1      5260    6    0    1
 -2      3253      4232      3269      4221      5390      6582      3331      5389      5017      6089
 -1      5261    6    0    1
 -2      3269      4299      4232       369      5917      4709      6582      3329      6491      6173
 -1      5262    6    0    1
 -2      4286      3720      3233      3238      5614      5795      6583      5615      5531      3416
 -1      5263    6    0    1
 -2      3720      4286      3233      3718      5614      6583      5795      3775      5752      6336
 -1      5264    6    0    1
 -2      4286      3233      3244      3238      6583      3418      5597      5615      3416      3419
 -1      5265    6    0    1
 -2      3233      4286      3244      3718      6583      5597      3418      6336      5752      6007
 -1      5266    6    0    1
 -2      4051      4057      3432      4039      4103      5756      6584      4205      4187      5823
 -1      5267    6    0    1
 -2      3432      4057      4051      3454      5756      4103      6584      3652      6105      6282
 -1      5268    6    0    1
 -2      3441      4051      3432      4039      6281      6584      3650      6135      4205      5823
 -1      5269    6    0    1
 -2      3432      4051      3441      3454      6584      6281      3650      3652      6282      3653
 -1      5270    6    0    1
 -2      1147      4259      1239      1112      6564      5695      2003      2002      6428      1999
 -1      5271    6    0    1
 -2      1239      4259      1147      4224      5695      6564      2003      5444      4373      4335
 -1      5272    6    0    1
 -2      1159      4262      1201      1095      6585      5815      2012      1396      5664      2016
 -1      5273    6    0    1
 -2      1201      4262      1159      4244      5815      6585      2012      5813      5195      5078
 -1      5274    6    0    1
 -2      1159       671      4262      1095      5574      5223      6585      1396      5663      5664
 -1      5275    6    0    1
 -2      4262       671      1159      4244      5223      5574      6585      5195      5221      5078
 -1      5276    6    0    1
 -2      2194      4244      2204      2082      5832      5898      2533      2689      4571      2695
 -1      5277    6    0    1
 -2      2204      4244      2194      3830      5898      5832      2533      5899      5158      6150
 -1      5278    6    0    1
 -2       336       569      4055      4040      6586      5060      4119      4121      5636      4122
 -1      5279    6    0    1
 -2      4055       569       336      1114      5060      6586      4119      5059      5058      1670
 -1      5280    6    0    1
 -2       569      1219       336      1114      6160      1668      6586      5058      1282      1670
 -1      5281    6    0    1
 -2       416      3238      2229      2132      3359      5529      2622      2624      5528      2479
 -1      5282    6    0    1
 -2      2229      3238       416      3260      5529      3359      2622      5619      3361      3357
 -1      5283    6    0    1
 -2      2123      3252      4307       575      6587      5684      5285      6385      3281      6127
 -1      5284    6    0    1
 -2        15      3252      2123       575      3280      6587      2290       578      3281      6385
 -1      5285    6    0    1
 -2      3252        15      2123      2168      3280      2290      6587      6524      2286      2291
 -1      5286    6    0    1
 -2       119      2152       655       670      2390      5075       880       878      5192       882
 -1      5287    6    0    1
 -2      2152       119       655      2246      2390       880      5075      2397      2396      4648
 -1      5288    6    0    1
 -2        42      1159       656      1253      1392      5077       773      1398      1399      4650
 -1      5289    6    0    1
 -2      1159        42       656       671      1392       773      5077      5574       769       774
 -1      5290    6    0    1
 -2       100       624      2147       651       821      4382      2331       823       825      4702
 -1      5291    6    0    1
 -2      2147       624       100      2243      4382       821      2331      2332      4381      2327
 -1      5292    6    0    1
 -2      3458      4063      3437      3466      6588      5981      3677      3517      5980      3639
 -1      5293    6    0    1
 -2      4063      3458      3437      4062      6588      3677      5981      4083      6276      6088
 -1      5294    6    0    1
 -2      1228      4063      3458      3466      6466      6588      6425      6465      5980      3517
 -1      5295    6    0    1
 -2      4063      1228      3458      4062      6466      6425      6588      4083      6424      6276
 -1      5296    6    0    1
 -2       414      3709      3265      2136      6321      5692      3351      2477      5217      6528
 -1      5297    6    0    1
 -2      3709       414      3265      3239      6321      3351      5692      5693      3353      3355
 -1      5298    6    0    1
 -2       657       680      4282       622       906      5263      5887       977       979      5264
 -1      5299    6    0    1
 -2       680       657      4282      2151       906      5887      5263      5374      6201      5375
 -1      5300    6    0    1
 -2        37       665      1162       677       758      4633      1375       754       759      4981
 -1      5301    6    0    1
 -2       665        37      1162      1255       758      1375      4633      4632      1381      1382
 -1      5302    6    0    1
 -2      1191      1157      4292      1076      2009      5395      6589      1596      2010      4755
 -1      5303    6    0    1
 -2      1157      1191      4292      4271      2009      6589      5395      5576      6241      5081
 -1      5304    6    0    1
 -2      1191      4292      3820      1076      6589      4662      6239      1596      4755      4753
 -1      5305    6    0    1
 -2      4292      1191      3820      4271      6589      6239      4662      5081      6241      5079
 -1      5306    6    0    1
 -2      2197      3058      4267      2106      6493      5279      5817      2596      5768      5769
 -1      5307    6    0    1
 -2      2111      4269      2064      2226      4622      5091      2779      2780      5945      2781
 -1      5308    6    0    1
 -2      2064      4269      2111      4306      5091      4622      2779      5611      5612      6355
 -1      5309    6    0    1
 -2      4229      4289      2061      2254      4729      5564      6590      5310      5565      2816
 -1      5310    6    0    1
 -2      2061      4289      4229      4298      5564      4729      6590      5550      5743      5866
 -1      5311    6    0    1
 -2      2187      4229      2061      2254      5308      6590      2813      2735      5310      2816
 -1      5312    6    0    1
 -2      2061      4229      2187      4298      6590      5308      2813      5550      5866      5864
 -1      5313    6    0    1
 -2      4214      4248      4228      4238      4509      4388      5919      6019      4389      4385
 -1      5314    6    0    1
 -2      4228      4248      4214      4241      4388      4509      5919      4920      4508      4510
 -1      5315    6    0    1
 -2       590      4060      3450      3449      4078      5790      6591      6006      5949      3663
 -1      5316    6    0    1
 -2      4060       590      3450       589      4078      6591      5790      4184       592      6036
 -1      5317    6    0    1
 -2       590      3450      3442      3449      6591      3661      5724      6006      3663      3656
 -1      5318    6    0    1
 -2      3450       590      3442       589      6591      5724      3661      6036       592      5725
 -1      5319    6    0    1
 -2      3459      4061      3436      4037      6592      5794      3641      6274      4099      6126
 -1      5320    6    0    1
 -2      4061      3459      3436      3431      6592      3641      5794      5460      3643      3642
 -1      5321    6    0    1
 -2      4032      4061      3459      4037      4100      6592      5677      4095      4099      6274
 -1      5322    6    0    1
 -2      4061      4032      3459      3431      4100      5677      6592      5460      5679      3643
 -1      5323    6    0    1
 -2      4268      4233      2075      2205      6537      5957      6593      5707      4850      2891
 -1      5324    6    0    1
 -2      2075      4233      4268      4286      5957      6537      6593      6407      4477      4466
 -1      5325    6    0    1
 -2      2117      4268      2075      2205      5708      6593      2890      2716      5707      2891
 -1      5326    6    0    1
 -2      2130      2077      4281      2143      2745      5975      5617      2744      2743      5616
 -1      5327    6    0    1
 -2      4034      3469      3470      2219      6312      3577      6332      6488      6511      6489
 -1      5328    6    0    1
 -2      3470      3469      4034      3434      3577      6312      6332      3665      3664      6305
 -1      5329    6    0    1
 -2      1148      1137      4242      1084      1835      5064      4792      1306      1833      5586
 -1      5330    6    0    1
 -2      4233       579      3715       580      4904      3768      6594      4476       582      3726
 -1      5331    6    0    1
 -2      3715       579      4233      4296      3768      4904      6594      5380      5228      4751
 -1      5332    6    0    1
 -2      1248      4233      3715       580      4743      6594      5967      4742      4476      3726
 -1      5333    6    0    1
 -2      3715      4233      1248      4296      6594      4743      5967      5380      4751      5197
 -1      5334    6    0    1
 -2      2139      4241      2054      2227      5994      5783      2985      2918      6395      2952
 -1      5335    6    0    1
 -2      2054      4241      2139      4228      5783      5994      2985      5553      4920      5467
 -1      5336    6    0    1
 -2      1145      4295      1235      4230      6595      5327      1814      5591      5328      4670
 -1      5337    6    0    1
 -2      1235      4295      1145      1062      5327      6595      1814      1812      6303      1815
 -1      5338    6    0    1
 -2      1145      1185      4295      4230      1816      6226      6595      5591      6068      5328
 -1      5339    6    0    1
 -2      4295      1185      1145      1062      6226      1816      6595      6303      1809      1815
 -1      5340    6    0    1
 -2      2093      3707       481      3709      6596      3742      2471      4696      3746      3745
 -1      5341    6    0    1
 -2       481      3707      2093      2120      3742      6596      2471      2464      5538      2470
 -1      5342    6    0    1
 -2      2093      4255      3707      3709      4697      5440      6596      4696      4341      3746
 -1      5343    6    0    1
 -2      3707      4255      2093      2120      5440      4697      6596      5538      5539      2470
 -1      5344    6    0    1
 -2       574      3488      4035      3484      3494      6580      6597      3617      3505      6325
 -1      5345    6    0    1
 -2      4044       574      4035      3484      5842      6597      4174      5841      3617      6325
 -1      5346    6    0    1
 -2      4035       574      4044      4043      6597      5842      4174      4134      6043      4212
 -1      5347    6    0    1
 -2      3251      4243      1130      1175      5680      5286      6573      5770      5772      1287
 -1      5348    6    0    1
 -2      1130      4243      3251      4307      5286      5680      6573      5287      4504      5683
 -1      5349    6    0    1
 -2      3252      2123      4243      2168      6587      5284      5299      6524      2291      6223
 -1      5350    6    0    1
 -2      2123      3252      4243      4307      6587      5299      5284      5285      5684      4504
 -1      5351    6    0    1
 -2       570       544      2212      2107      6598      2675      6039      5008      2676      2285
 -1      5352    6    0    1
 -2      2212       544       570      4048      2675      6598      6039      6037      4159      4967
 -1      5353    6    0    1
 -2       544      4040       570      4048      4164      5561      6598      4159      4163      4967
 -1      5354    6    0    1
 -2      1164      4271      1205      1099      6599      5821      1929      1328      5351      2021
 -1      5355    6    0    1
 -2      1205      4271      1164      4227      5821      6599      1929      5819      4788      5433
 -1      5356    6    0    1
 -2      1164       659      4271      1099      5843      4893      6599      1328      5349      5351
 -1      5357    6    0    1
 -2      4271       659      1164      4227      4893      5843      6599      4788      5443      5433
 -1      5358    6    0    1
 -2      3447      4033      3463      4047      6600      6000      3702      6212      4146      6018
 -1      5359    6    0    1
 -2      3463      4033      3447      3440      6000      6600      3702      3671      6238      3703
 -1      5360    6    0    1
 -2      3447      4031      4033      4047      6192      4200      6600      6212      4199      4146
 -1      5361    6    0    1
 -2      4033      4031      3447      3440      4200      6192      6600      6238      5835      3703
 -1      5362    6    0    1
 -2      2151      4283      2185      4282      5376      5610      3012      5375      5266      5607
 -1      5363    6    0    1
 -2      2185      4283      2151      2091      5610      5376      3012      3026      5896      2420
 -1      5364    6    0    1
 -2       339      4049      3473      1225      4130      6410      6368      1538      6409      6367
 -1      5365    6    0    1
 -2      4049       339      3473      4035      4130      6368      6410      4133      4132      6422
 -1      5366    6    0    1
 -2      4299      4213      4230      4237      4707      4427      5930      5932      5348      4402
 -1      5367    6    0    1
 -2      4213      4299      4230      4295      4707      5930      4427      5513      6416      5328
 -1      5368    6    0    1
 -2       544      4053       570      4040      4161      5009      6598      4164      4165      5561
 -1      5369    6    0    1
 -2       570      4053       544      2107      5009      4161      6598      5008      5010      2676
 -1      5370    6    0    1
 -2      1225      3482      4065      4049      6411      6197      6601      6409      6195      4137
 -1      5371    6    0    1
 -2      4065      3482      1225      1227      6197      6411      6601      6145      6331      1543
 -1      5372    6    0    1
 -2       340      1225      4065      4049      1677      6601      4136      4131      6409      4137
 -1      5373    6    0    1
 -2      4065      1225       340      1227      6601      1677      4136      6145      1543      1678
 -1      5374    6    0    1
 -2      2127      4281      2228      2143      6602      6473      2749      2747      5616      2748
 -1      5375    6    0    1
 -2      2228      4281      2127      4237      6473      6602      2749      6027      4405      6016
 -1      5376    6    0    1
 -2      2127      4289      4281      2143      5563      5618      6602      2747      5324      5616
 -1      5377    6    0    1
 -2      4281      4289      2127      4237      5618      5563      6602      4405      5763      6016
 -1      5378    6    0    1
 -2      4223       675      2248      2155      4861      6464      4975      4860      4862      2380
 -1      5379    6    0    1
 -2      2248       675      4223       664      6464      4861      4975      5088       867      5039
 -1      5380    6    0    1
 -2      4245       668       678       613      5413       831      4558      4560      1036      1040
 -1      5381    6    0    1
 -2       678       668      4245      2176       831      5413      4558      4885      6382      4886
 -1      5382    6    0    1
 -2       243      3465       331      3457      3540      6093      1569      3536      3541      6092
 -1      5383    6    0    1
 -2      3465       243       331      1229      3540      1569      6093      6251      1567      1570
 -1      5384    6    0    1
 -2       213      4266      3258      3236      6571      5800      3322      3325      5219      3326
 -1      5385    6    0    1
 -2      3258      4266       213      1149      5800      6571      3322      6499      5442      1528
 -1      5386    6    0    1
 -2        91      4299      4230        92      6525      5930      6260        94      5931      5929
 -1      5387    6    0    1
 -2      4230      4299        91      4295      5930      6525      6260      5328      6416      6497
 -1      5388    6    0    1
 -2      4263       655       638      2164      6603       885      5359      6058      4647      6057
 -1      5389    6    0    1
 -2       638       655      4263       604       885      6603      5359       966      1014      6427
 -1      5390    6    0    1
 -2      4263      4244       655      2164      5162      4649      6603      6058      4573      4647
 -1      5391    6    0    1
 -2       655      4244      4263       604      4649      5162      6603      1014      6187      6427
 -1      5392    6    0    1
 -2      4263       639       656      1171      5357       777      6604      6060      6059      4651
 -1      5393    6    0    1
 -2       656       639      4263       604       777      5357      6604      1018       968      6427
 -1      5394    6    0    1
 -2      4244      4263       656      1171      5162      6604      4652      4576      6060      4651
 -1      5395    6    0    1
 -2       656      4263      4244       604      6604      5162      4652      1018      6427      6187
 -1      5396    6    0    1
 -2        91      1117       166      1166      6496      1271      2048      6521      1436      1434
 -1      5397    6    0    1
 -2      1117        91       166       369      6496      2048      1271      6172      2046      2044
 -1      5398    6    0    1
 -2      2140      2050      4269      2226      2757      5276      4414      2761      2760      5945
 -1      5399    6    0    1
 -2      4269      2050      2140      4311      5276      2757      4414      4415      5277      4330
 -1      5400    6    0    1
 -2      2213      4054      3438      3479      6486      6178      6605      6485      6176      3666
 -1      5401    6    0    1
 -2      3438      4054      2213      4041      6178      6486      6605      5850      4156      6495
 -1      5402    6    0    1
 -2      3469      2213      3438      3479      6506      6605      3667      3574      6485      3666
 -1      5403    6    0    1
 -2      3438      2213      3469      4041      6605      6506      3667      5850      6495      6313
 -1      5404    6    0    1
 -2      1191      1205      4271      1099      1599      5821      6241      2011      2021      5351
 -1      5405    6    0    1
 -2      1205      1191      4271      3827      1599      6241      5821      5820      6240      5503
 -1      5406    6    0    1
 -2      3068      1119      4219      1190      6450      6143      5720      5831      1447      5468
 -1      5407    6    0    1
 -2      4219      1119      3068      4301      6143      6450      5720      4725      6451      5824
 -1      5408    6    0    1
 -2      4254       673       649      1181      6606       738      5640      5237      5336      6083
 -1      5409    6    0    1
 -2       649       673      4254       607       738      6606      5640       931       928      6011
 -1      5410    6    0    1
 -2      4254      4252       673      1181      4758      5339      6606      5237      5234      5336
 -1      5411    6    0    1
 -2       673      4252      4254       607      5339      4758      6606       928      5419      6011
 -1      5412    6    0    1
 -2      4254       672       648       607      6607       846      5644      6011       915       918
 -1      5413    6    0    1
 -2       648       672      4254      2174       846      6607      5644      6084      5294      5214
 -1      5414    6    0    1
 -2      4254      4252       672       607      4758      5296      6607      6011      5419       915
 -1      5415    6    0    1
 -2       672      4252      4254      2174      5296      4758      6607      5294      5213      5214
 -1      5416    6    0    1
 -2      3439      3474      4041      3438      3683      5852      6608      3682      3681      5850
 -1      5417    6    0    1
 -2      4041      3474      3439      4056      5852      3683      6608      4117      6343      6248
 -1      5418    6    0    1
 -2      4054      3439      4041      3438      6177      6608      4156      6178      3682      5850
 -1      5419    6    0    1
 -2      4041      3439      4054      4056      6608      6177      4156      4117      6248      4209
 -1      5420    6    0    1
 -2      4036      3448       439      3485      5890      3579      6609      5891      3581      3499
 -1      5421    6    0    1
 -2      3448      4036       439      2218      5890      6609      3579      6403      6272      2642
 -1      5422    6    0    1
 -2      4036       439       547      3485      6609      2643      4173      5891      3499      6166
 -1      5423    6    0    1
 -2       439      4036       547      2218      6609      4173      2643      2642      6272      2644
 -1      5424    6    0    1
 -2      4262       647       627      1180      5665       768      5737      5738      6358      5734
 -1      5425    6    0    1
 -2       647      4262       627       617      5665      5737       768       953      5475       951
 -1      5426    6    0    1
 -2      4295      1166      1184      1080      6610      1800      6225      5826      1947      1946
 -1      5427    6    0    1
 -2      1166      4295      1184        91      6610      6225      1800      6521      6497      6520
 -1      5428    6    0    1
 -2      1117      1166      4295      1080      1436      6610      5533      1944      1947      5826
 -1      5429    6    0    1
 -2      1166      1117      4295        91      1436      5533      6610      6521      6496      6497
 -1      5430    6    0    1
 -2      4056      3483      4045      3446      6611      6316      4192      6181      3694      6244
 -1      5431    6    0    1
 -2      3483      4056      4045      4054      6611      4192      6316      6469      4209      4151
 -1      5432    6    0    1
 -2      3439      3483      4056      3446      3693      6611      6248      3691      3694      6181
 -1      5433    6    0    1
 -2      3483      3439      4056      4054      3693      6248      6611      6469      6177      4209
 -1      5434    6    0    1
 -2      3476      4059      3444      4042      6612      6339      3672      6375      4181      6338
 -1      5435    6    0    1
 -2      3444      4059      3476      3456      6339      6612      3672      3673      6078      3590
 -1      5436    6    0    1
 -2      4059       442      3476      3456      6318      3586      6612      6078      3588      3590
 -1      5437    6    0    1
 -2      3042      4302       382      2234      5482      6324      3145      5479      5483      2574
 -1      5438    6    0    1
 -2       382      4302      3042      3037      6324      5482      3145      3150      5650      3151
 -1      5439    6    0    1
 -2      3718      3713      3239      3719      3765      5869      6613      3782      3771      6335
 -1      5440    6    0    1
 -2      3239      3713      3718      3243      5869      3765      6613      3423      6202      6185
 -1      5441    6    0    1
 -2      3233      3718      3239      3719      6336      6613      3424      6091      3782      6335
 -1      5442    6    0    1
 -2      3239      3718      3233      3243      6613      6336      3424      3423      6185      3425
 -1      5443    6    0    1
 -2      4256      2193      2210      3796      5439      2501      5100      5030      6079      5099
 -1      5444    6    0    1
 -2      2210      2193      4256      2087      2501      5439      5100      2935      2933      5306
 -1      5445    6    0    1
 -2       206      3713      3263      3243      6482      6203      3299      3303      6202      3304
 -1      5446    6    0    1
 -2      3713       206      3263      1143      6482      3299      6203      6483      1507      6490
 -1      5447    6    0    1
 -2      1138      1239      4259      1112      1998      5695      4843      1919      1999      6428
 -1      5448    6    0    1
 -2      4259      1239      1138      4287      5695      1998      4843      4845      5588      4844
 -1      5449    6    0    1
 -2      3476      4038      3481      4042      6447      6106      3587      6375      4198      6064
 -1      5450    6    0    1
 -2      3481      4038      3476      3445      6106      6447      3587      3620      6439      3621
 -1      5451    6    0    1
 -2      4223      2196      2202      3810      5224      2524      5651      4853      5225      5751
 -1      5452    6    0    1
 -2      2196      4223      2202      2080      5224      5651      2524      2696      4976      2702
 -1      5453    6    0    1
 -2      4261      2196      2206      2090      5226      2521      5516      5635      2932      2931
 -1      5454    6    0    1
 -2      2206      2196      4261      3783      2521      5226      5516      5515      5882      5303
 -1      5455    6    0    1
 -2      4280      3248      3259      1161      5117      3293      6041      4800      5360      6040
 -1      5456    6    0    1
 -2      3248      4280      3259      3231      5117      6041      3293      3388      6291      3391
 -1      5457    6    0    1
 -2      4059      2223      2221      3464      6614      2657      6320      6013      6463      6330
 -1      5458    6    0    1
 -2      2223      4059      2221       550      6614      6320      2657      2687      4093      2686
 -1      5459    6    0    1
 -2      4037      2223      4059      3464      6380      6614      4092      6012      6463      6013
 -1      5460    6    0    1
 -2      2223      4037      4059       550      6380      4092      6614      2687      4091      4093
 -1      5461    6    0    1
 -2      3467      4050      3434      3468      6615      6123      3686      3556      6124      3685
 -1      5462    6    0    1
 -2      3434      4050      3467      4041      6123      6615      3686      6314      4115      5851
 -1      5463    6    0    1
 -2      3467      1226      4050      3468      6509      6516      6615      3556      6514      6124
 -1      5464    6    0    1
 -2      4050      1226      3467      4041      6516      6509      6615      4115      6515      5851
 -1      5465    6    0    1
 -2      4226       642      2249      2161      6569      6362      4314      4313      5838      2363
 -1      5466    6    0    1
 -2       642      4226      2249       644      6569      4314      6362       852      5034      5033
 -1      5467    6    0    1
 -2      3242      2126      3235       412      6616      6453      3349      3345      2618      3348
 -1      5468    6    0    1
 -2      3235      2126      3242      4277      6453      6616      3349      4688      5875      5944
 -1      5469    6    0    1
 -2      3242      2233      2126       412      6519      2617      6616      3345      2616      2618
 -1      5470    6    0    1
 -2      2126      2233      3242      4277      2617      6519      6616      5875      6300      5944
 -1      5471    6    0    1
 -2       420      2142      3266      2258      2635      5202      3369      2631      2636      6417
 -1      5472    6    0    1
 -2      2142       420      3266      3247      2635      3369      5202      4779      3371      3373
 -1      5473    6    0    1
 -2      2077      4249      2141      2130      6617      6270      2304      2745      5775      2754
 -1      5474    6    0    1
 -2      2141      4249      2077      4290      6270      6617      2304      5403      6222      5978
 -1      5475    6    0    1
 -2      2077      4281      4249      2130      5975      5774      6617      2745      5617      5775
 -1      5476    6    0    1
 -2      4249      4281      2077      4290      5774      5975      6617      6222      5977      5978
 -1      5477    6    0    1
 -2      4062      3478      4038      4065      6148      6224      4196      4138      6147      4195
 -1      5478    6    0    1
 -2      4038      3478      4062      3444      6224      6148      4196      6442      3690      6340
 -1      5479    6    0    1
 -2      4227      1205      1200      1090      5819      1603      6618      5434      1930      1927
 -1      5480    6    0    1
 -2      1200      1205      4227      3829      1603      5819      6618      6383      6317      5521
 -1      5481    6    0    1
 -2      4256      4227      1200      1090      4550      6618      6024      6080      5434      1927
 -1      5482    6    0    1
 -2      1200      4227      4256      3829      6618      4550      6024      6383      5521      5522
 -1      5483    6    0    1
 -2      3033       180      1123      3039      3119      1471      6619      3121      3115      5495
 -1      5484    6    0    1
 -2       180      3033      1123      1264      3119      6619      1471      1475      5471      1476
 -1      5485    6    0    1
 -2      3033      1123      4265      3039      6619      4776      4829      3121      5495      5542
 -1      5486    6    0    1
 -2      1123      3033      4265      1264      6619      4829      4776      1476      5471      5557
 -1      5487    6    0    1
 -2      4041      1220      1226      3467      6028      1582      6515      5851      6030      6509
 -1      5488    6    0    1
 -2      1226      1220      4041       334      1582      6028      6515      1667      1666      4116
 -1      5489    6    0    1
 -2      4236      2203      2195      3806      5027      2507      5315      4973      5025      5314
 -1      5490    6    0    1
 -2      2203      4236      2195      2081      5027      5315      2507      2854      5114      2852
 -1      5491    6    0    1
 -2      2231      2253      4274      2051      2766      6098      5993      2768      2769      5705
 -1      5492    6    0    1
 -2      4274      2253      2231      4310      6098      2766      5993      4695      6100      5983
 -1      5493    6    0    1
 -2      3473      4038      3482      4049      6423      6196      3508      6410      4202      6195
 -1      5494    6    0    1
 -2      4038      3473      3482      3445      6423      3508      6196      6439      3624      3623
 -1      5495    6    0    1
 -2      1140      3708       270      3715      6620      3752      1680      5377      3753      3722
 -1      5496    6    0    1
 -2      3708      1140       270      1237      6620      1680      3752      6471      1467      1679
 -1      5497    6    0    1
 -2      3036      3708      1140      3715      6022      6620      5378      5379      3753      5377
 -1      5498    6    0    1
 -2      3708      3036      1140      1237      6022      5378      6620      6471      6283      1467
 -1      5499    6    0    1
 -2      1232       332      4031      4046      1665      4105      6621      6397      4107      4109
 -1      5500    6    0    1
 -2      4031       332      1232      1229      4105      1665      6621      6250      1664      1573
 -1      5501    6    0    1
 -2      3471      1232      4031      4046      6398      6621      6096      6097      6397      4109
 -1      5502    6    0    1
 -2      4031      1232      3471      1229      6621      6398      6096      6250      1573      6326
 -1      5503    6    0    1
 -2      4036      3481      3445      4038      6063      3620      6622      4204      6106      6439
 -1      5504    6    0    1
 -2      3445      3481      4036      3448      3620      6063      6622      3622      3584      5890
 -1      5505    6    0    1
 -2      4041      2213      2219       542      6495      2447      6623      4155      2673      2674
 -1      5506    6    0    1
 -2      2213      4041      2219      3469      6495      6623      2447      6506      6313      6511
 -1      5507    6    0    1
 -2      4041      2219      4034       542      6623      6488      4157      4155      2674      4154
 -1      5508    6    0    1
 -2      2219      4041      4034      3469      6623      4157      6488      6511      6313      6312
 -1      5509    6    0    1
 -2      4036      4038      3473      4035      4204      6423      6624      4176      4203      6422
 -1      5510    6    0    1
 -2      4038      4036      3473      3445      4204      6624      6423      6439      6622      3624
 -1      5511    6    0    1
 -2      4036      3473      3448      4035      6624      3678      5890      4176      6422      5893
 -1      5512    6    0    1
 -2      3473      4036      3448      3445      6624      5890      3678      3624      6622      3622
 -1      5513    6    0    1
 -2      3795        17      4290       585      3841      6357      5976      3843       588      5657
 -1      5514    6    0    1
 -2        17      3795      4290      2077      3841      5976      6357      2303      5974      5978
 -1      5515    6    0    1
 -2      4235      2199      2192      2084      5199      2542      5767      5085      3024      2980
 -1      5516    6    0    1
 -2      2199      4235      2192      3821      5199      5767      2542      5200      4952      5766
 -1      5517    6    0    1
 -2      3052       382      4302      2137      3149      6324      6081      6433      2576      6323
 -1      5518    6    0    1
 -2       382      3052      4302      3037      3149      6081      6324      3150      3152      5650
 -1      5519    6    0    1
 -2      1222      4051       330      4057      6625      4101      1315      6392      4103      4069
 -1      5520    6    0    1
 -2      4051      1222       330      1224      6625      1315      4101      6269      1565      1663
 -1      5521    6    0    1
 -2      3454      4051      1222      4057      6282      6625      6391      6105      4103      6392
 -1      5522    6    0    1
 -2      4051      3454      1222      1224      6282      6391      6625      6269      6347      1565
 -1      5523    6    0    1
 -2       333      4046      3480      4056      4108      6184      6460      4111      4112      6182
 -1      5524    6    0    1
 -2      3480      4046       333      1232      6184      4108      6460      6396      6397      1579
 -1      5525    6    0    1
 -2      4277      3263      1240      1143      6554      6461      4959      4676      6490      1509
 -1      5526    6    0    1
 -2      1240      3263      4277      3241      6461      6554      4959      5456      3301      5457
 -1      5527    6    0    1
 -2      4057       589       240      3462      4071      6390      6626      5755      5754      3531
 -1      5528    6    0    1
 -2       589      4057       240        11      4071      6626      6390       591      4070      1310
 -1      5529    6    0    1
 -2      4057       240      1222      3462      6626      1309      6392      5755      3531      6393
 -1      5530    6    0    1
 -2       240      4057      1222        11      6626      6392      1309      1310      4070      1311
 -1      5531    6    0    1
 -2       249      4050      1219       335      6457      6159      1278      1584      4113      1585
 -1      5532    6    0    1
 -2      1219      4050       249      3487      6159      6457      1278      6161      5991      3490
 -1      5533    6    0    1
 -2      2137       479      3052       383      2457      6341      6433      2461      2459      3148
 -1      5534    6    0    1
 -2       479      2137      3052      3712      2457      6433      6341      3738      6434      5941
 -1      5535    6    0    1
 -2      3048      4257       169      1128      4597      6478      3082      5741      5740      1438
 -1      5536    6    0    1
 -2       169      4257      3048      3056      6478      4597      3082      3071      6193      3084
 -1      5537    6    0    1
 -2      2107        14      3054      2197      2284      3079      6627      2283      2282      6492
 -1      5538    6    0    1
 -2        14      2107      3054       570      2284      6627      3079       573      5008      3081
 -1      5539    6    0    1
 -2      2107      3054      4234      2197      6627      5292      5011      2283      6492      5816
 -1      5540    6    0    1
 -2      3054      2107      4234       570      6627      5011      5292      3081      5008      5013
 -1      5541    6    0    1
 -2      1114         7      3057       569      1281      3074      6628      5058       571      3075
 -1      5542    6    0    1
 -2      3057         7      1114      1204      3074      1281      6628      6518      1277      1280
 -1      5543    6    0    1
 -2      4234      1114      3057       569      5062      6628      5291      5061      5058      3075
 -1      5544    6    0    1
 -2      3057      1114      4234      1204      6628      5062      5291      6518      1280      5818
 -1      5545    6    0    1
 -2       249      4050      1226      3468      6457      6516      1583      3554      6124      6514
 -1      5546    6    0    1
 -2      4050       249      1226       335      6457      1583      6516      4113      1584      1586
 -1      5547    6    0    1
 -2      4283      2199      2185      3793      5201      2546      5610      5140      5598      5812
 -1      5548    6    0    1
 -2      2199      4283      2185      2091      5201      5610      2546      3027      5896      3026
 -1      5549    6    0    1
 -2      4271      2184      2198      3785      5416      2494      5512      5504      5788      5511
 -1      5550    6    0    1
 -2      2198      2184      4271      2092      2494      5416      5512      2802      2800      6354
 -1      5551    6    0    1
 -2       454      4054      2225       541      6481      6474      2439      2442      4148      2444
 -1      5552    6    0    1
 -2      2225      4054       454      3483      6474      6481      2439      6374      6469      3567
 -1      5553    6    0    1
 -2      2230       479      3053      3716      2453      6426      6287      6286      3733      6288
 -1      5554    6    0    1
 -2       479      2230      3053       384      2453      6287      6426      2460      2462      3153
 -1      5555    6    0    1
 -2      2134      4279        12       362      6629      6527      2271      6369      5000       365
 -1      5556    6    0    1
 -2        12      4279      2134      2109      6527      6629      2271      2270      4857      2273
 -1      5557    6    0    1
 -2      2134      2186      4279       362      2914      4859      6629      6369      4999      5000
 -1      5558    6    0    1
 -2      4279      2186      2134      2109      4859      2914      6629      4857      2913      2273
 -1      5559    6    0    1
 -2      3452      4058       343      4061      5721      4084      5966      5459      4088      4086
 -1      5560    6    0    1
 -2       343      4058      3452      1221      4084      5721      5966      1556      6455      6456
 -1      5561    6    0    1
 -2      3252       422      2113      3254      3279      2637      6630      3377      3375      5040
 -1      5562    6    0    1
 -2       422      3252      2113      2168      3279      6630      2637      2287      6524      2640
 -1      5563    6    0    1
 -2      3252      2113      4243      3254      6630      5041      5299      3377      5040      4878
 -1      5564    6    0    1
 -2      2113      3252      4243      2168      6630      5299      5041      2640      6524      6223
 -1      5565    6    0    1
 -2      4253       684       685       620      5953       964      5952      5517       922       926
 -1      5566    6    0    1
 -2       685       684      4253       621       964      5953      5952       971       973      6550
 -1      5567    6    0    1
 -2      4283      1206      1192      1098      5845      1651      6631      5861      1727      1726
 -1      5568    6    0    1
 -2      1192      1206      4283      3812      1651      5845      6631      6255      6235      5802
 -1      5569    6    0    1
 -2      1192      4283      4282      3812      6631      5266      6256      6255      5802      5801
 -1      5570    6    0    1
 -2      2141      4297      4274      2131      6103      5355      6632      2972      6141      6140
 -1      5571    6    0    1
 -2      4274      4297      2141      4218      5355      6103      6632      4905      5667      5401
 -1      5572    6    0    1
 -2      2078      2141      4274      2131      2306      6632      6536      2973      2972      6140
 -1      5573    6    0    1
 -2      4274      2141      2078      4218      6632      2306      6536      4905      5401      4838
 -1      5574    6    0    1
 -2      4306      4258      4312      4225      5057      5335      6633      5364      5332      4517
 -1      5575    6    0    1
 -2      4312      4258      4306      4219      5335      5057      6633      6534      5056      4350
 -1      5576    6    0    1
 -2      2053      4306      4312      4225      4552      6633      4516      4515      5364      4517
 -1      5577    6    0    1
 -2      2053      2211      4219      2255      2964      4603      6634      3016      3001      4348
 -1      5578    6    0    1
 -2      4219      2211      2053      4312      4603      2964      6634      6534      4580      4516
 -1      5579    6    0    1
 -2      4306      2053      4219      2255      4552      6634      4350      4349      3016      4348
 -1      5580    6    0    1
 -2      4219      2053      4306      4312      6634      4552      4350      6534      4516      6633
 -1      5581    6    0    1
 -2       618      4271       659       619      6635      4893       961       957      4894       960
 -1      5582    6    0    1
 -2       659      4271       618      4227      4893      6635       961      5443      4788      5198
 -1      5583    6    0    1
 -2       618       658      4271       619       958      4787      6635       957       959      4894
 -1      5584    6    0    1
 -2      4271       658       618      4227      4787       958      6635      4788      4784      5198
 -1      5585    6    0    1
 -2      4230      1110      1184       689      4436      1430      6636      4435      4437      6522
 -1      5586    6    0    1
 -2      1184      1110      4230      1185      1430      4436      6636      1945      1934      6068
 -1      5587    6    0    1
 -2      1184      4230      4295      1185      6636      5328      6225      1945      6068      6226
 -1      5588    6    0    1
 -2      4304      1243      4231      1079      6637      5880      4940      4718      1982      4939
 -1      5589    6    0    1
 -2      1243      4304      4231      4247      6637      4940      5880      6221      5373      5370
 -1      5590    6    0    1
 -2      1132      1243      4304      1079      1891      6637      4977      1974      1982      4718
 -1      5591    6    0    1
 -2      1243      1132      4304      4247      1891      4977      6637      6221      5464      5373
 -1      5592    6    0    1
 -2      3269      4232      4229      4221      6582      4705      5915      6089      5017      5829
 -1      5593    6    0    1
 -2      4229      4232      3269      4299      4705      6582      5915      4708      4709      5917
 -1      5594    6    0    1
 -2      4232      1134      1261      1068      6638      1985      5138      4849      1983      1987
 -1      5595    6    0    1
 -2      1134      4232      1261      4276      6638      5138      1985      6094      5139      5133
 -1      5596    6    0    1
 -2      4295      1134      4232      1068      5426      6638      5534      5424      1983      4849
 -1      5597    6    0    1
 -2      1134      4295      4232      4276      5426      5534      6638      6094      5329      5139
 -1      5598    6    0    1
 -2      4267      3058      3054      3030      5279      3177      6639      6115      3211      3222
 -1      5599    6    0    1
 -2      3054      3058      4267      2197      3177      5279      6639      6492      6493      5817
 -1      5600    6    0    1
 -2      4234      4267      3054      3030      4495      6639      5292      5289      6115      3222
 -1      5601    6    0    1
 -2      3054      4267      4234      2197      6639      4495      5292      6492      5817      5816
 -1      5602    6    0    1
 -2      4035       574      1231      3488      6597      6117      6640      6580      3494      6510
 -1      5603    6    0    1
 -2      1231       574      4035      4043      6117      6597      6640      6118      6043      4134
 -1      5604    6    0    1
 -2      1231      4035       339      4043      6640      4132      1539      6118      4134      4128
 -1      5605    6    0    1
 -2      1060      1218      4231      1136      1995      6047      6641      1991      1992      4441
 -1      5606    6    0    1
 -2      1218      1060      4231      4312      1995      6641      6047      6262      5787      4518
 -1      5607    6    0    1
 -2      1060      4231      4225      1136      6641      4442      5786      1991      4441      4443
 -1      5608    6    0    1
 -2      4231      1060      4225      4312      6641      5786      4442      4518      5787      4517
 -1      5609    6    0    1
 -2      4035       231      1231       339      6581      1285      6640      4132      1537      1539
 -1      5610    6    0    1
 -2      1231       231      4035      3488      1285      6581      6640      6510      3492      6580
 -1      5611    6    0    1
 -2      4237      2138      2178      2055      4401      2945      6642      5883      2946      2845
 -1      5612    6    0    1
 -2      2178      2138      4237      4308      2945      4401      6642      6379      5536      5537
 -1      5613    6    0    1
 -2      2073      4237      2178      2055      5341      6642      2842      2846      5883      2845
 -1      5614    6    0    1
 -2      2178      4237      2073      4308      6642      5341      2842      6379      5537      5870
 -1      5615    6    0    1
 -2        87      2179      2160         3      5846      2263      6643        90      2260      2261
 -1      5616    6    0    1
 -2      2179        87      2160      4279      5846      6643      2263      6406      6479      6432
 -1      5617    6    0    1
 -2        87      2160       366         3      6643      2262      2036        90      2261       367
 -1      5618    6    0    1
 -2      2160        87       366      4279      6643      2036      2262      6432      6479      6526
 -1      5619    6    0    1
 -2       361      1116       163         5      6644      1266      2037       363      1267       165
 -1      5620    6    0    1
 -2       163      1116       361      4305      1266      6644      2037      6507      6435      6513
 -1      5621    6    0    1
 -2      1116      4250       361      4305      6034      6413      6644      6435      6198      6513
 -1      5622    6    0    1
 -2      4228      1109       691      1187      6645      4319      4544      4543      1959      4542
 -1      5623    6    0    1
 -2       691      1109      4228      4292      4319      6645      4544      4322      4323      4663
 -1      5624    6    0    1
 -2      4228      1076      1109      1187      4754      1961      6645      4543      1960      1959
 -1      5625    6    0    1
 -2      1109      1076      4228      4292      1961      4754      6645      4323      4755      4663
 -1      5626    6    0    1
 -2      4285      4288      4216      4300      6646      4639      5043      6279      6295      4890
 -1      5627    6    0    1
 -2      4216      4288      4285      4257      4639      6646      5043      4727      5068      4601
 -1      5628    6    0    1
 -2      4285      4219      4288      4300      4599      5729      6646      6279      4347      6295
 -1      5629    6    0    1
 -2      4288      4219      4285      4257      5729      4599      6646      5068      4596      4601
 -1      5630    6    0    1
 -2      4219      3029      3047      3048      6647      3227      5587      4598      3226      3201
 -1      5631    6    0    1
 -2      3047      3029      4219      4288      3227      6647      5587      5727      5067      5729
 -1      5632    6    0    1
 -2      4219      4257      3029      3048      4596      4679      6647      4598      4597      3226
 -1      5633    6    0    1
 -2      3029      4257      4219      4288      4679      4596      6647      5067      5068      5729
 -1      5634    6    0    1
 -2       666       125      2242       674       898      2412      6648       900       896      5499
 -1      5635    6    0    1
 -2       125       666      2242      2156       898      6648      2412      2416      5092      2417
 -1      5636    6    0    1
 -2       666      2242      4235       674      6648      5086      4998       900      5499      4996
 -1      5637    6    0    1
 -2      2242       666      4235      2156      6648      4998      5086      2417      5092      5087
 -1      5638    6    0    1
 -2      4310      2060      4222      4220      5984      6649      4480      4479      4637      4422
 -1      5639    6    0    1
 -2      4222      4216      2060      2140      4328      4638      6649      4327      4329      2876
 -1      5640    6    0    1
 -2      2060      4216      4222      4220      4638      4328      6649      4637      4602      4422
 -1      5641    6    0    1
 -2      1060      1178      4309      4225      1791      5697      6650      5786      5333      5156
 -1      5642    6    0    1
 -2      1178      1060      4309      1195      1791      6650      5697      1789      1792      5758
 -1      5643    6    0    1
 -2      1060      4309      1196      4225      6650      5155      1990      5786      5156      4526
 -1      5644    6    0    1
 -2      4309      1060      1196      1195      6650      1990      5155      5758      1792      2029
 -1      5645    6    0    1
 -2      3067      4250      3056      4257      6651      6171      3131      4680      5171      6193
 -1      5646    6    0    1
 -2      3056      4250      3067       361      6171      6651      3131      3072      6413      3130
 -1      5647    6    0    1
 -2      3067      4220      4250      4257      4678      4699      6651      4680      4681      5171
 -1      5648    6    0    1
 -2      3787      4282      2138      2070      5307      6556      6652      6327      6310      2552
 -1      5649    6    0    1
 -2      2138      4282      3787      3803      6556      5307      6652      6503      4808      3978
 -1      5650    6    0    1
 -2       512      3787      2138      2070      3973      6652      2549      2551      6327      2552
 -1      5651    6    0    1
 -2      2138      3787       512      3803      6652      3973      2549      6503      3978      3977
 -1      5652    6    0    1
 -2      4286      1212      1124      1082      6561      1758      4465      4828      1950      1949
 -1      5653    6    0    1
 -2      1124      1212      4286      4268      1758      6561      4465      4464      5709      4466
 -1      5654    6    0    1
 -2       658      2092        98      2157      6653      2324       817      4785      2326      2323
 -1      5655    6    0    1
 -2        98      2092       658       653      2324      6653       817       815      6353       819
 -1      5656    6    0    1
 -2       658      4271      2092      2157      4787      6354      6653      4785      4786      2326
 -1      5657    6    0    1
 -2      2092      4271       658       653      6354      4787      6653      6353      5024       819
 -1      5658    6    0    1
 -2      4260      1126      4221      4232      6565      4569      5452      5137      5016      5017
 -1      5659    6    0    1
 -2      4221      1126      4260      4278      4569      6565      5452      4412      4570      5907
 -1      5660    6    0    1
 -2      4312      4285      1262      1178      6654      6546      6484      5334      6547      1744
 -1      5661    6    0    1
 -2      4285      4312      1262      4219      6654      6484      6546      4599      6534      6144
 -1      5662    6    0    1
 -2      4258      4285      4312      1178      5392      6654      5335      5331      6547      5334
 -1      5663    6    0    1
 -2      4285      4258      4312      4219      5392      5335      6654      4599      5056      6534
 -1      5664    6    0    1
 -2       457      4048      3470       543      6655      6568      3576      2449      4158      6487
 -1      5665    6    0    1
 -2      3470      4048       457      3486      6568      6655      3576      3578      4966      3495
 -1      5666    6    0    1
 -2       457      2212      4048       543      2280      6037      6655      2449      2450      4158
 -1      5667    6    0    1
 -2      4048      2212       457      3486      6037      2280      6655      4966      6038      3495
 -1      5668    6    0    1
 -2       643      4226      1256      1168      6656      4316      6363      5872      4317      1365
 -1      5669    6    0    1
 -2      4252       643      4226       599      5422      6656      5570      6085       986      5894
 -1      5670    6    0    1
 -2       643      4252      4226      1168      5422      5570      6656      5872      5873      4317
 -1      5671    6    0    1
 -2      4226       645       643      1256      5037       744      6656      4316      5035      6363
 -1      5672    6    0    1
 -2       643       645      4226       599       744      5037      6656       986       990      5894
 -1      5673    6    0    1
 -2      4277      2136      3265      3709      5218      6528      6657      4343      5217      5692
 -1      5674    6    0    1
 -2      3232      4277      3265      3709      5943      6657      3412      5691      4343      5692
 -1      5675    6    0    1
 -2      3265      4277      3232      3242      6657      5943      3412      3352      5944      3394
 -1      5676    6    0    1
 -2      4219      2068      4288      4300      6658      6294      5729      4347      6290      6295
 -1      5677    6    0    1
 -2      4288      2068      4219      2183      6294      6658      5729      5728      2877      5463
 -1      5678    6    0    1
 -2      4219      2255      2068      4300      4348      2885      6658      4347      4346      6290
 -1      5679    6    0    1
 -2      2068      2255      4219      2183      2885      4348      6658      2877      2886      5463
 -1      5680    6    0    1
 -2      4242      4218      1070      1148      4794      6579      6659      4792      4789      1917
 -1      5681    6    0    1
 -2      4218      4242      1070      4293      4794      6659      6579      5666      5154      6278
 -1      5682    6    0    1
 -2      4242      1070      1137      1148      6659      1913      5064      4792      1917      1835
 -1      5683    6    0    1
 -2      1070      4242      1137      4293      6659      5064      1913      6278      5154      5152
 -1      5684    6    0    1
 -2      4050       336       569      1219      4118      6586      5990      6159      1668      6160
 -1      5685    6    0    1
 -2       569       336      4050      4040      6586      4118      5990      5636      4121      4123
 -1      5686    6    0    1
 -2      4230        91      1184      4295      6260      6520      6636      5328      6497      6225
 -1      5687    6    0    1
 -2      1184        91      4230       689      6520      6260      6636      6522       808      4435
 -1      5688    6    0    1
 -2      2190      4268      2075      2117      6660      6593      2889      2630      5708      2890
 -1      5689    6    0    1
 -2      4268      2190      2075      4286      6660      2889      6593      4466      4360      6407
 -1      5690    6    0    1
 -2      3240      4268      2190      2117      5810      6660      4358      5809      5708      2630
 -1      5691    6    0    1
 -2      4268      3240      2190      4286      5810      4358      6660      4466      4362      4360
 -1      5692    6    0    1
 -2      3238      2190      3262      4286      6661      4359      3364      5615      4360      4361
 -1      5693    6    0    1
 -2      2190      3238      3262       417      6661      3364      4359      2626      3360      3362
 -1      5694    6    0    1
 -2      2132      2190      3238      4286      2627      6661      5528      5613      4360      5615
 -1      5695    6    0    1
 -2      2190      2132      3238       417      2627      5528      6661      2626      2623      3360
 -1      5696    6    0    1
 -2       549      3476      4059       442      6662      6612      4180      2653      3586      6318
 -1      5697    6    0    1
 -2      4059      3476       549      4042      6612      6662      4180      4181      6375      4178
 -1      5698    6    0    1
 -2       549      2220      3476       442      2652      6376      6662      2653      2647      3586
 -1      5699    6    0    1
 -2      3476      2220       549      4042      6376      2652      6662      6375      6065      4178
 -1      5700    6    0    1
 -2       688      4308      2244      2103      6502      5951      6663      6501      6462      2428
 -1      5701    6    0    1
 -2      4308       688      2244       623      6502      6663      5951      5858       810      5884
 -1      5702    6    0    1
 -2       688      2244       128      2103      6663      2423       697      6501      2428      2427
 -1      5703    6    0    1
 -2      2244       688       128       623      6663       697      2423      5884       810       907
 -1      5704    6    0    1
 -2       361      1141      1116         5      6412      1270      6644       363      1269      1267
 -1      5705    6    0    1
 -2      1141       361      1116      4250      6412      6644      1270      6142      6413      6034
 -1      5706    6    0    1
 -2      1158      1192      4283      4282      1724      6631      6664      6053      6256      5266
 -1      5707    6    0    1
 -2      1192      1158      4283      1098      1724      6664      6631      1726      1422      5861
 -1      5708    6    0    1
 -2      1158      4283       681      4282      6664      5429      6052      6053      5266      5518
 -1      5709    6    0    1
 -2      4283      1158       681      1098      6664      6052      5429      5861      1422      5860
 -1      5710    6    0    1
 -2      4222      2060      2231      2140      6649      2869      5992      4327      2876      2874
 -1      5711    6    0    1
 -2      2060      4222      2231      4310      6649      5992      2869      5984      4480      5983
 -1      5712    6    0    1
 -2       362      4250      3067      4220      6665      6651      3129      6370      4699      4678
 -1      5713    6    0    1
 -2      3067      4250       362       361      6651      6665      3129      3130      6413       364
 -1      5714    6    0    1
 -2       362      4272      4250      4220      6523      5119      6665      6370      5120      4699
 -1      5715    6    0    1
 -2      4250      4272       362       361      5119      6523      6665      6413      6512       364
 -1      5716    6    0    1
 -2      2233      3265      4277      2136      6666      6657      6300      2621      6528      5218
 -1      5717    6    0    1
 -2      4277      3265      2233      3242      6657      6666      6300      5944      3352      6519
 -1      5718    6    0    1
 -2      2233       413      3265      2136      2615      3350      6666      2621      2620      6528
 -1      5719    6    0    1
 -2      3265       413      2233      3242      3350      2615      6666      3352      3346      6519
 -3
    1PSTEP                         1           1           1          
  100CL  101 1.000000000        6666                     0    1           1
 -4  DISP        4    1
 -5  D1          1    2    1    0
 -5  D2          1    2    2    0
 -5  D3          1    2    3    0
 -5  ALL         1    2    0    0    1ALL
 -1         1 2.20435E-01-1.21631E-01 6.55476E-02
 -1         2 2.22023E-01 1.21656E-01 6.62568E-02
 -1         3 2.21692E-01-1.21789E-01-6.62222E-02
 -1         4 2.21943E-01 1.21473E-01-6.68097E-02
 -1         5 3.91894E-01-1.27897E-01 1.07756E-01
 -1         6 3.92705E-01 1.28685E-01 1.08378E-01
 -1         7 1.95838E+00 1.77312E-02-7.76935E-04
 -1         8 1.96257E+00 1.78223E-02 2.06515E-03
 -1         9 2.00000E+00 9.77941E-03 8.89521E-04
 -1        10 0.00000E+00 0.00000E+00 0.00000E+00
 -1        11 1.96046E+00 2.42001E-02 8.35491E-04
 -1        12 3.89114E-01-1.26589E-01-1.07540E-01
 -1        13 3.88131E-01 1.26788E-01-1.08994E-01
 -1        14 1.95830E+00 1.96245E-02-7.58358E-04
 -1        15 1.96249E+00 1.97142E-02 2.08237E-03
 -1        16 2.00000E+00 1.18859E-02 2.52878E-04
 -1        17 0.00000E+00 0.00000E+00 0.00000E+00
 -1        18 1.96038E+00 2.60953E-02 8.35784E-04
 -1        19 1.06554E-01-1.37962E-01 1.54235E-02
 -1        20 8.70418E-02-1.27201E-01 7.80959E-03
 -1        21 8.49902E-02-1.00570E-01 8.13304E-03
 -1        22 8.17152E-02-7.01959E-02 8.25250E-03
 -1        23 7.35021E-02-4.37079E-02 7.47201E-03
 -1        24 6.24649E-02-2.38388E-02 6.34502E-03
 -1        25 5.09714E-02-1.02000E-02 5.12726E-03
 -1        26 4.02217E-02-1.41140E-03 4.05650E-03
 -1        27 3.08619E-02 3.80149E-03 3.19701E-03
 -1        28 2.30095E-02 6.52715E-03 2.49304E-03
 -1        29 1.66391E-02 7.58097E-03 1.97243E-03
 -1        30 1.16046E-02 7.45619E-03 1.59040E-03
 -1        31 7.74372E-03 6.61023E-03 1.29716E-03
 -1        32 4.92530E-03 5.26039E-03 1.09161E-03
 -1        33 3.01164E-03 3.63285E-03 9.52084E-04
 -1        34 1.89505E-03 1.85206E-03 8.75145E-04
 -1        35 1.54232E-03-1.16805E-05 8.45288E-04
 -1        36 1.90242E-03-1.86860E-03 8.71399E-04
 -1        37 3.01977E-03-3.65607E-03 9.53888E-04
 -1        38 4.94337E-03-5.28545E-03 1.09805E-03
 -1        39 7.76723E-03-6.62915E-03 1.30548E-03
 -1        40 1.16348E-02-7.47512E-03 1.59395E-03
 -1        41 1.66775E-02-7.59392E-03 1.97685E-03
 -1        42 2.30505E-02-6.55377E-03 2.50747E-03
 -1        43 3.09087E-02-3.79907E-03 3.20051E-03
 -1        44 4.03025E-02 1.39095E-03 4.06242E-03
 -1        45 5.10346E-02 1.02068E-02 5.14872E-03
 -1        46 6.26585E-02 2.38221E-02 6.35415E-03
 -1        47 7.36365E-02 4.37419E-02 7.55665E-03
 -1        48 8.20215E-02 7.03234E-02 8.28706E-03
 -1        49 8.53083E-02 1.00337E-01 8.23931E-03
 -1        50 8.71914E-02 1.27585E-01 8.11638E-03
 -1        51 1.07224E-01 1.38272E-01 1.62584E-02
 -1        52 1.43598E-01-1.32787E-01 3.13827E-02
 -1        53 9.14200E-02-1.35775E-01 9.20886E-03
 -1        54 8.50514E-02-1.15130E-01 7.51280E-03
 -1        55 8.39342E-02-8.51146E-02 8.21010E-03
 -1        56 7.80553E-02-5.61710E-02 7.95915E-03
 -1        57 6.81186E-02-3.29577E-02 6.89929E-03
 -1        58 5.66774E-02-1.63237E-02 5.75596E-03
 -1        59 4.54503E-02-5.29201E-03 4.55585E-03
 -1        60 3.53415E-02 1.57910E-03 3.62808E-03
 -1        61 2.67377E-02 5.41435E-03 2.81243E-03
 -1        62 1.96521E-02 7.22171E-03 2.22417E-03
 -1        63 1.39590E-02 7.62655E-03 1.76519E-03
 -1        64 9.54419E-03 7.10897E-03 1.43615E-03
 -1        65 6.20977E-03 5.97834E-03 1.19109E-03
 -1        66 3.86380E-03 4.47119E-03 1.00943E-03
 -1        67 2.36001E-03 2.75728E-03 9.09664E-04
 -1        68 1.62894E-03 9.21252E-04 8.50924E-04
 -1        69 1.63186E-03-9.41253E-04 8.54887E-04
 -1        70 2.36614E-03-2.77816E-03 9.08076E-04
 -1        71 3.87515E-03-4.49575E-03 1.01564E-03
 -1        72 6.23112E-03-6.00169E-03 1.19702E-03
 -1        73 9.56913E-03-7.12885E-03 1.44084E-03
 -1        74 1.39935E-02-7.64341E-03 1.76961E-03
 -1        75 1.96924E-02-7.23870E-03 2.23254E-03
 -1        76 2.67856E-02-5.44006E-03 2.83450E-03
 -1        77 3.53985E-02-1.57625E-03 3.59852E-03
 -1        78 4.55416E-02 5.29151E-03 4.59308E-03
 -1        79 5.67722E-02 1.63133E-02 5.72853E-03
 -1        80 6.83324E-02 3.29985E-02 7.00288E-03
 -1        81 7.82253E-02 5.62702E-02 7.90328E-03
 -1        82 8.41335E-02 8.52650E-02 8.35351E-03
 -1        83 8.54683E-02 1.15396E-01 7.95634E-03
 -1        84 9.19114E-02 1.35991E-01 9.48214E-03
 -1        85 1.44451E-01 1.33300E-01 3.23330E-02
 -1        86 2.15325E-01-1.14022E-01 2.33128E-02
 -1        87 2.13988E-01-1.13533E-01-2.35490E-02
 -1        88 2.14538E-01-1.10590E-01 4.56055E-02
 -1        89 2.12710E-01-1.12824E-01-8.61185E-05
 -1        90 2.14765E-01-1.10831E-01-4.62657E-02
 -1        91 2.15030E-01 1.15261E-01 2.43970E-02
 -1        92 2.17212E-01 1.14744E-01-2.41393E-02
 -1        93 2.15154E-01 1.11829E-01 4.67779E-02
 -1        94 2.14042E-01 1.14093E-01 1.64024E-04
 -1        95 2.15224E-01 1.10886E-01-4.62634E-02
 -1        96 1.06775E-01-1.37847E-01-1.56712E-02
 -1        97 8.69187E-02-1.27505E-01-7.89013E-03
 -1        98 8.51726E-02-1.00611E-01-8.27892E-03
 -1        99 8.17209E-02-7.02461E-02-8.27012E-03
 -1       100 7.34932E-02-4.36542E-02-7.51506E-03
 -1       101 6.24732E-02-2.38992E-02-6.31609E-03
 -1       102 5.09881E-02-1.02203E-02-5.12628E-03
 -1       103 4.02389E-02-1.43491E-03-4.03743E-03
 -1       104 3.08681E-02 3.79422E-03-3.19009E-03
 -1       105 2.30045E-02 6.53354E-03-2.50224E-03
 -1       106 1.66313E-02 7.58735E-03-1.98210E-03
 -1       107 1.16036E-02 7.45862E-03-1.59618E-03
 -1       108 7.74594E-03 6.61215E-03-1.29852E-03
 -1       109 4.92687E-03 5.26083E-03-1.08897E-03
 -1       110 3.01338E-03 3.63294E-03-9.49571E-04
 -1       111 1.89555E-03 1.85235E-03-8.73022E-04
 -1       112 1.54195E-03-1.03546E-05-8.44114E-04
 -1       113 1.90195E-03-1.86679E-03-8.70191E-04
 -1       114 3.02268E-03-3.66006E-03-9.53070E-04
 -1       115 4.94753E-03-5.28429E-03-1.09183E-03
 -1       116 7.76995E-03-6.62686E-03-1.29772E-03
 -1       117 1.16379E-02-7.47322E-03-1.58886E-03
 -1       118 1.66762E-02-7.59846E-03-1.97898E-03
 -1       119 2.30522E-02-6.55858E-03-2.50957E-03
 -1       120 3.09152E-02-3.79976E-03-3.20267E-03
 -1       121 4.03066E-02 1.39360E-03-4.06667E-03
 -1       122 5.10351E-02 1.02091E-02-5.15809E-03
 -1       123 6.26364E-02 2.38332E-02-6.35779E-03
 -1       124 7.35644E-02 4.37079E-02-7.54246E-03
 -1       125 8.19320E-02 7.02751E-02-8.18164E-03
 -1       126 8.51527E-02 1.00362E-01-7.94911E-03
 -1       127 8.72169E-02 1.27653E-01-7.67724E-03
 -1       128 1.06793E-01 1.38256E-01-1.48930E-02
 -1       129 1.43902E-01-1.33241E-01-3.22222E-02
 -1       130 9.14273E-02-1.35675E-01-9.31948E-03
 -1       131 8.52339E-02-1.15258E-01-7.70446E-03
 -1       132 8.40034E-02-8.51651E-02-8.23666E-03
 -1       133 7.80710E-02-5.61794E-02-7.99038E-03
 -1       134 6.81255E-02-3.29832E-02-6.89845E-03
 -1       135 5.66933E-02-1.63369E-02-5.75300E-03
 -1       136 4.54642E-02-5.31420E-03-4.54470E-03
 -1       137 3.53542E-02 1.56130E-03-3.61332E-03
 -1       138 2.67362E-02 5.41458E-03-2.81401E-03
 -1       139 1.96451E-02 7.23171E-03-2.23556E-03
 -1       140 1.39551E-02 7.62909E-03-1.77294E-03
 -1       141 9.54464E-03 7.11254E-03-1.44062E-03
 -1       142 6.21204E-03 5.97976E-03-1.18960E-03
 -1       143 3.86554E-03 4.47096E-03-1.00684E-03
 -1       144 2.36089E-03 2.75762E-03-9.07433E-04
 -1       145 1.62945E-03 9.21955E-04-8.49167E-04
 -1       146 1.63080E-03-9.39525E-04-8.54481E-04
 -1       147 2.36495E-03-2.77715E-03-9.07007E-04
 -1       148 3.87797E-03-4.49798E-03-1.01114E-03
 -1       149 6.23311E-03-6.00000E-03-1.19127E-03
 -1       150 9.57332E-03-7.12535E-03-1.43366E-03
 -1       151 1.39938E-02-7.64482E-03-1.76768E-03
 -1       152 1.96919E-02-7.24361E-03-2.23540E-03
 -1       153 2.67901E-02-5.44318E-03-2.83606E-03
 -1       154 3.54041E-02-1.57382E-03-3.60212E-03
 -1       155 4.55441E-02 5.29218E-03-4.60086E-03
 -1       156 5.67651E-02 1.63193E-02-5.73446E-03
 -1       157 6.82837E-02 3.29890E-02-7.00313E-03
 -1       158 7.81385E-02 5.62170E-02-7.85426E-03
 -1       159 8.40208E-02 8.52549E-02-8.16375E-03
 -1       160 8.53139E-02 1.15439E-01-7.56395E-03
 -1       161 9.21503E-02 1.36186E-01-9.45824E-03
 -1       162 1.42204E-01 1.33396E-01-3.06655E-02
 -1       163 3.05527E-01-1.19929E-01 9.75732E-02
 -1       164 2.60931E-01-1.20598E-01 8.20060E-02
 -1       165 3.49461E-01-1.23956E-01 1.05147E-01
 -1       166 3.05039E-01 1.21015E-01 9.69738E-02
 -1       167 2.61702E-01 1.21200E-01 8.19550E-02
 -1       168 3.49671E-01 1.24525E-01 1.05475E-01
 -1       169 6.05110E-01-1.63648E-01 9.62061E-02
 -1       170 8.07719E-01-1.77427E-01 9.31883E-02
 -1       171 1.01076E+00-1.85090E-01 9.28436E-02
 -1       172 1.21265E+00-1.93740E-01 9.00118E-02
 -1       173 1.40221E+00-2.03181E-01 8.11182E-02
 -1       174 1.56204E+00-1.94093E-01 6.63593E-02
 -1       175 1.68230E+00-1.13307E-01 5.42583E-02
 -1       176 1.81134E+00 1.58088E-02 4.53782E-02
 -1       177 1.91487E+00 5.24669E-02 2.53013E-02
 -1       178 1.95189E+00 3.44365E-02 7.62574E-03
 -1       179 1.95976E+00 2.00264E-02 4.02048E-04
 -1       180 1.96001E+00 1.51233E-02-1.33603E-03
 -1       181 1.95911E+00 1.44638E-02-1.38513E-03
 -1       182 1.95856E+00 1.53619E-02-1.09383E-03
 -1       183 1.95839E+00 1.65476E-02-8.97025E-04
 -1       184 5.02589E-01-1.48579E-01 1.01986E-01
 -1       185 7.06450E-01-1.71702E-01 9.40101E-02
 -1       186 9.09216E-01-1.81520E-01 9.29599E-02
 -1       187 1.11223E+00-1.89306E-01 9.19514E-02
 -1       188 1.30969E+00-1.99388E-01 8.66870E-02
 -1       189 1.48721E+00-2.04177E-01 7.41655E-02
 -1       190 1.62534E+00-1.65519E-01 5.98022E-02
 -1       191 1.74650E+00-4.34179E-02 4.96326E-02
 -1       192 1.87081E+00 4.94025E-02 3.63170E-02
 -1       193 1.93900E+00 4.50080E-02 1.48543E-02
 -1       194 1.95744E+00 2.59858E-02 2.91135E-03
 -1       195 1.96021E+00 1.68972E-02-8.54386E-04
 -1       196 1.95952E+00 1.44662E-02-1.42669E-03
 -1       197 1.95880E+00 1.48173E-02-1.24438E-03
 -1       198 1.95845E+00 1.59481E-02-9.87917E-04
 -1       199 1.95837E+00 1.71471E-02-8.30867E-04
 -1       200 6.06969E-01 1.64318E-01 9.71204E-02
 -1       201 8.10488E-01 1.79172E-01 9.37795E-02
 -1       202 1.01449E+00 1.88045E-01 9.35536E-02
 -1       203 1.21729E+00 1.98469E-01 9.10963E-02
 -1       204 1.40854E+00 2.10467E-01 8.24478E-02
 -1       205 1.56717E+00 2.03807E-01 6.63079E-02
 -1       206 1.69145E+00 1.17138E-01 6.15339E-02
 -1       207 1.81813E+00-3.38372E-03 4.93182E-02
 -1       208 1.91977E+00-3.39066E-02 2.80380E-02
 -1       209 1.95726E+00-1.15404E-02 1.03700E-02
 -1       210 1.96440E+00 4.70634E-03 3.21143E-03
 -1       211 1.96470E+00 1.16971E-02 1.68168E-03
 -1       212 1.96360E+00 1.45134E-02 1.61579E-03
 -1       213 1.96297E+00 1.58258E-02 1.84369E-03
 -1       214 1.96267E+00 1.68075E-02 2.00245E-03
 -1       215 5.03882E-01 1.48935E-01 1.02857E-01
 -1       216 7.08813E-01 1.73077E-01 9.46090E-02
 -1       217 9.12411E-01 1.83824E-01 9.36934E-02
 -1       218 1.11623E+00 1.92955E-01 9.27153E-02
 -1       219 1.31479E+00 2.04920E-01 8.75344E-02
 -1       220 1.49353E+00 2.12827E-01 7.52596E-02
 -1       221 1.63234E+00 1.74720E-01 6.28496E-02
 -1       222 1.75290E+00 5.30046E-02 5.60415E-02
 -1       223 1.87791E+00-3.08921E-02 3.77881E-02
 -1       224 1.94412E+00-2.45159E-02 1.85537E-02
 -1       225 1.96259E+00-2.28774E-03 5.38066E-03
 -1       226 1.96490E+00 8.80718E-03 2.18406E-03
 -1       227 1.96408E+00 1.34197E-02 1.55049E-03
 -1       228 1.96324E+00 1.52588E-02 1.72734E-03
 -1       229 1.96279E+00 1.63284E-02 1.93586E-03
 -1       230 1.96261E+00 1.73082E-02 2.04153E-03
 -1       231 1.96342E+00 1.84747E-02 2.68190E-03
 -1       232 1.96408E+00 1.93335E-02 3.15881E-03
 -1       233 1.96450E+00 2.03359E-02 3.47138E-03
 -1       234 1.96464E+00 2.14141E-02 3.59907E-03
 -1       235 1.96450E+00 2.24945E-02 3.53308E-03
 -1       236 1.96408E+00 2.35027E-02 3.27787E-03
 -1       237 1.96342E+00 2.43695E-02 2.85081E-03
 -1       238 1.96255E+00 2.50352E-02 2.28099E-03
 -1       239 1.96154E+00 2.54540E-02 1.60724E-03
 -1       240 1.96046E+00 2.55972E-02 8.75510E-04
 -1       241 1.95937E+00 2.54547E-02 1.35681E-04
 -1       242 1.95836E+00 2.50362E-02-5.61815E-04
 -1       243 1.95749E+00 2.43698E-02-1.16941E-03
 -1       244 1.95682E+00 2.35006E-02-1.64571E-03
 -1       245 1.95640E+00 2.24873E-02-1.95820E-03
 -1       246 1.95626E+00 2.13982E-02-2.08562E-03
 -1       247 1.95640E+00 2.03071E-02-2.01924E-03
 -1       248 1.95682E+00 1.92882E-02-1.76365E-03
 -1       249 1.95749E+00 1.84112E-02-1.33679E-03
 -1       250 1.96301E+00 1.81182E-02 2.39017E-03
 -1       251 1.96378E+00 1.88822E-02 2.93924E-03
 -1       252 1.96432E+00 1.98208E-02 3.33714E-03
 -1       253 1.96460E+00 2.08701E-02 3.55919E-03
 -1       254 1.96460E+00 2.19587E-02 3.59032E-03
 -1       255 1.96432E+00 2.30121E-02 3.42834E-03
 -1       256 1.96378E+00 2.39578E-02 3.08426E-03
 -1       257 1.96301E+00 2.47307E-02 2.58152E-03
 -1       258 1.96206E+00 2.52777E-02 1.95437E-03
 -1       259 1.96100E+00 2.55611E-02 1.24556E-03
 -1       260 1.95991E+00 2.55615E-02 5.03429E-04
 -1       261 1.95885E+00 2.52786E-02-2.21436E-04
 -1       262 1.95790E+00 2.47315E-02-8.79616E-04
 -1       263 1.95713E+00 2.39571E-02-1.42624E-03
 -1       264 1.95658E+00 2.30078E-02-1.82403E-03
 -1       265 1.95629E+00 2.19477E-02-2.04590E-03
 -1       266 1.95629E+00 2.08482E-02-2.07669E-03
 -1       267 1.95658E+00 1.97841E-02-1.91428E-03
 -1       268 1.95713E+00 1.88278E-02-1.56994E-03
 -1       269 1.95791E+00 1.80449E-02-1.06969E-03
 -1       270 2.00000E+00 5.32796E-02-2.75388E-03
 -1       271 2.00000E+00 2.61233E-02 3.93976E-02
 -1       272 2.00000E+00-1.40712E-02 1.36191E-01
 -1       273 2.00000E+00 2.51177E-02 1.39046E-01
 -1       274 2.00000E+00-1.34355E-02 4.12436E-02
 -1       275 2.00000E+00-3.52629E-02-2.30854E-06
 -1       276 2.00000E+00 3.23323E-02-1.15179E-03
 -1       277 2.00000E+00 5.60801E-02 9.91610E-03
 -1       278 2.00000E+00-1.62296E-02 9.36140E-02
 -1       279 2.00000E+00 3.82233E-03 1.50976E-01
 -1       280 2.00000E+00 2.81037E-02 9.32345E-02
 -1       281 2.00000E+00-4.11478E-02 1.14447E-02
 -1       282 2.00000E+00-1.33765E-02 3.73218E-04
 -1       283 0.00000E+00 0.00000E+00 0.00000E+00
 -1       284 0.00000E+00 0.00000E+00 0.00000E+00
 -1       285 0.00000E+00 0.00000E+00 0.00000E+00
 -1       286 0.00000E+00 0.00000E+00 0.00000E+00
 -1       287 0.00000E+00 0.00000E+00 0.00000E+00
 -1       288 0.00000E+00 0.00000E+00 0.00000E+00
 -1       289 0.00000E+00 0.00000E+00 0.00000E+00
 -1       290 0.00000E+00 0.00000E+00 0.00000E+00
 -1       291 0.00000E+00 0.00000E+00 0.00000E+00
 -1       292 0.00000E+00 0.00000E+00 0.00000E+00
 -1       293 0.00000E+00 0.00000E+00 0.00000E+00
 -1       294 0.00000E+00 0.00000E+00 0.00000E+00
 -1       295 0.00000E+00 0.00000E+00 0.00000E+00
 -1       296 0.00000E+00 0.00000E+00 0.00000E+00
 -1       297 0.00000E+00 0.00000E+00 0.00000E+00
 -1       298 0.00000E+00 0.00000E+00 0.00000E+00
 -1       299 0.00000E+00 0.00000E+00 0.00000E+00
 -1       300 0.00000E+00 0.00000E+00 0.00000E+00
 -1       301 0.00000E+00 0.00000E+00 0.00000E+00
 -1       302 0.00000E+00 0.00000E+00 0.00000E+00
 -1       303 0.00000E+00 0.00000E+00 0.00000E+00
 -1       304 0.00000E+00 0.00000E+00 0.00000E+00
 -1       305 0.00000E+00 0.00000E+00 0.00000E+00
 -1       306 0.00000E+00 0.00000E+00 0.00000E+00
 -1       307 0.00000E+00 0.00000E+00 0.00000E+00
 -1       308 0.00000E+00 0.00000E+00 0.00000E+00
 -1       309 0.00000E+00 0.00000E+00 0.00000E+00
 -1       310 0.00000E+00 0.00000E+00 0.00000E+00
 -1       311 0.00000E+00 0.00000E+00 0.00000E+00
 -1       312 0.00000E+00 0.00000E+00 0.00000E+00
 -1       313 0.00000E+00 0.00000E+00 0.00000E+00
 -1       314 0.00000E+00 0.00000E+00 0.00000E+00
 -1       315 0.00000E+00 0.00000E+00 0.00000E+00
 -1       316 0.00000E+00 0.00000E+00 0.00000E+00
 -1       317 0.00000E+00 0.00000E+00 0.00000E+00
 -1       318 0.00000E+00 0.00000E+00 0.00000E+00
 -1       319 0.00000E+00 0.00000E+00 0.00000E+00
 -1       320 0.00000E+00 0.00000E+00 0.00000E+00
 -1       321 0.00000E+00 0.00000E+00 0.00000E+00
 -1       322 0.00000E+00 0.00000E+00 0.00000E+00
 -1       323 0.00000E+00 0.00000E+00 0.00000E+00
 -1       324 0.00000E+00 0.00000E+00 0.00000E+00
 -1       325 0.00000E+00 0.00000E+00 0.00000E+00
 -1       326 0.00000E+00 0.00000E+00 0.00000E+00
 -1       327 0.00000E+00 0.00000E+00 0.00000E+00
 -1       328 0.00000E+00 0.00000E+00 0.00000E+00
 -1       329 0.00000E+00 0.00000E+00 0.00000E+00
 -1       330 1.95939E+00 2.39871E-02 1.04172E-04
 -1       331 1.95848E+00 2.33804E-02-5.27968E-04
 -1       332 1.95787E+00 2.24718E-02-9.64668E-04
 -1       333 1.95766E+00 2.13984E-02-1.13945E-03
 -1       334 1.95788E+00 2.03230E-02-1.02549E-03
 -1       335 1.95849E+00 1.94091E-02-6.39703E-04
 -1       336 1.95941E+00 1.87977E-02-4.54753E-05
 -1       337 1.96046E+00 1.86123E-02 6.64264E-04
 -1       338 1.96155E+00 1.88531E-02 1.40705E-03
 -1       339 1.96244E+00 1.94522E-02 2.04098E-03
 -1       340 1.96304E+00 2.03512E-02 2.47628E-03
 -1       341 1.96325E+00 2.14140E-02 2.65073E-03
 -1       342 1.96304E+00 2.24789E-02 2.53699E-03
 -1       343 1.96243E+00 2.33831E-02 2.15213E-03
 -1       344 1.96152E+00 2.39878E-02 1.55464E-03
 -1       345 1.95991E+00 2.41463E-02 4.64231E-04
 -1       346 1.95890E+00 2.37285E-02-2.30854E-04
 -1       347 1.95813E+00 2.29561E-02-7.75733E-04
 -1       348 1.95771E+00 2.19458E-02-1.08749E-03
 -1       349 1.95772E+00 2.08504E-02-1.11851E-03
 -1       350 1.95814E+00 1.98363E-02-8.63712E-04
 -1       351 1.95892E+00 1.90582E-02-3.62604E-04
 -1       352 1.95992E+00 1.86471E-02 2.99910E-04
 -1       353 1.96101E+00 1.86853E-02 1.04040E-03
 -1       354 1.96203E+00 1.91088E-02 1.74452E-03
 -1       355 1.96279E+00 1.98719E-02 2.28795E-03
 -1       356 1.96320E+00 2.08719E-02 2.59885E-03
 -1       357 1.96319E+00 2.19567E-02 2.62986E-03
 -1       358 1.96278E+00 2.29606E-02 2.37569E-03
 -1       359 1.96201E+00 2.37300E-02 1.87489E-03
 -1       360 1.96100E+00 2.41465E-02 1.20368E-03
 -1       361 3.77388E-01-1.31149E-01 3.35941E-02
 -1       362 3.77621E-01-1.29323E-01-3.35250E-02
 -1       363 3.83517E-01-1.30627E-01 6.95926E-02
 -1       364 3.76572E-01-1.30744E-01-1.09178E-04
 -1       365 3.82648E-01-1.29095E-01-6.89698E-02
 -1       366 3.07067E-01-1.22836E-01-9.88251E-02
 -1       367 2.62322E-01-1.21623E-01-8.27482E-02
 -1       368 3.49122E-01-1.23906E-01-1.04325E-01
 -1       369 3.76935E-01 1.31646E-01 3.41484E-02
 -1       370 3.79215E-01 1.32933E-01-3.34458E-02
 -1       371 3.84952E-01 1.31941E-01 7.00670E-02
 -1       372 3.76061E-01 1.31950E-01 1.45354E-04
 -1       373 3.82223E-01 1.30662E-01-7.01890E-02
 -1       374 3.08997E-01 1.22158E-01-9.76698E-02
 -1       375 2.62094E-01 1.22192E-01-8.27798E-02
 -1       376 3.49694E-01 1.23828E-01-1.04893E-01
 -1       377 6.05192E-01-1.63377E-01-9.64375E-02
 -1       378 8.07717E-01-1.77378E-01-9.31356E-02
 -1       379 1.01089E+00-1.85138E-01-9.27230E-02
 -1       380 1.21232E+00-1.93605E-01-9.01322E-02
 -1       381 1.40231E+00-2.03262E-01-8.11630E-02
 -1       382 1.56106E+00-1.93521E-01-6.72746E-02
 -1       383 1.68277E+00-1.12298E-01-5.64102E-02
 -1       384 1.81158E+00 1.81821E-02-4.79623E-02
 -1       385 1.91510E+00 5.52905E-02-2.78206E-02
 -1       386 1.95242E+00 3.58676E-02-9.63534E-03
 -1       387 1.95980E+00 2.17831E-02-2.12386E-03
 -1       388 1.95998E+00 1.70526E-02-6.54479E-04
 -1       389 1.95906E+00 1.63508E-02-4.93248E-04
 -1       390 1.95851E+00 1.72321E-02-6.63429E-04
 -1       391 1.95831E+00 1.84388E-02-7.58995E-04
 -1       392 5.02022E-01-1.48133E-01-1.02736E-01
 -1       393 7.06440E-01-1.71560E-01-9.40692E-02
 -1       394 9.09247E-01-1.81459E-01-9.29062E-02
 -1       395 1.11227E+00-1.89153E-01-9.19860E-02
 -1       396 1.30963E+00-1.99373E-01-8.66769E-02
 -1       397 1.48701E+00-2.04222E-01-7.42767E-02
 -1       398 1.62521E+00-1.64871E-01-6.05514E-02
 -1       399 1.74689E+00-4.20820E-02-5.22780E-02
 -1       400 1.87125E+00 5.21063E-02-3.89495E-02
 -1       401 1.93908E+00 4.77233E-02-1.74261E-02
 -1       402 1.95773E+00 2.78847E-02-4.92564E-03
 -1       403 1.96023E+00 1.87664E-02-1.04556E-03
 -1       404 1.95949E+00 1.63704E-02-4.96219E-04
 -1       405 1.95874E+00 1.67067E-02-5.69497E-04
 -1       406 1.95839E+00 1.78364E-02-7.21818E-04
 -1       407 1.95829E+00 1.90402E-02-7.64922E-04
 -1       408 6.07333E-01 1.64488E-01-9.66776E-02
 -1       409 8.10377E-01 1.79231E-01-9.33505E-02
 -1       410 1.01424E+00 1.88308E-01-9.29023E-02
 -1       411 1.21661E+00 1.98730E-01-9.03262E-02
 -1       412 1.40765E+00 2.10245E-01-8.18063E-02
 -1       413 1.56623E+00 2.03142E-01-6.59311E-02
 -1       414 1.69023E+00 1.21189E-01-5.73639E-02
 -1       415 1.81517E+00 5.09798E-04-4.12426E-02
 -1       416 1.92059E+00-3.29641E-02-2.44625E-02
 -1       417 1.95751E+00-9.56854E-03-6.28601E-03
 -1       418 1.96438E+00 6.19660E-03 4.76667E-04
 -1       419 1.96454E+00 1.36141E-02 2.39528E-03
 -1       420 1.96348E+00 1.64286E-02 2.54052E-03
 -1       421 1.96285E+00 1.77117E-02 2.28791E-03
 -1       422 1.96259E+00 1.87000E-02 2.13980E-03
 -1       423 5.03223E-01 1.48357E-01-1.02877E-01
 -1       424 7.08804E-01 1.73063E-01-9.43436E-02
 -1       425 9.12264E-01 1.83965E-01-9.31515E-02
 -1       426 1.11591E+00 1.93136E-01-9.20638E-02
 -1       427 1.31419E+00 2.04868E-01-8.68843E-02
 -1       428 1.49226E+00 2.12188E-01-7.43690E-02
 -1       429 1.63192E+00 1.75357E-01-5.96776E-02
 -1       430 1.75022E+00 5.73387E-02-5.02871E-02
 -1       431 1.87863E+00-3.10306E-02-3.50676E-02
 -1       432 1.94459E+00-2.26932E-02-1.40963E-02
 -1       433 1.96254E+00-6.29810E-04-1.59506E-03
 -1       434 1.96471E+00 1.06166E-02 1.73685E-03
 -1       435 1.96398E+00 1.53736E-02 2.60906E-03
 -1       436 1.96311E+00 1.71625E-02 2.41227E-03
 -1       437 1.96269E+00 1.82151E-02 2.19999E-03
 -1       438 1.96253E+00 1.91999E-02 2.10354E-03
 -1       439 1.96334E+00 2.03676E-02 2.68097E-03
 -1       440 1.96400E+00 2.12269E-02 3.15702E-03
 -1       441 1.96442E+00 2.22299E-02 3.47001E-03
 -1       442 1.96456E+00 2.33085E-02 3.59801E-03
 -1       443 1.96442E+00 2.43892E-02 3.53222E-03
 -1       444 1.96400E+00 2.53976E-02 3.27719E-03
 -1       445 1.96334E+00 2.62645E-02 2.85026E-03
 -1       446 1.96247E+00 2.69303E-02 2.28055E-03
 -1       447 1.96146E+00 2.73491E-02 1.60688E-03
 -1       448 1.96038E+00 2.74923E-02 8.75184E-04
 -1       449 1.95929E+00 2.73498E-02 1.35317E-04
 -1       450 1.95828E+00 2.69313E-02-5.62257E-04
 -1       451 1.95741E+00 2.62650E-02-1.16998E-03
 -1       452 1.95674E+00 2.53957E-02-1.64640E-03
 -1       453 1.95632E+00 2.43822E-02-1.95909E-03
 -1       454 1.95618E+00 2.32929E-02-2.08667E-03
 -1       455 1.95632E+00 2.22015E-02-2.02063E-03
 -1       456 1.95674E+00 2.11822E-02-1.76533E-03
 -1       457 1.95741E+00 2.03049E-02-1.33790E-03
 -1       458 1.96293E+00 2.00104E-02 2.39325E-03
 -1       459 1.96370E+00 2.07754E-02 2.93744E-03
 -1       460 1.96424E+00 2.17145E-02 3.33559E-03
 -1       461 1.96452E+00 2.27643E-02 3.55800E-03
 -1       462 1.96452E+00 2.38533E-02 3.58936E-03
 -1       463 1.96424E+00 2.49069E-02 3.42756E-03
 -1       464 1.96370E+00 2.58528E-02 3.08365E-03
 -1       465 1.96293E+00 2.66258E-02 2.58103E-03
 -1       466 1.96198E+00 2.71728E-02 1.95397E-03
 -1       467 1.96092E+00 2.74563E-02 1.24522E-03
 -1       468 1.95983E+00 2.74566E-02 5.03086E-04
 -1       469 1.95877E+00 2.71737E-02-2.21837E-04
 -1       470 1.95782E+00 2.66267E-02-8.80116E-04
 -1       471 1.95705E+00 2.58523E-02-1.42687E-03
 -1       472 1.95650E+00 2.49029E-02-1.82483E-03
 -1       473 1.95621E+00 2.38425E-02-2.04687E-03
 -1       474 1.95621E+00 2.27428E-02-2.07788E-03
 -1       475 1.95650E+00 2.16783E-02-1.91585E-03
 -1       476 1.95705E+00 2.07217E-02-1.57170E-03
 -1       477 1.95783E+00 1.99384E-02-1.06644E-03
 -1       478 2.00000E+00 5.66978E-02 2.40425E-03
 -1       479 2.00000E+00 2.60425E-02-4.00589E-02
 -1       480 2.00000E+00-1.69179E-02-1.39423E-01
 -1       481 2.00000E+00 2.64054E-02-1.36581E-01
 -1       482 2.00000E+00-1.56599E-02-3.88733E-02
 -1       483 2.00000E+00-3.43088E-02 2.86602E-03
 -1       484 2.00000E+00 3.50063E-02 1.42265E-03
 -1       485 2.00000E+00 6.02465E-02-9.08645E-03
 -1       486 2.00000E+00-1.61544E-02-9.42438E-02
 -1       487 2.00000E+00 6.83521E-03-1.50504E-01
 -1       488 2.00000E+00 2.78576E-02-9.33285E-02
 -1       489 2.00000E+00-4.06370E-02-6.37890E-03
 -1       490 2.00000E+00-1.12679E-02 1.42165E-03
 -1       491 0.00000E+00 0.00000E+00 0.00000E+00
 -1       492 0.00000E+00 0.00000E+00 0.00000E+00
 -1       493 0.00000E+00 0.00000E+00 0.00000E+00
 -1       494 0.00000E+00 0.00000E+00 0.00000E+00
 -1       495 0.00000E+00 0.00000E+00 0.00000E+00
 -1       496 0.00000E+00 0.00000E+00 0.00000E+00
 -1       497 0.00000E+00 0.00000E+00 0.00000E+00
 -1       498 0.00000E+00 0.00000E+00 0.00000E+00
 -1       499 0.00000E+00 0.00000E+00 0.00000E+00
 -1       500 0.00000E+00 0.00000E+00 0.00000E+00
 -1       501 0.00000E+00 0.00000E+00 0.00000E+00
 -1       502 0.00000E+00 0.00000E+00 0.00000E+00
 -1       503 0.00000E+00 0.00000E+00 0.00000E+00
 -1       504 0.00000E+00 0.00000E+00 0.00000E+00
 -1       505 0.00000E+00 0.00000E+00 0.00000E+00
 -1       506 0.00000E+00 0.00000E+00 0.00000E+00
 -1       507 0.00000E+00 0.00000E+00 0.00000E+00
 -1       508 0.00000E+00 0.00000E+00 0.00000E+00
 -1       509 0.00000E+00 0.00000E+00 0.00000E+00
 -1       510 0.00000E+00 0.00000E+00 0.00000E+00
 -1       511 0.00000E+00 0.00000E+00 0.00000E+00
 -1       512 0.00000E+00 0.00000E+00 0.00000E+00
 -1       513 0.00000E+00 0.00000E+00 0.00000E+00
 -1       514 0.00000E+00 0.00000E+00 0.00000E+00
 -1       515 0.00000E+00 0.00000E+00 0.00000E+00
 -1       516 0.00000E+00 0.00000E+00 0.00000E+00
 -1       517 0.00000E+00 0.00000E+00 0.00000E+00
 -1       518 0.00000E+00 0.00000E+00 0.00000E+00
 -1       519 0.00000E+00 0.00000E+00 0.00000E+00
 -1       520 0.00000E+00 0.00000E+00 0.00000E+00
 -1       521 0.00000E+00 0.00000E+00 0.00000E+00
 -1       522 0.00000E+00 0.00000E+00 0.00000E+00
 -1       523 0.00000E+00 0.00000E+00 0.00000E+00
 -1       524 0.00000E+00 0.00000E+00 0.00000E+00
 -1       525 0.00000E+00 0.00000E+00 0.00000E+00
 -1       526 0.00000E+00 0.00000E+00 0.00000E+00
 -1       527 0.00000E+00 0.00000E+00 0.00000E+00
 -1       528 0.00000E+00 0.00000E+00 0.00000E+00
 -1       529 0.00000E+00 0.00000E+00 0.00000E+00
 -1       530 0.00000E+00 0.00000E+00 0.00000E+00
 -1       531 0.00000E+00 0.00000E+00 0.00000E+00
 -1       532 0.00000E+00 0.00000E+00 0.00000E+00
 -1       533 0.00000E+00 0.00000E+00 0.00000E+00
 -1       534 0.00000E+00 0.00000E+00 0.00000E+00
 -1       535 0.00000E+00 0.00000E+00 0.00000E+00
 -1       536 0.00000E+00 0.00000E+00 0.00000E+00
 -1       537 0.00000E+00 0.00000E+00 0.00000E+00
 -1       538 1.95931E+00 2.58822E-02 1.04552E-04
 -1       539 1.95840E+00 2.52756E-02-5.27347E-04
 -1       540 1.95779E+00 2.43668E-02-9.63715E-04
 -1       541 1.95758E+00 2.32931E-02-1.13816E-03
 -1       542 1.95780E+00 2.22173E-02-1.02438E-03
 -1       543 1.95841E+00 2.13031E-02-6.40297E-04
 -1       544 1.95933E+00 2.06913E-02-3.91675E-05
 -1       545 1.96038E+00 2.05055E-02 6.90940E-04
 -1       546 1.96146E+00 2.07460E-02 1.41143E-03
 -1       547 1.96236E+00 2.13455E-02 2.04016E-03
 -1       548 1.96296E+00 2.22450E-02 2.47740E-03
 -1       549 1.96317E+00 2.33083E-02 2.65199E-03
 -1       550 1.96296E+00 2.43737E-02 2.53793E-03
 -1       551 1.96235E+00 2.52781E-02 2.15272E-03
 -1       552 1.96145E+00 2.58829E-02 1.55501E-03
 -1       553 1.95983E+00 2.60414E-02 4.64547E-04
 -1       554 1.95882E+00 2.56237E-02-2.30372E-04
 -1       555 1.95805E+00 2.48512E-02-7.74976E-04
 -1       556 1.95763E+00 2.38407E-02-1.08632E-03
 -1       557 1.95764E+00 2.27450E-02-1.11721E-03
 -1       558 1.95806E+00 2.17304E-02-8.63428E-04
 -1       559 1.95884E+00 2.09517E-02-3.63038E-04
 -1       560 1.95984E+00 2.05404E-02 3.17894E-04
 -1       561 1.96093E+00 2.05782E-02 1.05821E-03
 -1       562 1.96195E+00 2.10017E-02 1.74340E-03
 -1       563 1.96270E+00 2.17654E-02 2.28831E-03
 -1       564 1.96312E+00 2.27659E-02 2.60014E-03
 -1       565 1.96312E+00 2.38512E-02 2.63095E-03
 -1       566 1.96270E+00 2.48555E-02 2.37644E-03
 -1       567 1.96193E+00 2.56250E-02 1.87536E-03
 -1       568 1.96092E+00 2.60417E-02 1.20399E-03
 -1       569 1.95834E+00 1.83620E-02-7.71608E-04
 -1       570 1.95832E+00 1.89926E-02-7.63862E-04
 -1       571 1.95836E+00 1.80447E-02-7.75124E-04
 -1       572 1.95833E+00 1.86772E-02-7.67811E-04
 -1       573 1.95831E+00 1.93068E-02-7.60429E-04
 -1       574 1.96253E+00 1.84540E-02 2.07094E-03
 -1       575 1.96251E+00 1.90849E-02 2.07810E-03
 -1       576 1.96255E+00 1.81400E-02 2.06723E-03
 -1       577 1.96252E+00 1.87694E-02 2.07448E-03
 -1       578 1.96249E+00 1.94013E-02 2.08102E-03
 -1       579 2.00000E+00 1.13535E-02 1.46190E-03
 -1       580 2.00000E+00 1.05432E-02-1.32371E-04
 -1       581 2.00000E+00 1.17047E-02 1.25684E-03
 -1       582 2.00000E+00 1.08902E-02 5.65636E-04
 -1       583 2.00000E+00 1.02541E-02 3.43637E-06
 -1       584 0.00000E+00 0.00000E+00 0.00000E+00
 -1       585 0.00000E+00 0.00000E+00 0.00000E+00
 -1       586 0.00000E+00 0.00000E+00 0.00000E+00
 -1       587 0.00000E+00 0.00000E+00 0.00000E+00
 -1       588 0.00000E+00 0.00000E+00 0.00000E+00
 -1       589 1.96043E+00 2.48318E-02 8.35590E-04
 -1       590 1.96040E+00 2.54635E-02 8.35696E-04
 -1       591 1.96044E+00 2.45159E-02 8.35537E-04
 -1       592 1.96042E+00 2.51477E-02 8.35643E-04
 -1       593 1.96039E+00 2.57794E-02 8.35743E-04
 -1       594 1.70929E-03 3.54974E-04 2.93923E-07
 -1       595 4.73407E-03-4.88205E-03 3.83534E-06
 -1       596 1.71474E-02-7.10176E-03 1.26723E-07
 -1       597 2.00076E-03 1.64893E-03 8.81423E-07
 -1       598 3.04761E-03 3.38500E-03 1.27897E-06
 -1       599 5.00858E-03 5.03614E-03 1.15979E-06
 -1       600 2.29688E-02 5.92636E-03-2.97899E-06
 -1       601 8.36553E-02 9.11524E-02 1.06087E-04
 -1       602 7.92420E-02 6.36761E-02 4.30488E-05
 -1       603 7.01365E-02 3.97573E-02 2.77157E-07
 -1       604 3.18826E-02-2.49024E-03-2.23596E-06
 -1       605 2.36941E-02-5.74045E-03-7.78179E-07
 -1       606 7.46259E-03 6.20927E-03 6.38511E-07
 -1       607 1.13608E-02 7.06309E-03-2.78016E-06
 -1       608 1.64794E-02 7.13150E-03-4.46486E-06
 -1       609 3.06194E-02 3.12928E-03 4.63593E-06
 -1       610 3.87228E-02-1.59749E-03 9.74168E-06
 -1       611 3.46742E-03-3.84792E-03 9.25056E-07
 -1       612 2.32981E-03-2.36858E-03 2.14258E-06
 -1       613 4.69176E-02-7.96119E-03 1.61217E-05
 -1       614 7.24979E-02-4.48018E-02 1.30219E-03
 -1       615 8.66457E-02-1.19147E-01-3.12045E-04
 -1       616 1.09122E-01-1.15163E-01-2.82373E-04
 -1       617 1.27703E-02-7.20052E-03 9.64844E-07
 -1       618 8.19759E-02-7.73940E-02-3.39779E-05
 -1       619 8.42749E-02-1.00880E-01-4.58466E-05
 -1       620 5.88784E-02 2.11096E-02-6.19802E-06
 -1       621 4.38479E-02 5.25342E-03-5.10821E-06
 -1       622 8.60607E-02 1.16904E-01 3.43761E-05
 -1       623 1.06677E-01 1.20562E-01-2.21207E-03
 -1       624 7.74337E-02-5.83428E-02-2.89043E-03
 -1       625 7.86366E-02-6.28446E-02 3.03043E-03
 -1       626 1.01624E-02-6.97937E-03-6.31756E-04
 -1       627 9.60711E-03-6.84474E-03 4.22826E-04
 -1       628 2.66008E-02 4.92414E-03-1.37668E-03
 -1       629 2.65994E-02 4.92236E-03 1.37696E-03
 -1       630 1.74238E-03 8.82203E-04-4.17792E-04
 -1       631 1.74229E-03 8.81239E-04 4.19123E-04
 -1       632 3.47298E-02 1.14446E-03-1.79830E-03
 -1       633 3.47194E-02 1.15267E-03 1.81398E-03
 -1       634 1.95833E-02 6.85329E-03-1.13325E-03
 -1       635 9.25864E-02-1.25751E-01-5.22919E-03
 -1       636 1.95881E-02 6.84856E-03 1.12155E-03
 -1       637 9.24803E-02-1.26920E-01 5.53946E-03
 -1       638 3.56780E-02-6.30067E-04-1.81123E-03
 -1       639 3.56745E-02-6.30811E-04 1.80685E-03
 -1       640 1.79754E-03-9.98286E-04-3.05706E-04
 -1       641 1.79810E-03-1.01290E-03 3.23575E-04
 -1       642 6.17042E-03 5.73375E-03-5.87829E-04
 -1       643 6.16944E-03 5.73377E-03 5.90196E-04
 -1       644 3.86913E-03 4.27638E-03-4.94855E-04
 -1       645 3.86816E-03 4.27637E-03 4.97573E-04
 -1       646 1.43951E-02-7.32215E-03-8.44718E-04
 -1       647 1.43894E-02-7.32199E-03 8.52915E-04
 -1       648 1.37345E-02 7.30489E-03-8.70093E-04
 -1       649 1.37367E-02 7.30437E-03 8.63387E-04
 -1       650 9.00837E-02 1.24095E-01 4.33759E-03
 -1       651 6.77633E-02-3.48749E-02-2.80493E-03
 -1       652 6.41839E-02-2.88866E-02 2.04480E-03
 -1       653 8.53811E-02-1.12723E-01-3.40184E-03
 -1       654 8.50294E-02-1.12444E-01 3.15543E-03
 -1       655 2.72775E-02-4.73742E-03-1.44272E-03
 -1       656 2.72740E-02-4.73626E-03 1.44138E-03
 -1       657 8.89551E-02 1.24340E-01-3.99151E-03
 -1       658 8.33632E-02-8.68658E-02-3.85255E-03
 -1       659 8.33325E-02-8.69299E-02 3.85602E-03
 -1       660 6.56945E-03-5.87946E-03-3.70668E-04
 -1       661 6.10535E-03-5.69162E-03 4.92623E-04
 -1       662 2.45200E-03 2.64096E-03-4.58771E-04
 -1       663 2.45158E-03 2.64082E-03 4.60899E-04
 -1       664 4.09858E-03-4.47181E-03-4.98916E-04
 -1       665 4.10217E-03-4.47512E-03 4.99690E-04
 -1       666 8.25613E-02 8.05810E-02-4.10726E-03
 -1       667 8.25759E-02 8.05857E-02 4.26491E-03
 -1       668 4.40468E-02-5.22162E-03-2.19561E-03
 -1       669 4.40400E-02-5.20511E-03 2.20769E-03
 -1       670 2.00676E-02-6.76389E-03-1.14035E-03
 -1       671 2.00647E-02-6.76139E-03 1.13944E-03
 -1       672 9.41905E-03 6.84375E-03-7.18381E-04
 -1       673 9.41883E-03 6.84299E-03 7.14623E-04
 -1       674 7.60101E-02 5.32046E-02-3.81799E-03
 -1       675 2.61363E-03-2.89406E-03-4.36065E-04
 -1       676 7.60480E-02 5.32367E-02 3.84741E-03
 -1       677 2.61290E-03-2.89397E-03 4.43618E-04
 -1       678 5.59454E-02-1.73790E-02-1.78143E-03
 -1       679 5.41736E-02-1.50806E-02 2.30212E-03
 -1       680 8.52091E-02 1.08829E-01-3.18535E-03
 -1       681 8.52060E-02 1.09219E-01 3.36677E-03
 -1       682 6.60671E-02 3.11634E-02-3.41375E-03
 -1       683 6.60958E-02 3.11694E-02 3.40010E-03
 -1       684 5.38737E-02 1.45604E-02-2.73478E-03
 -1       685 5.38743E-02 1.45565E-02 2.72376E-03
 -1       686 4.46911E-02 5.47186E-03-2.74033E-03
 -1       687 4.46897E-02 5.47182E-03 2.73231E-03
 -1       688 1.40827E-01 1.18233E-01-2.15807E-02
 -1       689 1.19226E-01 1.20722E-01 1.45756E-02
 -1       690 1.24582E-01-1.20300E-01-1.67100E-02
 -1       691 1.23265E-01-1.19998E-01 1.67385E-02
 -1       692 1.60690E-01-1.15572E-01-2.20522E-02
 -1       693 1.60192E-01-1.18192E-01-3.53775E-02
 -1       694 1.15314E-01-1.28501E-01-1.67515E-02
 -1       695 1.71534E-01 1.16502E-01-3.97486E-02
 -1       696 1.70601E-01 1.13812E-01-2.58073E-02
 -1       697 1.20882E-01 1.28395E-01-1.82474E-02
 -1       698 1.14872E-01-1.28400E-01 1.65217E-02
 -1       699 1.59701E-01-1.17546E-01 3.47652E-02
 -1       700 1.61027E-01-1.16304E-01 2.20446E-02
 -1       701 8.96977E-02-1.28446E-01 6.43212E-03
 -1       702 9.86332E-02-1.30540E-01 9.40313E-03
 -1       703 1.03270E-01-1.24416E-01 8.85384E-03
 -1       704 8.51873E-02-1.07363E-01 5.65894E-03
 -1       705 8.63582E-02-1.19531E-01 5.26094E-03
 -1       706 8.68642E-02-1.20806E-01 3.59931E-03
 -1       707 8.27893E-02-7.87700E-02 6.04698E-03
 -1       708 8.44006E-02-9.35568E-02 5.87457E-03
 -1       709 8.40650E-02-1.00252E-01 3.53189E-03
 -1       710 7.62929E-02-5.31565E-02 5.37375E-03
 -1       711 8.02375E-02-6.65072E-02 5.56491E-03
 -1       712 8.12949E-02-7.44310E-02 3.36899E-03
 -1       713 6.32587E-02-2.64537E-02 4.22689E-03
 -1       714 6.87753E-02-3.58571E-02 4.56151E-03
 -1       715 7.28032E-02-4.44569E-02 4.33578E-03
 -1       716 7.57074E-02-5.35285E-02 2.15954E-03
 -1       717 6.84299E-02-3.63298E-02 1.68847E-03
 -1       718 5.24930E-02-1.26196E-02 3.77291E-03
 -1       719 5.81724E-02-1.92674E-02 4.21483E-03
 -1       720 5.91615E-02-2.13989E-02 2.21201E-03
 -1       721 4.20975E-02-3.26219E-03 3.17322E-03
 -1       722 4.73825E-02-7.58363E-03 3.56272E-03
 -1       723 4.89836E-02-9.59873E-03 2.23248E-03
 -1       724 3.27274E-02 2.53863E-03 2.54721E-03
 -1       725 3.73446E-02-6.52875E-05 2.86909E-03
 -1       726 3.92075E-02-1.61808E-03 2.00747E-03
 -1       727 2.47575E-02 5.77014E-03 1.96976E-03
 -1       728 2.86495E-02 4.37404E-03 2.23367E-03
 -1       729 3.04544E-02 3.35178E-03 1.55949E-03
 -1       730 1.80728E-02 7.23844E-03 1.56886E-03
 -1       731 2.12167E-02 6.69374E-03 1.76609E-03
 -1       732 2.29066E-02 6.09949E-03 1.24184E-03
 -1       733 1.26456E-02 7.39528E-03 1.24630E-03
 -1       734 1.51271E-02 7.44356E-03 1.38561E-03
 -1       735 1.64655E-02 7.23116E-03 9.78651E-04
 -1       736 8.56093E-03 6.73230E-03 1.01593E-03
 -1       737 1.04671E-02 7.14021E-03 1.12599E-03
 -1       738 1.14314E-02 7.16313E-03 7.86378E-04
 -1       739 5.52593E-03 5.50002E-03 8.49806E-04
 -1       740 6.91473E-03 6.16322E-03 9.24400E-04
 -1       741 7.65323E-03 6.34692E-03 6.44043E-04
 -1       742 3.42826E-03 3.95805E-03 7.28528E-04
 -1       743 4.36221E-03 4.75798E-03 7.80001E-04
 -1       744 4.89905E-03 5.04210E-03 5.35194E-04
 -1       745 2.15747E-03 2.24938E-03 6.70036E-04
 -1       746 2.70303E-03 3.12432E-03 6.97687E-04
 -1       747 3.05893E-03 3.47752E-03 4.74739E-04
 -1       748 1.62831E-03 4.41441E-04 6.31414E-04
 -1       749 1.80270E-03 1.35890E-03 6.42650E-04
 -1       750 1.99945E-03 1.76600E-03 4.34471E-04
 -1       751 1.84197E-03-1.42947E-03 5.92555E-04
 -1       752 1.65189E-03-5.17601E-04 5.85018E-04
 -1       753 1.66831E-03-6.51974E-05 3.67963E-04
 -1       754 2.80220E-03-3.26288E-03 6.92152E-04
 -1       755 2.22981E-03-2.38963E-03 6.58565E-04
 -1       756 2.09260E-03-1.96166E-03 3.75464E-04
 -1       757 4.50707E-03-4.86962E-03 7.89101E-04
 -1       758 3.53507E-03-4.07383E-03 7.33705E-04
 -1       759 3.26139E-03-3.70503E-03 4.68382E-04
 -1       760 6.89411E-03-6.14667E-03 8.75867E-04
 -1       761 5.51066E-03-5.48979E-03 8.04878E-04
 -1       762 5.01395E-03-5.11088E-03 4.92418E-04
 -1       763 1.05834E-02-7.12747E-03 9.77053E-04
 -1       764 8.66784E-03-6.72995E-03 8.81653E-04
 -1       765 7.69628E-03-6.33958E-03 4.57639E-04
 -1       766 1.54952E-02-7.44336E-03 1.38889E-03
 -1       767 1.29695E-02-7.42860E-03 1.24871E-03
 -1       768 1.18255E-02-7.18543E-03 6.21861E-04
 -1       769 2.14776E-02-6.66003E-03 1.78650E-03
 -1       770 1.83145E-02-7.22276E-03 1.58305E-03
 -1       771 1.70447E-02-7.19552E-03 9.77748E-04
 -1       772 2.90295E-02-4.25431E-03 2.27876E-03
 -1       773 2.50968E-02-5.70287E-03 2.01044E-03
 -1       774 2.34643E-02-5.97999E-03 1.27897E-03
 -1       775 3.79026E-02 3.66098E-04 2.87741E-03
 -1       776 3.32345E-02-2.30612E-03 2.55467E-03
 -1       777 3.12920E-02-2.98897E-03 1.62040E-03
 -1       778 4.77537E-02 7.73367E-03 3.86746E-03
 -1       779 4.24477E-02 3.34578E-03 3.43331E-03
 -1       780 4.00078E-02 2.05089E-03 2.23023E-03
 -1       781 5.81412E-02 1.89073E-02 4.41486E-03
 -1       782 5.24197E-02 1.23671E-02 3.98067E-03
 -1       783 4.91895E-02 9.59707E-03 2.75424E-03
 -1       784 6.98381E-02 3.71875E-02 5.39443E-03
 -1       785 6.43362E-02 2.74566E-02 4.92687E-03
 -1       786 5.99439E-02 2.19823E-02 3.04288E-03
 -1       787 7.91932E-02 6.13570E-02 5.91039E-03
 -1       788 7.49058E-02 4.85080E-02 5.73869E-03
 -1       789 7.13030E-02 4.14083E-02 3.68699E-03
 -1       790 8.43205E-02 9.00409E-02 6.14058E-03
 -1       791 8.24071E-02 7.55804E-02 6.27522E-03
 -1       792 7.98164E-02 6.61230E-02 3.94682E-03
 -1       793 8.63968E-02 1.18226E-01 5.66016E-03
 -1       794 8.54101E-02 1.05185E-01 5.87497E-03
 -1       795 8.40557E-02 9.50348E-02 3.96325E-03
 -1       796 9.67475E-02 1.29686E-01 8.61443E-03
 -1       797 8.90998E-02 1.26830E-01 6.17410E-03
 -1       798 8.57841E-02 1.18548E-01 3.62769E-03
 -1       799 1.57108E-01 1.18110E-01 3.34008E-02
 -1       800 1.13661E-01 1.28560E-01 1.62409E-02
 -1       801 9.93404E-02 1.23652E-01 7.41046E-03
 -1       802 1.46877E-01-1.12992E-01-7.62168E-03
 -1       803 1.47258E-01-1.13360E-01 7.05009E-03
 -1       804 1.15068E-01-1.16082E-01 7.22568E-03
 -1       805 1.15520E-01-1.16056E-01-7.57571E-03
 -1       806 1.39384E-01 1.13235E-01 4.45581E-03
 -1       807 1.38650E-01 1.14201E-01-9.46233E-03
 -1       808 1.58272E-01 1.16406E-01 2.11167E-02
 -1       809 1.10975E-01 1.18812E-01 4.45118E-03
 -1       810 1.19409E-01 1.18005E-01-8.93213E-03
 -1       811 9.88044E-02-1.30347E-01-9.51334E-03
 -1       812 8.95053E-02-1.28269E-01-6.42080E-03
 -1       813 1.03508E-01-1.24164E-01-8.95159E-03
 -1       814 8.64522E-02-1.19835E-01-5.47470E-03
 -1       815 8.53519E-02-1.07499E-01-5.84719E-03
 -1       816 8.63967E-02-1.21260E-01-3.90366E-03
 -1       817 8.44823E-02-9.35452E-02-5.92576E-03
 -1       818 8.28126E-02-7.87694E-02-6.03707E-03
 -1       819 8.41976E-02-1.00273E-01-3.62893E-03
 -1       820 7.95965E-02-6.40213E-02-5.45547E-03
 -1       821 7.55376E-02-5.08217E-02-5.29037E-03
 -1       822 8.08500E-02-7.18792E-02-3.28584E-03
 -1       823 7.05743E-02-3.91599E-02-5.05194E-03
 -1       824 6.51397E-02-2.92389E-02-4.63898E-03
 -1       825 7.28828E-02-4.55796E-02-2.80568E-03
 -1       826 5.90383E-02-2.05473E-02-3.93947E-03
 -1       827 5.33591E-02-1.36779E-02-3.56130E-03
 -1       828 6.18961E-02-2.52761E-02-2.28155E-03
 -1       829 4.73958E-02-7.60121E-03-3.55469E-03
 -1       830 4.21108E-02-3.28176E-03-3.15603E-03
 -1       831 4.98414E-02-1.05012E-02-1.99204E-03
 -1       832 3.73583E-02-8.04808E-05-2.85098E-03
 -1       833 3.27379E-02 2.53001E-03-2.53573E-03
 -1       834 3.92192E-02-1.63126E-03-1.99037E-03
 -1       835 2.86540E-02 4.37295E-03-2.22993E-03
 -1       836 2.47564E-02 5.77337E-03-1.97508E-03
 -1       837 3.04607E-02 3.35013E-03-1.55120E-03
 -1       838 2.12119E-02 6.69982E-03-1.77678E-03
 -1       839 1.80666E-02 7.24463E-03-1.57885E-03
 -1       840 2.29037E-02 6.10167E-03-1.24905E-03
 -1       841 1.51229E-02 7.44591E-03-1.39407E-03
 -1       842 1.26434E-02 7.39662E-03-1.25296E-03
 -1       843 1.64609E-02 7.23556E-03-9.87707E-04
 -1       844 1.04665E-02 7.14203E-03-1.13120E-03
 -1       845 8.56218E-03 6.73348E-03-1.01833E-03
 -1       846 1.14318E-02 7.16227E-03-7.91943E-04
 -1       847 6.91694E-03 6.16370E-03-9.23809E-04
 -1       848 5.52704E-03 5.50055E-03-8.47181E-04
 -1       849 7.65341E-03 6.34778E-03-6.44137E-04
 -1       850 4.36335E-03 4.75803E-03-7.77318E-04
 -1       851 3.42971E-03 3.95804E-03-7.25995E-04
 -1       852 4.89974E-03 5.04221E-03-5.32606E-04
 -1       853 2.70404E-03 3.12461E-03-6.95339E-04
 -1       854 2.15819E-03 2.24970E-03-6.67893E-04
 -1       855 3.06004E-03 3.47753E-03-4.72173E-04
 -1       856 1.80332E-03 1.35946E-03-6.40894E-04
 -1       857 1.62812E-03 4.42796E-04-6.30066E-04
 -1       858 1.99920E-03 1.76645E-03-4.32524E-04
 -1       859 1.65252E-03-5.09475E-04-5.75751E-04
 -1       860 1.84156E-03-1.42127E-03-5.83035E-04
 -1       861 1.66948E-03-5.72623E-05-3.58672E-04
 -1       862 2.22876E-03-2.38796E-03-6.54821E-04
 -1       863 2.80662E-03-3.26597E-03-6.87687E-04
 -1       864 2.09173E-03-1.95429E-03-3.62841E-04
 -1       865 3.53753E-03-4.07657E-03-7.32567E-04
 -1       866 4.50920E-03-4.86878E-03-7.84982E-04
 -1       867 3.25892E-03-3.70250E-03-4.63856E-04
 -1       868 5.72757E-03-5.58601E-03-7.48897E-04
 -1       869 7.14955E-03-6.22447E-03-8.13803E-04
 -1       870 5.20901E-03-5.21693E-03-4.33940E-04
 -1       871 8.91797E-03-6.82223E-03-9.82079E-04
 -1       872 1.08727E-02-7.20161E-03-1.09017E-03
 -1       873 8.19985E-03-6.49990E-03-4.84648E-04
 -1       874 1.29720E-02-7.42797E-03-1.24234E-03
 -1       875 1.54969E-02-7.44444E-03-1.38586E-03
 -1       876 1.21438E-02-7.23743E-03-7.34607E-04
 -1       877 1.83148E-02-7.22585E-03-1.58526E-03
 -1       878 2.14794E-02-6.66393E-03-1.78789E-03
 -1       879 1.70477E-02-7.19565E-03-9.75667E-04
 -1       880 2.51000E-02-5.70623E-03-2.01186E-03
 -1       881 2.90338E-02-4.25661E-03-2.28045E-03
 -1       882 2.34670E-02-5.98323E-03-1.27999E-03
 -1       883 3.32395E-02-2.30579E-03-2.55798E-03
 -1       884 3.79068E-02 3.68002E-04-2.88182E-03
 -1       885 3.12959E-02-2.98798E-03-1.62323E-03
 -1       886 4.24500E-02 3.34657E-03-3.43931E-03
 -1       887 4.77553E-02 7.73462E-03-3.87656E-03
 -1       888 4.00104E-02 2.05026E-03-2.23604E-03
 -1       889 5.24197E-02 1.23710E-02-3.99066E-03
 -1       890 5.81330E-02 1.89141E-02-4.42194E-03
 -1       891 4.91900E-02 9.59828E-03-2.76401E-03
 -1       892 6.43074E-02 2.74601E-02-4.93585E-03
 -1       893 6.97905E-02 3.71712E-02-5.39808E-03
 -1       894 5.99340E-02 2.19862E-02-3.05333E-03
 -1       895 7.48470E-02 4.84729E-02-5.71939E-03
 -1       896 7.91345E-02 6.13093E-02-5.84564E-03
 -1       897 7.12670E-02 4.13957E-02-3.68902E-03
 -1       898 8.23543E-02 7.55545E-02-6.14432E-03
 -1       899 8.42541E-02 9.00571E-02-5.91861E-03
 -1       900 7.97859E-02 6.60911E-02-3.86360E-03
 -1       901 8.53205E-02 1.04986E-01-5.63308E-03
 -1       902 8.63268E-02 1.18107E-01-5.30597E-03
 -1       903 8.40521E-02 9.48135E-02-3.78437E-03
 -1       904 8.86829E-02 1.26491E-01-5.84024E-03
 -1       905 9.53890E-02 1.31135E-01-8.06799E-03
 -1       906 8.55886E-02 1.17902E-01-3.38749E-03
 -1       907 1.06807E-01 1.25224E-01-9.68173E-03
 -1       908 9.48671E-02 1.23768E-01-3.60632E-03
 -1       909 3.01254E-03-3.37149E-03-2.25097E-04
 -1       910 3.77917E-03-4.15461E-03-2.42782E-04
 -1       911 4.41533E-03-4.67184E-03-2.52657E-04
 -1       912 4.05671E-03-4.37705E-03 2.91631E-06
 -1       913 5.58325E-03-5.40005E-03-1.71345E-04
 -1       914 8.38769E-03 6.53291E-03-3.38388E-04
 -1       915 1.03639E-02 6.94808E-03-3.77194E-04
 -1       916 9.22938E-03 6.72915E-03-5.76925E-07
 -1       917 6.79629E-03 5.97154E-03-3.05933E-04
 -1       918 1.25037E-02 7.18794E-03-4.10516E-04
 -1       919 6.45937E-02 2.93963E-02-5.71860E-06
 -1       920 6.80392E-02 3.53851E-02-1.77378E-03
 -1       921 6.23968E-02 2.58198E-02-1.60093E-03
 -1       922 5.63395E-02 1.77651E-02-1.43513E-03
 -1       923 7.30929E-02 4.62249E-02-1.84694E-03
 -1       924 6.24070E-02 2.58191E-02 1.58756E-03
 -1       925 6.80569E-02 3.53880E-02 1.76711E-03
 -1       926 5.63402E-02 1.77611E-02 1.42366E-03
 -1       927 7.31114E-02 4.62339E-02 1.85210E-03
 -1       928 1.03640E-02 6.94857E-03 3.72023E-04
 -1       929 8.38631E-03 6.53308E-03 3.37617E-04
 -1       930 6.79526E-03 5.97148E-03 3.07817E-04
 -1       931 1.25043E-02 7.18809E-03 4.04474E-04
 -1       932 2.47147E-03-2.62543E-03-2.13574E-04
 -1       933 2.82475E-03-3.12323E-03 4.23384E-07
 -1       934 2.00310E-03-1.68845E-03-1.53224E-04
 -1       935 7.49002E-02-5.13535E-02-6.77111E-04
 -1       936 7.77750E-02-6.05045E-02 3.89548E-05
 -1       937 7.00566E-02-3.96530E-02-8.26059E-04
 -1       938 6.58635E-02-3.19124E-02-3.26172E-04
 -1       939 9.24237E-02-1.20578E-01-2.01893E-04
 -1       940 8.88395E-02-1.22019E-01-2.26784E-03
 -1       941 9.89962E-02-1.20248E-01-3.76429E-03
 -1       942 9.89691E-02-1.20404E-01 3.68533E-03
 -1       943 8.85209E-02-1.22486E-01 1.97358E-03
 -1       944 8.49053E-02-1.11103E-01-1.69227E-04
 -1       945 8.46965E-02-1.06532E-01-1.67114E-03
 -1       946 8.55620E-02-1.16047E-01-2.08253E-03
 -1       947 8.56131E-02-1.15529E-01 1.51872E-03
 -1       948 8.45297E-02-1.06497E-01 1.49991E-03
 -1       949 1.14183E-02-7.10691E-03-3.36175E-04
 -1       950 9.89265E-03-6.87438E-03-9.59388E-05
 -1       951 1.11139E-02-7.06299E-03 2.30380E-04
 -1       952 1.35735E-02-7.25137E-03-4.08135E-04
 -1       953 1.35687E-02-7.24950E-03 4.12447E-04
 -1       954 1.57209E-02-7.22862E-03-4.48194E-04
 -1       955 1.48370E-02-7.23812E-03 9.35768E-08
 -1       956 1.57182E-02-7.22974E-03 4.52413E-04
 -1       957 8.32214E-02-8.95531E-02-3.43831E-05
 -1       958 8.25685E-02-8.19798E-02-1.85332E-03
 -1       959 8.37529E-02-9.39617E-02-1.96599E-03
 -1       960 8.37074E-02-9.40545E-02 1.93204E-03
 -1       961 8.25423E-02-8.20030E-02 1.82185E-03
 -1       962 7.98255E-02-6.75732E-02-1.50456E-03
 -1       963 8.03347E-02-7.00170E-02 1.52145E-03
 -1       964 5.37222E-02 1.48811E-02-5.65181E-06
 -1       965 3.96139E-02 2.03973E-03-9.91677E-04
 -1       966 3.37164E-02-1.57639E-03-8.55297E-04
 -1       967 3.75304E-02 7.04702E-04-2.55746E-06
 -1       968 3.37149E-02-1.57605E-03 8.51099E-04
 -1       969 3.96116E-02 2.03970E-03 9.85493E-04
 -1       970 4.42231E-02 5.45263E-03 1.34451E-03
 -1       971 4.87346E-02 9.55140E-03 1.23021E-03
 -1       972 4.42238E-02 5.45215E-03-1.35403E-03
 -1       973 4.87345E-02 9.55138E-03-1.24107E-03
 -1       974 8.73064E-02 1.20297E-01 1.79174E-03
 -1       975 9.58864E-02 1.21584E-01 2.32516E-03
 -1       976 9.07439E-02 1.21853E-01-3.57451E-04
 -1       977 8.69916E-02 1.19889E-01-1.54307E-03
 -1       978 8.47726E-02 1.04629E-01 1.00493E-04
 -1       979 8.53516E-02 1.12692E-01-1.79607E-03
 -1       980 8.44562E-02 9.96912E-02-1.56010E-03
 -1       981 8.44687E-02 9.99140E-02 1.76834E-03
 -1       982 8.53086E-02 1.12866E-01 1.92490E-03
 -1       983 7.97019E-03-6.39725E-03-5.73116E-06
 -1       984 5.57375E-03 5.37780E-03-2.81687E-04
 -1       985 6.14282E-03 5.66248E-03 9.50471E-07
 -1       986 5.57321E-03 5.37760E-03 2.84161E-04
 -1       987 3.43982E-03 3.82859E-03-2.39587E-04
 -1       988 4.40839E-03 4.65781E-03-2.55347E-04
 -1       989 3.90614E-03 4.23935E-03 1.41521E-06
 -1       990 4.40788E-03 4.65758E-03 2.57925E-04
 -1       991 3.43930E-03 3.82852E-03 2.42338E-04
 -1       992 1.79602E-02 7.02045E-03-5.33488E-04
 -1       993 2.12275E-02 6.39767E-03-6.01889E-04
 -1       994 1.95042E-02 6.75298E-03-5.09823E-06
 -1       995 2.12307E-02 6.39653E-03 5.90549E-04
 -1       996 1.79614E-02 7.01967E-03 5.22342E-04
 -1       997 2.65770E-02 4.79643E-03 2.55358E-07
 -1       998 2.47161E-02 5.45897E-03-6.46606E-04
 -1       999 2.85358E-02 4.06897E-03-7.29126E-04
 -1      1000 2.85335E-02 4.06819E-03 7.34253E-04
 -1      1001 2.47166E-02 5.45738E-03 6.43407E-04
 -1      1002 8.17987E-02 7.74803E-02 6.44832E-05
 -1      1003 8.30850E-02 8.58244E-02-2.01380E-03
 -1      1004 8.09313E-02 7.18010E-02-1.89669E-03
 -1      1005 8.09440E-02 7.18114E-02 2.00846E-03
 -1      1006 8.30770E-02 8.58257E-02 2.19475E-03
 -1      1007 7.75609E-02 5.83906E-02 1.98549E-03
 -1      1008 7.49543E-02 5.10490E-02 8.08774E-06
 -1      1009 7.75399E-02 5.83649E-02-1.93614E-03
 -1      1010 2.47179E-03-2.62604E-03 2.19065E-04
 -1      1011 3.01281E-03-3.37183E-03 2.28251E-04
 -1      1012 3.77907E-03-4.15588E-03 2.45090E-04
 -1      1013 4.41540E-03-4.67348E-03 2.57840E-04
 -1      1014 2.95007E-02-3.66789E-03-7.69786E-04
 -1      1015 2.54183E-02-5.26378E-03-6.81509E-04
 -1      1016 2.75368E-02-4.45654E-03-9.28941E-07
 -1      1017 2.54164E-02-5.26305E-03 6.79981E-04
 -1      1018 2.94995E-02-3.66748E-03 7.66290E-04
 -1      1019 2.18211E-02-6.28162E-03-6.07237E-04
 -1      1020 2.18197E-02-6.28008E-03 6.06110E-04
 -1      1021 2.02594E-02-6.59703E-03-6.01755E-07
 -1      1022 1.85589E-02-6.93587E-03 5.38806E-04
 -1      1023 1.85591E-02-6.93586E-03-5.38339E-04
 -1      1024 1.37397E-02 7.22682E-03-3.59198E-06
 -1      1025 1.50714E-02 7.23246E-03 4.55789E-04
 -1      1026 1.50704E-02 7.23340E-03-4.63385E-04
 -1      1027 3.45324E-02 1.01924E-03 7.89754E-06
 -1      1028 3.26034E-02 2.15144E-03-8.44569E-04
 -1      1029 3.66637E-02-2.09009E-04-9.42645E-04
 -1      1030 3.66585E-02-2.01498E-04 9.60438E-04
 -1      1031 3.25985E-02 2.15339E-03 8.56346E-04
 -1      1032 4.27285E-02-4.48663E-03 1.41659E-05
 -1      1033 4.54406E-02-6.58238E-03 1.14538E-03
 -1      1034 4.13110E-02-3.33758E-03 1.04826E-03
 -1      1035 4.13156E-02-3.34819E-03-1.03047E-03
 -1      1036 4.54358E-02-6.58808E-03-1.12336E-03
 -1      1037 6.35660E-03-5.75558E-03 6.66020E-05
 -1      1038 2.00485E-03-1.69550E-03 1.64702E-04
 -1      1039 1.82273E-03-1.00167E-03 8.79455E-06
 -1      1040 5.13367E-02-1.21896E-02-7.98549E-04
 -1      1041 5.49568E-02-1.63983E-02 2.90261E-04
 -1      1042 5.04546E-02-1.12418E-02 1.07345E-03
 -1      1043 5.99695E-02-2.28412E-02-9.28763E-06
 -1      1044 1.80740E-03 1.00179E-03 5.69758E-07
 -1      1045 1.72750E-03 6.18018E-04-2.08536E-04
 -1      1046 1.86089E-03 1.26418E-03-2.09654E-04
 -1      1047 1.86082E-03 1.26371E-03 2.11116E-04
 -1      1048 1.72747E-03 6.17340E-04 2.09393E-04
 -1      1049 1.70288E-03-3.19821E-04-1.51845E-04
 -1      1050 1.70277E-03-3.26766E-04 1.60742E-04
 -1      1051 5.37936E-03-5.29310E-03 2.35871E-04
 -1      1052 2.20720E-03 2.13941E-03-2.22289E-04
 -1      1053 2.73501E-03 3.00888E-03-2.33600E-04
 -1      1054 2.43059E-03 2.53262E-03 1.10123E-06
 -1      1055 2.73469E-03 3.00871E-03 2.35957E-04
 -1      1056 2.20685E-03 2.13929E-03 2.24346E-04
 -1      1057 5.09238E-01 2.96942E-05 9.59255E-02
 -1      1058 3.19984E-01-6.90882E-02 9.28016E-02
 -1      1059 3.20308E-01 6.87351E-02 9.31710E-02
 -1      1060 9.97353E-01 1.14741E-03 9.51047E-02
 -1      1061 2.40360E-01-1.21733E-01 7.42523E-02
 -1      1062 2.40793E-01 1.21723E-01 7.48353E-02
 -1      1063 1.96017E+00 1.29945E-02 1.76278E-03
 -1      1064 1.50513E+00 3.33756E-03 1.05071E-01
 -1      1065 1.95990E+00 1.49972E-02 7.15081E-04
 -1      1066 3.62367E-01-9.87899E-02 9.36234E-02
 -1      1067 5.41276E-01-6.87168E-02 9.64344E-02
 -1      1068 3.63127E-01 9.84012E-02 9.44127E-02
 -1      1069 5.27529E-01 6.63165E-02 9.67825E-02
 -1      1070 2.91990E-01-1.56420E-04 9.70777E-02
 -1      1071 7.11305E-01 2.73946E-02 9.53192E-02
 -1      1072 1.96070E+00 1.68465E-02 8.29449E-04
 -1      1073 5.04241E-01 1.00188E-01 9.88212E-02
 -1      1074 5.17503E-01-1.01862E-01 9.83316E-02
 -1      1075 7.75019E-01-6.45720E-02 9.49453E-02
 -1      1076 1.16214E-01-1.20017E-01 3.39369E-02
 -1      1077 1.16467E-01 1.20939E-01 3.45282E-02
 -1      1078 1.21298E+00 8.85780E-02 9.52632E-02
 -1      1079 1.22049E+00-8.21452E-02 9.50428E-02
 -1      1080 2.71954E-01 1.32805E-01 7.59794E-02
 -1      1081 2.71572E-01-1.32856E-01 7.57703E-02
 -1      1082 1.96593E+00-2.05514E-03 4.04152E-03
 -1      1083 1.96588E+00 2.39215E-02 2.78752E-03
 -1      1084 1.36678E-01 3.77999E-02 8.19135E-02
 -1      1085 1.35708E-01-3.84946E-02 8.18537E-02
 -1      1086 2.13329E-03 3.15866E-03 6.28897E-04
 -1      1087 2.07102E-03-3.10751E-03 6.14457E-04
 -1      1088 1.67015E-02 4.79168E-03 1.66991E-03
 -1      1089 1.67337E-02-4.79485E-03 1.67135E-03
 -1      1090 5.37599E-02-3.35782E-02 5.37747E-03
 -1      1091 5.38820E-02 3.37317E-02 5.52182E-03
 -1      1092 9.35057E-01 9.55094E-02 9.46115E-02
 -1      1093 4.27493E-02 1.24915E-02 3.93005E-03
 -1      1094 4.26668E-02-1.24400E-02 3.92384E-03
 -1      1095 1.06201E-02-6.03051E-03 1.26906E-03
 -1      1096 1.05974E-02 6.01270E-03 1.26567E-03
 -1      1097 9.04966E-04-1.18436E-03 5.73375E-04
 -1      1098 7.02297E-02 7.22693E-02 1.09032E-02
 -1      1099 6.99353E-02-7.19351E-02 1.10012E-02
 -1      1100 1.62198E+00 9.71987E-02 1.06334E-01
 -1      1101 1.62118E+00-8.81181E-02 1.04317E-01
 -1      1102 1.95897E+00 1.43247E-02 3.79083E-04
 -1      1103 1.96074E+00 1.32852E-02 1.55628E-03
 -1      1104 9.15632E-04 1.20462E-03 5.69409E-04
 -1      1105 5.25681E-03-5.08853E-03 8.78648E-04
 -1      1106 5.24672E-03 5.06909E-03 8.78037E-04
 -1      1107 2.85172E-02-2.85710E-04 2.63777E-03
 -1      1108 2.84709E-02 2.92008E-04 2.64579E-03
 -1      1109 1.46438E-01-1.47709E-01 3.59233E-02
 -1      1110 1.46678E-01 1.47692E-01 3.65454E-02
 -1      1111 3.89712E-01 2.73946E-02 9.62964E-02
 -1      1112 3.99872E-01-2.97921E-02 9.62465E-02
 -1      1113 1.95938E+00 1.58404E-02-1.04543E-04
 -1      1114 1.95950E+00 1.78420E-02-1.01842E-05
 -1      1115 7.65272E-01 8.71859E-02 9.52288E-02
 -1      1116 3.56841E-01-1.10454E-01 9.69513E-02
 -1      1117 3.58494E-01 1.10043E-01 9.69498E-02
 -1      1118 6.63915E-01-3.24797E-02 9.54210E-02
 -1      1119 9.96343E-01-1.10034E-01 9.40091E-02
 -1      1120 1.96141E+00 1.60881E-02 1.26024E-03
 -1      1121 1.34333E-01-7.73059E-02 6.85354E-02
 -1      1122 1.33113E-01 7.68203E-02 6.83976E-02
 -1      1123 1.95851E+00 1.66234E-02 6.10062E-04
 -1      1124 1.96107E+00 8.32362E-03 2.42472E-03
 -1      1125 4.50106E-01-7.87529E-02 9.66306E-02
 -1      1126 4.41421E-01 7.74701E-02 9.67983E-02
 -1      1127 1.76937E+00 3.02824E-03 1.28110E-01
 -1      1128 6.75969E-01-1.08660E-01 9.55256E-02
 -1      1129 1.95919E+00 1.47244E-02-1.02426E-04
 -1      1130 1.96142E+00 1.79163E-02 1.29036E-03
 -1      1131 6.05374E-01 3.22718E-02 9.57801E-02
 -1      1132 1.34931E+00-1.39405E-01 9.24774E-02
 -1      1133 1.39702E+00 1.37660E-01 9.40640E-02
 -1      1134 2.92194E-01 9.50920E-02 8.76432E-02
 -1      1135 2.91392E-01-9.50815E-02 8.72633E-02
 -1      1136 1.22681E+00 2.98542E-03 9.66018E-02
 -1      1137 2.83519E-01 3.83383E-02 9.48916E-02
 -1      1138 2.94224E-01-3.67059E-02 9.55472E-02
 -1      1139 1.95747E+00-2.69985E-02 9.00396E-03
 -1      1140 1.95425E+00 4.80296E-02 7.55549E-03
 -1      1141 4.55585E-01-1.15176E-01 1.01772E-01
 -1      1142 4.54401E-01 1.15060E-01 1.02361E-01
 -1      1143 1.72501E+00 1.42113E-01 8.87216E-02
 -1      1144 1.71652E+00-1.31639E-01 8.64144E-02
 -1      1145 1.52314E-01 1.12065E-01 5.99481E-02
 -1      1146 1.50254E-01-1.12281E-01 5.92926E-02
 -1      1147 5.10326E-01-3.51238E-02 9.58815E-02
 -1      1148 1.84379E-01 6.41731E-04 9.29341E-02
 -1      1149 1.96140E+00 1.48489E-02 1.37734E-03
 -1      1150 2.31033E-01 7.15694E-02 8.78163E-02
 -1      1151 2.30270E-01-7.19760E-02 8.78296E-02
 -1      1152 6.26108E-01 1.03376E-01 9.67626E-02
 -1      1153 5.67008E-02 2.79120E-02 5.56638E-03
 -1      1154 5.65500E-02-2.80159E-02 5.45858E-03
 -1      1155 4.13665E-01 5.98759E-05 9.65597E-02
 -1      1156 4.81873E-01 3.05321E-02 9.61610E-02
 -1      1157 8.85946E-02-1.12961E-01 1.63714E-02
 -1      1158 8.90435E-02 1.12883E-01 1.68844E-02
 -1      1159 1.64523E-02-6.23871E-03 1.77166E-03
 -1      1160 1.64167E-02 6.22395E-03 1.76923E-03
 -1      1161 1.10131E+00 1.32245E-01 9.38816E-02
 -1      1162 1.80813E-03-2.64296E-03 7.00222E-04
 -1      1163 6.92567E-02 6.00948E-02 7.94472E-03
 -1      1164 6.89547E-02-6.01634E-02 7.58516E-03
 -1      1165 1.81925E-03 2.63462E-03 7.04603E-04
 -1      1166 2.79684E-01 1.31840E-01 8.00899E-02
 -1      1167 2.79262E-01-1.32630E-01 7.98768E-02
 -1      1168 4.05193E-03 4.66843E-03 8.58409E-04
 -1      1169 4.05295E-03-4.67333E-03 8.58412E-04
 -1      1170 2.57137E-02 3.35130E-03 2.48839E-03
 -1      1171 2.57534E-02-3.35446E-03 2.50272E-03
 -1      1172 1.95951E+00 1.41056E-02 9.85980E-04
 -1      1173 1.96013E+00 1.59078E-02 5.66511E-04
 -1      1174 1.97643E+00 1.05450E-02 2.19136E-03
 -1      1175 1.96171E+00 1.69433E-02 1.43195E-03
 -1      1176 3.04225E-01 1.12694E-01 8.54323E-02
 -1      1177 3.03504E-01-1.12722E-01 8.49857E-02
 -1      1178 8.27638E-01-1.36497E-02 9.49852E-02
 -1      1179 9.41751E-04 6.83909E-06 6.42361E-04
 -1      1180 8.79791E-03-6.33739E-03 1.20450E-03
 -1      1181 8.77268E-03 6.32179E-03 1.19858E-03
 -1      1182 4.00359E-02 6.09700E-03 3.75302E-03
 -1      1183 3.99835E-02-6.11149E-03 3.72805E-03
 -1      1184 1.99989E-01 1.47967E-01 5.27275E-02
 -1      1185 2.00379E-01 1.41508E-01 5.83726E-02
 -1      1186 1.98501E-01-1.48392E-01 5.21029E-02
 -1      1187 2.00374E-01-1.41038E-01 5.79400E-02
 -1      1188 1.96049E+00 1.76903E-02 6.74201E-04
 -1      1189 1.13632E+00-1.35808E-01 9.31539E-02
 -1      1190 8.41527E-01-1.15763E-01 9.42223E-02
 -1      1191 6.99267E-02-7.14158E-02 1.67957E-02
 -1      1192 7.00520E-02 7.13341E-02 1.71950E-02
 -1      1193 4.23686E-01-9.44968E-02 9.80559E-02
 -1      1194 4.27174E-01 9.45279E-02 9.85336E-02
 -1      1195 8.82367E-01 4.30606E-02 9.49917E-02
 -1      1196 1.05955E+00 6.13069E-02 9.50088E-02
 -1      1197 1.95889E+00-3.40136E-03 5.23250E-03
 -1      1198 1.95647E+00 2.68045E-02 2.94716E-03
 -1      1199 3.05878E-02 1.11728E-02 2.74836E-03
 -1      1200 3.06896E-02-1.12346E-02 2.78517E-03
 -1      1201 7.90337E-03-4.02334E-03 8.64521E-04
 -1      1202 7.86896E-03 4.00176E-03 8.38779E-04
 -1      1203 5.84011E-04-1.38383E-03 3.43252E-04
 -1      1204 1.95919E+00 1.67199E-02-2.83682E-04
 -1      1205 4.43447E-02-3.21005E-02 5.34521E-03
 -1      1206 4.44493E-02 3.21308E-02 5.42823E-03
 -1      1207 7.46198E-04 1.59419E-03 4.01875E-04
 -1      1208 1.75803E-03 2.65791E-03 4.36474E-04
 -1      1209 1.82623E-03-2.67931E-03 4.36340E-04
 -1      1210 1.32112E-02 2.81673E-03 1.19987E-03
 -1      1211 1.32287E-02-2.82904E-03 1.22546E-03
 -1      1212 1.96428E+00 1.08138E-02 2.48627E-03
 -1      1213 2.44316E-04 1.81352E-04 3.42040E-04
 -1      1214 4.07523E-03-3.76618E-03 6.12998E-04
 -1      1215 4.02401E-03 3.73149E-03 5.97401E-04
 -1      1216 2.07839E-02 8.91650E-04 1.80016E-03
 -1      1217 2.07557E-02-8.86259E-04 1.81111E-03
 -1      1218 1.07190E+00-5.63851E-02 9.49275E-02
 -1      1219 1.95864E+00 1.84754E-02-5.71527E-04
 -1      1220 1.95713E+00 2.07346E-02-1.51368E-03
 -1      1221 1.96221E+00 2.43590E-02 2.03284E-03
 -1      1222 1.95961E+00 2.47375E-02 2.78025E-04
 -1      1223 1.96118E+00 2.47223E-02 1.34061E-03
 -1      1224 1.95862E+00 2.42619E-02-4.06618E-04
 -1      1225 1.96341E+00 1.96675E-02 2.70919E-03
 -1      1226 1.95750E+00 1.96284E-02-1.29606E-03
 -1      1227 1.96377E+00 2.06954E-02 2.98481E-03
 -1      1228 1.96377E+00 2.20713E-02 3.02610E-03
 -1      1229 1.95764E+00 2.32848E-02-1.09896E-03
 -1      1230 1.96341E+00 2.31662E-02 2.80896E-03
 -1      1231 1.96230E+00 1.85361E-02 1.91347E-03
 -1      1232 1.95712E+00 2.22465E-02-1.47929E-03
 -1      1233 6.08812E-01 1.62321E-04 9.56380E-02
 -1      1234 2.15579E-01-9.78833E-02 7.90640E-02
 -1      1235 2.16783E-01 9.76138E-02 7.96491E-02
 -1      1236 1.92496E+00-4.77911E-02 2.15316E-02
 -1      1237 1.92253E+00 6.50127E-02 1.88744E-02
 -1      1238 4.00600E-01 5.50177E-02 9.58735E-02
 -1      1239 4.02772E-01-5.54271E-02 9.56096E-02
 -1      1240 1.54020E+00 1.71017E-01 8.76794E-02
 -1      1241 1.51996E+00-1.67141E-01 8.64161E-02
 -1      1242 1.38095E+00 6.87089E-02 9.86265E-02
 -1      1243 1.37898E+00-6.39177E-02 9.85474E-02
 -1      1244 6.58001E-01-6.95065E-02 9.56252E-02
 -1      1245 7.25478E-01 1.35653E-01 9.51573E-02
 -1      1246 8.50198E-01 1.37586E-01 9.43855E-02
 -1      1247 1.98072E+00-9.57942E-03 2.93126E-03
 -1      1248 1.98029E+00 3.01710E-02 1.36828E-03
 -1      1249 6.76125E-02 4.65175E-02 6.92979E-03
 -1      1250 6.75547E-02-4.65606E-02 6.96610E-03
 -1      1251 1.05929E-01 1.37651E-01 2.13214E-02
 -1      1252 1.05541E-01-1.37180E-01 2.10195E-02
 -1      1253 2.25946E-02-5.35029E-03 2.31311E-03
 -1      1254 2.25530E-02 5.33739E-03 2.31361E-03
 -1      1255 3.07622E-03-3.95184E-03 8.42375E-04
 -1      1256 3.08839E-03 3.94830E-03 8.41668E-04
 -1      1257 6.47994E-01 6.46192E-02 9.58316E-02
 -1      1258 1.25334E+00 1.49388E-01 9.28796E-02
 -1      1259 1.95990E+00 1.68003E-02 2.75377E-04
 -1      1260 3.68225E-01-8.20472E-02 9.40958E-02
 -1      1261 3.68360E-01 8.21775E-02 9.42122E-02
 -1      1262 9.18328E-01-6.03910E-02 9.46516E-02
 -1      1263 1.96081E+00 1.76817E-02 2.02597E-03
 -1      1264 1.95906E+00 1.44282E-02-5.48441E-04
 -1      1265 1.96234E+00 1.33354E-02 1.60494E-03
 -1      1266 3.40679E-01-1.13735E-01 9.73874E-02
 -1      1267 3.67429E-01-1.12636E-01 1.02173E-01
 -1      1268 5.28822E-01-1.40756E-01 9.98277E-02
 -1      1269 4.24708E-01-1.20766E-01 1.04591E-01
 -1      1270 4.04225E-01-1.09310E-01 1.01427E-01
 -1      1271 3.41970E-01 1.15733E-01 9.90173E-02
 -1      1272 3.69456E-01 1.13659E-01 1.02338E-01
 -1      1273 5.28816E-01 1.40812E-01 1.00737E-01
 -1      1274 4.24511E-01 1.21134E-01 1.05226E-01
 -1      1275 4.04554E-01 1.09922E-01 1.01944E-01
 -1      1276 1.95880E+00 1.66258E-02-5.87857E-04
 -1      1277 1.95880E+00 1.72276E-02-5.35959E-04
 -1      1278 1.95806E+00 1.84433E-02-9.54165E-04
 -1      1279 1.95851E+00 1.81056E-02-6.73456E-04
 -1      1280 1.95934E+00 1.72878E-02-1.43789E-04
 -1      1281 1.95895E+00 1.77815E-02-3.93741E-04
 -1      1282 1.95908E+00 1.81580E-02-2.90941E-04
 -1      1283 1.96221E+00 1.68828E-02 1.72025E-03
 -1      1284 1.96216E+00 1.73795E-02 1.74243E-03
 -1      1285 1.96286E+00 1.85053E-02 2.29774E-03
 -1      1286 1.96244E+00 1.81769E-02 1.99014E-03
 -1      1287 1.96156E+00 1.74215E-02 1.36370E-03
 -1      1288 1.96201E+00 1.78744E-02 1.67770E-03
 -1      1289 1.96187E+00 1.82272E-02 1.60250E-03
 -1      1290 1.98972E+00 4.10038E-02 5.08406E-05
 -1      1291 1.99137E+00 2.09505E-02 4.53456E-04
 -1      1292 1.99007E+00-2.15027E-02 2.13462E-03
 -1      1293 1.99123E+00-1.12129E-03 1.28111E-03
 -1      1294 1.97975E+00 1.37486E-03 2.27844E-03
 -1      1295 1.98664E+00 9.91634E-03 1.43809E-03
 -1      1296 1.97942E+00 1.92896E-02 1.78845E-03
 -1      1297 1.40668E-01-1.44635E-01 3.07313E-02
 -1      1298 2.12472E-01-1.41410E-01 5.78653E-02
 -1      1299 2.92396E-01-1.23966E-01 8.72090E-02
 -1      1300 2.56243E-01-1.31385E-01 7.42827E-02
 -1      1301 2.34882E-01-1.42564E-01 6.44213E-02
 -1      1302 6.43121E-02-3.16351E-02 5.70415E-02
 -1      1303 5.98825E-02-1.45631E-02 5.89991E-02
 -1      1304 6.64773E-02 3.17596E-02 5.67511E-02
 -1      1305 6.09613E-02 1.41426E-02 5.98178E-02
 -1      1306 1.57843E-01 2.08561E-02 8.85713E-02
 -1      1307 8.73240E-02 1.18111E-04 6.85769E-02
 -1      1308 1.57281E-01-2.06502E-02 8.84102E-02
 -1      1309 1.96003E+00 2.51674E-02 5.76762E-04
 -1      1310 1.96046E+00 2.48986E-02 8.55512E-04
 -1      1311 1.96003E+00 2.44687E-02 5.56755E-04
 -1      1312 1.96082E+00 2.51597E-02 1.10807E-03
 -1      1313 1.96082E+00 2.44613E-02 1.08805E-03
 -1      1314 1.96135E+00 2.43550E-02 1.44763E-03
 -1      1315 1.95950E+00 2.43623E-02 1.91099E-04
 -1      1316 9.16407E-02-1.31574E-01 1.25797E-02
 -1      1317 1.07528E-01-1.42190E-01 1.81965E-02
 -1      1318 1.69460E-01-1.50619E-01 4.26779E-02
 -1      1319 1.25941E-01-1.45792E-01 2.61391E-02
 -1      1320 1.22390E-01-1.43652E-01 2.76785E-02
 -1      1321 8.24433E-02-1.06333E-01 1.02172E-02
 -1      1322 8.76519E-02-1.21887E-01 1.22070E-02
 -1      1323 9.63241E-02-1.26402E-01 1.86133E-02
 -1      1324 7.53488E-02-6.57380E-02 7.89942E-03
 -1      1325 7.83864E-02-8.13211E-02 8.61763E-03
 -1      1326 7.94847E-02-9.29079E-02 1.39190E-02
 -1      1327 7.78116E-02-8.90707E-02 9.79187E-03
 -1      1328 6.84239E-02-6.56825E-02 8.90232E-03
 -1      1329 7.06679E-02-4.52117E-02 7.18517E-03
 -1      1330 7.49323E-02-5.82704E-02 7.68892E-03
 -1      1331 6.80942E-02-5.29336E-02 7.20480E-03
 -1      1332 5.99884E-02-2.59906E-02 5.90345E-03
 -1      1333 6.55251E-02-3.60093E-02 6.50678E-03
 -1      1334 6.20130E-02-3.65624E-02 6.13728E-03
 -1      1335 4.60055E-02-8.24574E-03 4.45096E-03
 -1      1336 5.12546E-02-1.39990E-02 5.03487E-03
 -1      1337 4.12311E-02-9.01044E-03 3.80891E-03
 -1      1338 5.35039E-02-1.83590E-02 5.17739E-03
 -1      1339 4.93664E-02-1.93735E-02 4.65540E-03
 -1      1340 4.04197E-02-3.58374E-03 3.92561E-03
 -1      1341 2.86757E-02 3.60575E-03 2.87030E-03
 -1      1342 3.30329E-02 1.35506E-03 3.27343E-03
 -1      1343 3.38947E-02-2.46704E-03 3.13795E-03
 -1      1344 3.51316E-02-5.62436E-04 3.39826E-03
 -1      1345 2.69694E-02 1.98873E-03 2.55820E-03
 -1      1346 2.29069E-02 5.97394E-03 2.41395E-03
 -1      1347 2.67583E-02 4.70964E-03 2.73980E-03
 -1      1348 2.40414E-02 4.42906E-03 2.39230E-03
 -1      1349 1.66891E-02 6.99326E-03 1.89019E-03
 -1      1350 1.99142E-02 6.48523E-03 2.14424E-03
 -1      1351 1.93151E-02 5.89280E-03 2.02059E-03
 -1      1352 1.03237E-02 6.97465E-03 1.40451E-03
 -1      1353 1.25336E-02 7.15198E-03 1.56884E-03
 -1      1354 9.60622E-03 6.20926E-03 1.22121E-03
 -1      1355 1.38863E-02 6.98069E-03 1.63162E-03
 -1      1356 1.32810E-02 6.21029E-03 1.48392E-03
 -1      1357 8.27752E-03 6.56046E-03 1.25097E-03
 -1      1358 4.55414E-03 5.02800E-03 9.87744E-04
 -1      1359 5.83781E-03 5.71474E-03 1.07838E-03
 -1      1360 6.85566E-03 5.71648E-03 1.01755E-03
 -1      1361 6.64307E-03 5.97978E-03 1.09828E-03
 -1      1362 4.59110E-03 4.89039E-03 8.60714E-04
 -1      1363 3.05357E-03 3.81638E-03 8.98341E-04
 -1      1364 3.98745E-03 4.63397E-03 9.62606E-04
 -1      1365 3.52385E-03 4.31887E-03 8.45311E-04
 -1      1366 1.83932E-03 2.28430E-03 7.94030E-04
 -1      1367 2.43303E-03 3.16782E-03 8.33224E-04
 -1      1368 2.39121E-03 3.28793E-03 7.65289E-04
 -1      1369 1.26142E-03-2.65234E-06 7.48494E-04
 -1      1370 1.33780E-03 9.15616E-04 7.53763E-04
 -1      1371 8.73262E-04 6.22897E-04 6.00032E-04
 -1      1372 1.42561E-03 1.55698E-03 7.32138E-04
 -1      1373 1.28839E-03 1.90173E-03 6.31752E-04
 -1      1374 1.33850E-03-9.18463E-04 7.54264E-04
 -1      1375 2.43167E-03-3.18294E-03 8.32831E-04
 -1      1376 1.84114E-03-2.29765E-03 7.90762E-04
 -1      1377 8.68661E-04-6.04724E-04 6.00869E-04
 -1      1378 1.42544E-03-1.55676E-03 7.30175E-04
 -1      1379 1.27936E-03-1.89857E-03 6.25736E-04
 -1      1380 3.99134E-03-4.64924E-03 9.68138E-04
 -1      1381 3.05431E-03-3.83108E-03 8.99550E-04
 -1      1382 2.37930E-03-3.29280E-03 7.64720E-04
 -1      1383 5.85116E-03-5.73057E-03 1.08241E-03
 -1      1384 4.56297E-03-5.04535E-03 9.85313E-04
 -1      1385 3.52037E-03-4.32270E-03 8.45066E-04
 -1      1386 1.03506E-02-6.99148E-03 1.40789E-03
 -1      1387 8.30020E-03-6.57884E-03 1.25598E-03
 -1      1388 6.87002E-03-5.73736E-03 1.02105E-03
 -1      1389 6.66380E-03-5.99864E-03 1.10496E-03
 -1      1390 4.59578E-03-4.90050E-03 8.63475E-04
 -1      1391 1.25659E-02-7.16593E-03 1.57570E-03
 -1      1392 1.99532E-02-6.50858E-03 2.14766E-03
 -1      1393 1.67271E-02-7.00838E-03 1.89508E-03
 -1      1394 9.63120E-03-6.22096E-03 1.22756E-03
 -1      1395 1.39205E-02-6.99513E-03 1.63791E-03
 -1      1396 1.33126E-02-6.22979E-03 1.48951E-03
 -1      1397 2.68042E-02-4.71953E-03 2.75218E-03
 -1      1398 2.29473E-02-5.99719E-03 2.42307E-03
 -1      1399 1.93481E-02-5.90436E-03 2.01371E-03
 -1      1400 3.30899E-02-1.35671E-03 3.26043E-03
 -1      1401 2.87186E-02-3.60211E-03 2.87349E-03
 -1      1402 2.40830E-02-4.43675E-03 2.39519E-03
 -1      1403 4.60768E-02 8.24939E-03 4.47882E-03
 -1      1404 4.04909E-02 3.57192E-03 3.93643E-03
 -1      1405 2.70224E-02-1.97059E-03 2.56466E-03
 -1      1406 3.51913E-02 5.49384E-04 3.39147E-03
 -1      1407 3.39498E-02 2.46162E-03 3.13563E-03
 -1      1408 5.13517E-02 1.39646E-02 5.00857E-03
 -1      1409 6.56787E-02 3.60466E-02 6.61294E-03
 -1      1410 6.01473E-02 2.59634E-02 5.95958E-03
 -1      1411 4.94751E-02 1.93407E-02 4.64912E-03
 -1      1412 5.36402E-02 1.83495E-02 5.17671E-03
 -1      1413 4.12754E-02 8.97526E-03 3.83164E-03
 -1      1414 7.51621E-02 5.83525E-02 7.66228E-03
 -1      1415 7.07961E-02 4.52062E-02 7.17471E-03
 -1      1416 6.21512E-02 3.66117E-02 6.21431E-03
 -1      1417 7.85809E-02 8.15392E-02 8.64093E-03
 -1      1418 7.56128E-02 6.58379E-02 7.99089E-03
 -1      1419 6.82207E-02 5.28872E-02 7.24697E-03
 -1      1420 8.79185E-02 1.22174E-01 1.25861E-02
 -1      1421 8.29027E-02 1.06417E-01 1.06127E-02
 -1      1422 7.98276E-02 9.25784E-02 1.39107E-02
 -1      1423 7.81626E-02 8.92188E-02 9.88195E-03
 -1      1424 6.85820E-02 6.59061E-02 9.01433E-03
 -1      1425 1.08010E-01 1.42190E-01 1.87191E-02
 -1      1426 9.19289E-02 1.32098E-01 1.29067E-02
 -1      1427 9.67522E-02 1.26828E-01 1.89518E-02
 -1      1428 1.41273E-01 1.44720E-01 3.17345E-02
 -1      1429 2.14202E-01 1.41453E-01 5.85616E-02
 -1      1430 1.70162E-01 1.50047E-01 4.35408E-02
 -1      1431 1.26408E-01 1.45897E-01 2.68576E-02
 -1      1432 1.22795E-01 1.43800E-01 2.81366E-02
 -1      1433 3.23875E-01-1.19455E-01 9.12601E-02
 -1      1434 2.92326E-01 1.24169E-01 8.68709E-02
 -1      1435 2.56505E-01 1.30740E-01 7.46188E-02
 -1      1436 3.22017E-01 1.19941E-01 9.06975E-02
 -1      1437 7.41709E-01-1.43280E-01 9.43553E-02
 -1      1438 6.39544E-01-1.36141E-01 9.60127E-02
 -1      1439 5.95914E-01-1.06356E-01 9.68065E-02
 -1      1440 5.58264E-01-1.31055E-01 9.82936E-02
 -1      1441 4.87066E-01-1.08977E-01 9.98022E-02
 -1      1442 9.26658E-01-1.50619E-01 9.34677E-02
 -1      1443 8.24432E-01-1.46650E-01 9.37459E-02
 -1      1444 7.58528E-01-1.12869E-01 9.46766E-02
 -1      1445 1.17395E+00-1.65148E-01 9.19614E-02
 -1      1446 1.07276E+00-1.60491E-01 9.28194E-02
 -1      1447 9.18689E-01-1.13087E-01 9.40990E-02
 -1      1448 1.00354E+00-1.47967E-01 9.33364E-02
 -1      1449 1.06657E+00-1.22593E-01 9.36821E-02
 -1      1450 1.37415E+00-1.73429E-01 8.74686E-02
 -1      1451 1.27649E+00-1.67287E-01 9.01982E-02
 -1      1452 1.24252E+00-1.37230E-01 9.25755E-02
 -1      1453 1.54224E+00-1.84203E-01 7.70321E-02
 -1      1454 1.45583E+00-1.85978E-01 8.23090E-02
 -1      1455 1.43753E+00-1.55128E-01 8.97312E-02
 -1      1456 1.69979E+00-1.29041E-01 6.79871E-02
 -1      1457 1.62721E+00-1.64766E-01 7.56995E-02
 -1      1458 1.61747E+00-1.55642E-01 8.67973E-02
 -1      1459 1.86739E+00 2.43641E-02 3.83533E-02
 -1      1460 1.81116E+00-4.55049E-02 5.40411E-02
 -1      1461 1.85433E+00-6.41901E-02 7.83330E-02
 -1      1462 1.90876E+00 6.13534E-02 2.27496E-02
 -1      1463 1.86926E+00 4.91923E-02 3.34978E-02
 -1      1464 1.94906E+00 5.37073E-02 1.96508E-02
 -1      1465 1.94657E+00 4.21533E-02 8.50319E-03
 -1      1466 1.93398E+00 5.51123E-02 1.49909E-02
 -1      1467 1.94557E+00 6.18207E-02 1.15149E-02
 -1      1468 1.95706E+00 2.31939E-02 1.75873E-03
 -1      1469 1.95292E+00 3.10346E-02 4.86942E-03
 -1      1470 1.95528E+00 3.57309E-02 4.96174E-03
 -1      1471 1.95906E+00 1.57793E-02-4.11690E-04
 -1      1472 1.95832E+00 1.82471E-02 4.51872E-04
 -1      1473 1.95785E+00 2.01437E-02 1.43720E-03
 -1      1474 1.95921E+00 1.43428E-02-1.00484E-03
 -1      1475 1.95934E+00 1.46536E-02-9.20168E-04
 -1      1476 1.95881E+00 1.51354E-02-9.58305E-05
 -1      1477 1.95903E+00 1.49757E-02-6.35088E-04
 -1      1478 1.95908E+00 1.45101E-02-6.79381E-04
 -1      1479 1.95904E+00 1.43971E-02-3.16996E-04
 -1      1480 1.95883E+00 1.60127E-02-6.53047E-04
 -1      1481 1.95929E+00 1.52439E-02-1.18249E-04
 -1      1482 1.95898E+00 1.55673E-02-5.88118E-04
 -1      1483 1.95930E+00 1.62751E-02-1.99505E-04
 -1      1484 7.68166E-01 1.57657E-01 9.44307E-02
 -1      1485 6.65582E-01 1.50500E-01 9.58392E-02
 -1      1486 4.79864E-01 1.07905E-01 1.00363E-01
 -1      1487 5.52012E-01 1.30298E-01 9.93308E-02
 -1      1488 5.64691E-01 1.02430E-01 9.79041E-02
 -1      1489 6.14594E-01 1.33002E-01 9.71348E-02
 -1      1490 6.75436E-01 1.19502E-01 9.59255E-02
 -1      1491 9.32659E-01 1.62936E-01 9.39256E-02
 -1      1492 8.30296E-01 1.58471E-01 9.40989E-02
 -1      1493 7.87784E-01 1.36963E-01 9.46451E-02
 -1      1494 1.15896E+00 1.65483E-01 9.27605E-02
 -1      1495 1.05732E+00 1.60254E-01 9.36305E-02
 -1      1496 1.01850E+00 1.13438E-01 9.43423E-02
 -1      1497 9.75140E-01 1.42128E-01 9.40516E-02
 -1      1498 8.92453E-01 1.16773E-01 9.45055E-02
 -1      1499 1.33252E+00 1.81505E-01 8.91625E-02
 -1      1500 1.23359E+00 1.74320E-01 9.16692E-02
 -1      1501 1.17763E+00 1.40525E-01 9.34429E-02
 -1      1502 1.55463E+00 1.91415E-01 7.74310E-02
 -1      1503 1.46837E+00 1.91783E-01 8.41051E-02
 -1      1504 1.47164E+00 1.55907E-01 9.14489E-02
 -1      1505 1.39918E+00 1.76186E-01 8.84217E-02
 -1      1506 1.32415E+00 1.43617E-01 9.32983E-02
 -1      1507 1.70854E+00 1.35413E-01 7.04480E-02
 -1      1508 1.63403E+00 1.74654E-01 7.66052E-02
 -1      1509 1.63219E+00 1.62187E-01 8.80418E-02
 -1      1510 1.87170E+00-1.24408E-02 3.77921E-02
 -1      1511 1.81407E+00 5.79601E-02 5.69293E-02
 -1      1512 1.85904E+00 7.28381E-02 7.87114E-02
 -1      1513 1.91349E+00-4.26497E-02 2.50748E-02
 -1      1514 1.87341E+00-3.25634E-02 3.52112E-02
 -1      1515 1.94995E+00-3.98522E-02 2.34370E-02
 -1      1516 1.94988E+00-2.03556E-02 1.13416E-02
 -1      1517 1.93835E+00-3.51019E-02 1.67313E-02
 -1      1518 1.94805E+00-4.11250E-02 1.35308E-02
 -1      1519 1.96111E+00 1.04531E-03 4.14065E-03
 -1      1520 1.95699E+00-7.91362E-03 7.01202E-03
 -1      1521 1.95771E+00-1.40679E-02 7.43671E-03
 -1      1522 1.96232E+00 1.01102E-02 2.12452E-03
 -1      1523 1.96169E+00 6.31112E-03 2.90613E-03
 -1      1524 1.96064E+00 3.61427E-03 3.57613E-03
 -1      1525 1.96311E+00 1.40400E-02 1.57636E-03
 -1      1526 1.96331E+00 1.26322E-02 1.61103E-03
 -1      1527 1.96160E+00 1.13480E-02 1.99203E-03
 -1      1528 1.96234E+00 1.54051E-02 1.56195E-03
 -1      1529 1.96249E+00 1.47308E-02 1.52627E-03
 -1      1530 1.96182E+00 1.42057E-02 1.50610E-03
 -1      1531 1.96212E+00 1.64759E-02 1.61093E-03
 -1      1532 1.96218E+00 1.59940E-02 1.57393E-03
 -1      1533 1.96142E+00 1.55229E-02 1.29737E-03
 -1      1534 1.96157E+00 1.65194E-02 1.33943E-03
 -1      1535 1.96374E+00 1.95005E-02 2.93399E-03
 -1      1536 1.96341E+00 1.90706E-02 2.69575E-03
 -1      1537 1.96293E+00 1.89632E-02 2.36122E-03
 -1      1538 1.96293E+00 1.95599E-02 2.37488E-03
 -1      1539 1.96237E+00 1.89946E-02 1.97796E-03
 -1      1540 1.96395E+00 2.00015E-02 3.09020E-03
 -1      1541 1.96420E+00 2.10546E-02 3.29193E-03
 -1      1542 1.96413E+00 2.05156E-02 3.22810E-03
 -1      1543 1.96359E+00 2.01811E-02 2.84695E-03
 -1      1544 1.96413E+00 2.22828E-02 3.27960E-03
 -1      1545 1.96421E+00 2.17426E-02 3.31258E-03
 -1      1546 1.96351E+00 2.10545E-02 2.81777E-03
 -1      1547 1.96394E+00 2.14139E-02 3.12493E-03
 -1      1548 1.96351E+00 2.17425E-02 2.83841E-03
 -1      1549 1.96374E+00 2.33344E-02 3.04342E-03
 -1      1550 1.96395E+00 2.28302E-02 3.17101E-03
 -1      1551 1.96359E+00 2.26185E-02 2.91751E-03
 -1      1552 1.96341E+00 2.37677E-02 2.82990E-03
 -1      1553 1.96238E+00 2.46971E-02 2.15692E-03
 -1      1554 1.96282E+00 2.43642E-02 2.44181E-03
 -1      1555 1.96292E+00 2.38762E-02 2.50148E-03
 -1      1556 1.96232E+00 2.38709E-02 2.09250E-03
 -1      1557 1.96292E+00 2.32747E-02 2.48052E-03
 -1      1558 1.96188E+00 2.49064E-02 1.82005E-03
 -1      1559 1.96136E+00 2.50882E-02 1.47393E-03
 -1      1560 1.96170E+00 2.45407E-02 1.68672E-03
 -1      1561 1.95949E+00 2.50961E-02 2.06855E-04
 -1      1562 1.95899E+00 2.48868E-02-1.41909E-04
 -1      1563 1.95806E+00 2.43158E-02-7.88033E-04
 -1      1564 1.95849E+00 2.46490E-02-4.84213E-04
 -1      1565 1.95912E+00 2.44997E-02-6.43132E-05
 -1      1566 1.95723E+00 2.33927E-02-1.37233E-03
 -1      1567 1.95756E+00 2.38274E-02-1.13417E-03
 -1      1568 1.95855E+00 2.38212E-02-4.67282E-04
 -1      1569 1.95798E+00 2.38752E-02-8.48665E-04
 -1      1570 1.95806E+00 2.33326E-02-8.13486E-04
 -1      1571 1.95676E+00 2.23669E-02-1.71873E-03
 -1      1572 1.95697E+00 2.28738E-02-1.56247E-03
 -1      1573 1.95738E+00 2.27658E-02-1.28916E-03
 -1      1574 1.95669E+00 2.18225E-02-1.78250E-03
 -1      1575 1.95677E+00 2.05209E-02-1.76646E-03
 -1      1576 1.95669E+00 2.10665E-02-1.79963E-03
 -1      1577 1.95696E+00 2.13984E-02-1.61248E-03
 -1      1578 1.95740E+00 2.10667E-02-1.32658E-03
 -1      1579 1.95739E+00 2.18226E-02-1.30934E-03
 -1      1580 1.95716E+00 1.94583E-02-1.52987E-03
 -1      1581 1.95695E+00 1.99679E-02-1.65766E-03
 -1      1582 1.95732E+00 2.01819E-02-1.40492E-03
 -1      1583 1.95750E+00 1.90202E-02-1.31633E-03
 -1      1584 1.95799E+00 1.89106E-02-9.88660E-04
 -1      1585 1.95856E+00 1.89420E-02-6.04938E-04
 -1      1586 1.95800E+00 1.95188E-02-9.67999E-04
 -1      1587 6.48228E-02-5.11031E-02 3.91422E-02
 -1      1588 6.55080E-02-4.49042E-02 5.03456E-02
 -1      1589 1.34126E-01-5.79421E-02 7.70273E-02
 -1      1590 4.21491E-02-3.88457E-02 1.06242E-02
 -1      1591 4.81786E-02-4.70259E-02 1.84759E-02
 -1      1592 1.45519E-01-9.53590E-02 6.45594E-02
 -1      1593 8.00819E-02-7.04626E-02 3.64765E-02
 -1      1594 1.34294E-01-1.18670E-01 4.62835E-02
 -1      1595 8.18334E-02-7.95882E-02 3.08319E-02
 -1      1596 9.09542E-02-9.72217E-02 2.51756E-02
 -1      1597 2.60715E-02-1.59014E-02 2.91657E-03
 -1      1598 2.97398E-02-2.24774E-02 5.51004E-03
 -1      1599 5.34775E-02-4.74280E-02 9.43354E-03
 -1      1600 1.92744E-02-9.34519E-03 2.04568E-03
 -1      1601 1.27750E-02-2.26357E-03 1.06707E-03
 -1      1602 1.68624E-02-5.21062E-03 1.19193E-03
 -1      1603 3.53819E-02-1.88081E-02 3.31331E-03
 -1      1604 8.63799E-03 1.06370E-03 7.54091E-04
 -1      1605 1.13551E-02-1.09808E-04 8.30517E-04
 -1      1606 2.40929E-02-4.56845E-03 1.90511E-03
 -1      1607 5.04708E-03 2.00184E-03 5.12251E-04
 -1      1608 6.95606E-03 1.79456E-03 5.42849E-04
 -1      1609 1.60614E-02 1.48792E-03 1.37221E-03
 -1      1610 2.83333E-03 2.09315E-03 3.72843E-04
 -1      1611 4.10250E-03 2.31992E-03 3.91597E-04
 -1      1612 9.83761E-03 3.55935E-03 9.23244E-04
 -1      1613 1.37072E-03 1.77945E-03 2.74588E-04
 -1      1614 2.13578E-03 2.14135E-03 2.92596E-04
 -1      1615 5.40101E-03 3.85414E-03 6.43809E-04
 -1      1616 4.67262E-04 1.11192E-03 2.00706E-04
 -1      1617 8.83808E-04 1.51728E-03 2.10128E-04
 -1      1618 2.59712E-03 3.13303E-03 4.89355E-04
 -1      1619 3.17911E-05 4.87174E-05 1.61579E-04
 -1      1620 6.94646E-05 4.05518E-04 1.83554E-04
 -1      1621 1.13486E-03 2.10113E-03 4.00608E-04
 -1      1622 2.89875E-04 8.83563E-04 1.83016E-04
 -1      1623 3.78466E-04 8.59939E-04 3.53647E-04
 -1      1624 2.28682E-04-7.75410E-04 1.59045E-04
 -1      1625 6.28258E-05-3.80985E-04 1.68223E-04
 -1      1626 2.62289E-04-5.85004E-04 3.10355E-04
 -1      1627 8.88322E-04-1.50030E-03 2.00738E-04
 -1      1628 4.67734E-04-1.08408E-03 1.94615E-04
 -1      1629 1.02538E-03-1.96878E-03 3.58370E-04
 -1      1630 2.16005E-03-2.15576E-03 2.82165E-04
 -1      1631 1.38063E-03-1.79743E-03 2.73285E-04
 -1      1632 2.68129E-03-3.15906E-03 4.95469E-04
 -1      1633 4.11984E-03-2.33714E-03 4.02550E-04
 -1      1634 2.84544E-03-2.12443E-03 3.70473E-04
 -1      1635 5.45680E-03-3.86508E-03 6.85109E-04
 -1      1636 7.03897E-03-1.81544E-03 5.63309E-04
 -1      1637 5.10041E-03-2.03511E-03 5.31378E-04
 -1      1638 9.88688E-03-3.56332E-03 9.75688E-04
 -1      1639 1.13540E-02 1.19543E-04 7.67223E-04
 -1      1640 8.70250E-03-1.04256E-03 7.82025E-04
 -1      1641 1.61354E-02-1.43853E-03 1.40881E-03
 -1      1642 1.69278E-02 5.23791E-03 1.15044E-03
 -1      1643 1.28675E-02 2.25764E-03 1.11371E-03
 -1      1644 2.41424E-02 4.63773E-03 1.98477E-03
 -1      1645 2.59567E-02 1.58833E-02 2.89101E-03
 -1      1646 1.93553E-02 9.31378E-03 2.00211E-03
 -1      1647 3.54494E-02 1.89502E-02 3.47852E-03
 -1      1648 2.98968E-02 2.25550E-02 5.30561E-03
 -1      1649 4.87349E-02 4.66321E-02 1.84737E-02
 -1      1650 4.24750E-02 3.90737E-02 1.11201E-02
 -1      1651 5.36893E-02 4.75102E-02 9.54346E-03
 -1      1652 6.51194E-02 4.43735E-02 5.01452E-02
 -1      1653 6.41560E-02 5.12268E-02 3.89714E-02
 -1      1654 9.12232E-02 9.73271E-02 2.58177E-02
 -1      1655 8.23495E-02 7.94903E-02 3.09553E-02
 -1      1656 1.35148E-01 1.19059E-01 4.67022E-02
 -1      1657 8.05414E-02 7.05610E-02 3.72478E-02
 -1      1658 1.45730E-01 9.48061E-02 6.51142E-02
 -1      1659 1.33412E-01 5.80047E-02 7.72975E-02
 -1      1660 1.96322E+00 2.28225E-02 2.67299E-03
 -1      1661 1.96340E+00 2.22751E-02 2.78153E-03
 -1      1662 1.96187E+00 2.41734E-02 1.79373E-03
 -1      1663 1.95900E+00 2.41244E-02-1.51232E-04
 -1      1664 1.95776E+00 2.28784E-02-1.03179E-03
 -1      1665 1.95750E+00 2.23591E-02-1.22200E-03
 -1      1666 1.95750E+00 2.05289E-02-1.26959E-03
 -1      1667 1.95769E+00 1.99759E-02-1.16077E-03
 -1      1668 1.95902E+00 1.86367E-02-3.08170E-04
 -1      1669 1.95998E+00 1.82288E-02 3.28926E-04
 -1      1670 1.95946E+00 1.83245E-02-2.79858E-05
 -1      1671 1.96148E+00 1.83795E-02 1.34836E-03
 -1      1672 1.96094E+00 1.82622E-02 9.79648E-04
 -1      1673 1.96096E+00 1.78077E-02 9.82086E-04
 -1      1674 1.96048E+00 1.81503E-02 6.69115E-04
 -1      1675 1.95999E+00 1.77612E-02 3.31484E-04
 -1      1676 1.96193E+00 1.86939E-02 1.65972E-03
 -1      1677 1.96322E+00 2.00091E-02 2.59277E-03
 -1      1678 1.96340E+00 2.05232E-02 2.73052E-03
 -1      1679 1.96839E+00 6.48404E-02 7.95572E-03
 -1      1680 1.96945E+00 5.47714E-02 3.07317E-03
 -1      1681 1.96893E+00 4.09231E-02 4.08966E-03
 -1      1682 1.84782E+00-8.50263E-02 1.05840E-01
 -1      1683 1.89766E+00 3.32345E-02 1.38807E-01
 -1      1684 1.89896E+00-2.62485E-02 1.38768E-01
 -1      1685 1.69884E+00-4.70108E-02 1.17346E-01
 -1      1686 1.79748E+00-7.96205E-02 1.20764E-01
 -1      1687 1.68350E+00-1.23876E-01 1.00240E-01
 -1      1688 1.85105E+00 9.56095E-02 1.11681E-01
 -1      1689 1.70096E+00 5.41635E-02 1.17522E-01
 -1      1690 1.79676E+00 8.59943E-02 1.20194E-01
 -1      1691 1.68614E+00 1.31019E-01 1.00629E-01
 -1      1692 1.97005E+00-4.70264E-02 9.99089E-03
 -1      1693 1.97177E+00-3.41946E-02 5.85389E-03
 -1      1694 1.97104E+00-1.97983E-02 5.50089E-03
 -1      1695 5.43138E-01 3.11441E-02 9.60283E-02
 -1      1696 4.95587E-01 1.54529E-02 9.60732E-02
 -1      1697 5.57352E-01 1.57347E-02 9.58233E-02
 -1      1698 6.07341E-01 1.62471E-02 9.56889E-02
 -1      1699 5.58768E-01 6.45785E-05 9.57771E-02
 -1      1700 5.09994E-01-1.76640E-02 9.59080E-02
 -1      1701 4.61285E-01 1.96644E-05 9.61771E-02
 -1      1702 4.62193E-01-1.75820E-02 9.61753E-02
 -1      1703 5.59441E-01-1.80490E-02 9.57711E-02
 -1      1704 4.47879E-01 1.53753E-02 9.62350E-02
 -1      1705 1.96053E+00 1.49442E-02 1.08788E-03
 -1      1706 1.96065E+00 1.55700E-02 9.77059E-04
 -1      1707 1.96072E+00 1.60065E-02 9.21646E-04
 -1      1708 1.96003E+00 1.54529E-02 6.35249E-04
 -1      1709 1.95946E+00 1.48578E-02 3.28944E-04
 -1      1710 1.95971E+00 1.45449E-02 8.32956E-04
 -1      1711 1.95928E+00 1.44911E-02 4.45871E-04
 -1      1712 1.95957E+00 1.52794E-02 2.52248E-04
 -1      1713 1.96036E+00 1.43838E-02 1.21583E-03
 -1      1714 1.96108E+00 1.73899E-02 1.05612E-03
 -1      1715 1.96060E+00 1.72627E-02 7.50912E-04
 -1      1716 1.96020E+00 1.72535E-02 4.74408E-04
 -1      1717 1.96029E+00 1.68227E-02 5.54670E-04
 -1      1718 1.95971E+00 1.73182E-02 1.30080E-04
 -1      1719 8.08360E-01-8.97839E-02 9.46598E-02
 -1      1720 7.25785E-01-8.72450E-02 9.51340E-02
 -1      1721 8.80052E-01-8.84900E-02 9.44696E-02
 -1      1722 8.46292E-01-6.27164E-02 9.47494E-02
 -1      1723 9.57697E-01-8.50190E-02 9.43843E-02
 -1      1724 8.42748E-02 9.61975E-02 1.81982E-02
 -1      1725 1.00744E-01 1.18715E-01 2.42827E-02
 -1      1726 7.01381E-02 7.26355E-02 1.36528E-02
 -1      1727 5.79973E-02 5.05867E-02 8.27143E-03
 -1      1728 4.37517E-01-8.70389E-02 9.72563E-02
 -1      1729 4.69189E-01-9.70244E-02 9.88598E-02
 -1      1730 4.83529E-01-8.88193E-02 9.75732E-02
 -1      1731 4.39307E-01-1.03312E-01 1.00071E-01
 -1      1732 3.91780E-01-1.02187E-01 9.79132E-02
 -1      1733 3.92731E-01-9.56495E-02 9.63407E-02
 -1      1734 3.61356E-01-1.05013E-01 9.49825E-02
 -1      1735 3.96839E-01-8.77291E-02 9.58090E-02
 -1      1736 4.08691E-01-7.94436E-02 9.56703E-02
 -1      1737 3.66342E-01-9.07191E-02 9.38138E-02
 -1      1738 1.56905E+00-1.31636E-01 9.55386E-02
 -1      1739 1.47596E+00-1.18386E-01 9.59184E-02
 -1      1740 1.96120E+00 1.69051E-02 1.13296E-03
 -1      1741 7.45143E-01-2.36638E-02 9.51437E-02
 -1      1742 7.19231E-01-4.79447E-02 9.52068E-02
 -1      1743 8.01776E-01-3.94660E-02 9.49744E-02
 -1      1744 8.73259E-01-3.65398E-02 9.48256E-02
 -1      1745 6.61319E-01-5.09759E-02 9.54886E-02
 -1      1746 7.16163E-01-6.73028E-02 9.52187E-02
 -1      1747 6.67031E-01-8.87386E-02 9.56400E-02
 -1      1748 1.96081E+00 1.14949E-02 1.92414E-03
 -1      1749 1.96060E+00 1.05516E-02 2.23089E-03
 -1      1750 1.96000E+00 1.26008E-02 1.65135E-03
 -1      1751 1.96004E+00 1.37375E-02 1.30779E-03
 -1      1752 1.95954E+00 1.35123E-02 1.37651E-03
 -1      1753 1.95900E+00 1.75199E-02 1.29178E-03
 -1      1754 1.95922E+00 1.52963E-02 1.26113E-03
 -1      1755 1.96060E+00 1.46585E-02 1.82864E-03
 -1      1756 1.95874E+00 1.49919E-02 4.10723E-04
 -1      1757 1.95907E+00 1.42025E-02 1.06478E-03
 -1      1758 1.96165E+00 7.88863E-03 2.60864E-03
 -1      1759 1.96169E+00 1.21456E-02 2.14415E-03
 -1      1760 1.95915E+00 1.41700E-02 7.21268E-04
 -1      1761 1.96293E+00 1.47965E-02 2.35361E-03
 -1      1762 1.10541E+00-9.64490E-02 9.42008E-02
 -1      1763 1.03396E+00-8.38461E-02 9.44076E-02
 -1      1764 9.94530E-01-5.84593E-02 9.47107E-02
 -1      1765 2.90142E-01-1.22409E-01 8.12672E-02
 -1      1766 2.71329E-01-1.18055E-01 7.95940E-02
 -1      1767 2.57941E-01-1.27992E-01 7.49722E-02
 -1      1768 2.33132E-01-1.39551E-01 6.63678E-02
 -1      1769 2.22310E-01-1.32619E-01 6.68199E-02
 -1      1770 2.99154E-01-1.04200E-01 8.60599E-02
 -1      1771 2.66789E-01-1.08700E-01 8.16758E-02
 -1      1772 1.78754E-01-1.28895E-01 5.85984E-02
 -1      1773 1.92277E-01-1.20578E-01 6.63451E-02
 -1      1774 2.52899E-01-9.78137E-02 8.31936E-02
 -1      1775 2.30158E-01-1.10244E-01 7.68709E-02
 -1      1776 1.81326E-01-1.07798E-01 6.96913E-02
 -1      1777 1.96043E+00 1.63843E-02 6.94495E-04
 -1      1778 1.96103E+00 1.64630E-02 1.05205E-03
 -1      1779 1.96003E+00 1.63420E-02 4.17307E-04
 -1      1780 1.96145E+00 1.32576E-02 1.60465E-03
 -1      1781 1.96105E+00 1.41376E-02 1.43984E-03
 -1      1782 1.50325E+00 1.20072E-01 9.81497E-02
 -1      1783 1.58125E+00 1.37512E-01 9.71264E-02
 -1      1784 6.46465E-03 5.20470E-03 8.89868E-04
 -1      1785 6.90073E-03 5.02406E-03 8.99425E-04
 -1      1786 4.73584E-03 4.50659E-03 7.54384E-04
 -1      1787 7.69465E-01 7.66417E-03 9.51318E-02
 -1      1788 6.88403E-01-3.00890E-03 9.53164E-02
 -1      1789 8.55511E-01 1.42516E-02 9.50182E-02
 -1      1790 7.96106E-01 3.49469E-02 9.51372E-02
 -1      1791 9.11796E-01-6.65073E-03 9.49864E-02
 -1      1792 9.39821E-01 2.27599E-02 9.50196E-02
 -1      1793 9.58343E-01-3.03553E-02 9.49294E-02
 -1      1794 5.78217E-04 1.19038E-04 4.93662E-04
 -1      1795 5.23663E-04 6.46133E-04 4.59330E-04
 -1      1796 4.76005E-04-4.21073E-04 4.50287E-04
 -1      1797 5.30197E-01-8.53644E-02 9.71324E-02
 -1      1798 4.95102E-01-7.36109E-02 9.68361E-02
 -1      1799 6.07466E-01-8.74201E-02 9.62464E-02
 -1      1800 2.35739E-01 1.42111E-01 6.51834E-02
 -1      1801 3.30978E-01-1.12195E-01 8.95963E-02
 -1      1802 3.14618E-01-1.20564E-01 8.70039E-02
 -1      1803 2.77843E-01-1.33596E-01 7.74789E-02
 -1      1804 3.32899E-01-1.05347E-01 8.96722E-02
 -1      1805 2.90518E-01 1.22514E-01 8.15187E-02
 -1      1806 2.58549E-01 1.28274E-01 7.53215E-02
 -1      1807 2.71959E-01 1.18340E-01 8.00717E-02
 -1      1808 2.33564E-01 1.39643E-01 6.67610E-02
 -1      1809 2.22588E-01 1.32853E-01 6.74916E-02
 -1      1810 2.53880E-01 9.76431E-02 8.37886E-02
 -1      1811 2.67505E-01 1.08728E-01 8.21869E-02
 -1      1812 2.30874E-01 1.10176E-01 7.73258E-02
 -1      1813 2.99940E-01 1.04262E-01 8.64921E-02
 -1      1814 1.82214E-01 1.07934E-01 6.96554E-02
 -1      1815 1.92999E-01 1.20678E-01 6.66538E-02
 -1      1816 1.79467E-01 1.28895E-01 5.89889E-02
 -1      1817 3.10663E-02-3.27195E-03 2.78874E-03
 -1      1818 3.12217E-02-5.33497E-03 2.68043E-03
 -1      1819 4.49554E-02-1.98237E-02 4.19417E-03
 -1      1820 3.72931E-02-1.22495E-02 3.42874E-03
 -1      1821 2.04673E-01-1.48162E-01 5.57359E-02
 -1      1822 2.38027E-01-1.43407E-01 6.55793E-02
 -1      1823 1.96910E+00 1.04127E-02 2.51310E-03
 -1      1824 1.97167E+00 1.84520E-02 2.42401E-03
 -1      1825 1.96613E+00 1.61048E-02 2.48494E-03
 -1      1826 1.97177E+00 2.71661E-02 2.38892E-03
 -1      1827 1.96018E+00 2.67245E-02 2.99780E-03
 -1      1828 1.96370E+00 3.51580E-02 4.02233E-03
 -1      1829 1.95931E+00 2.21779E-02 2.33955E-03
 -1      1830 1.96283E+00 2.03644E-02 2.44112E-03
 -1      1831 2.56164E-01 5.56036E-02 9.21228E-02
 -1      1832 1.84415E-01 5.58568E-02 8.56993E-02
 -1      1833 2.08672E-01 4.11069E-02 9.07851E-02
 -1      1834 1.80495E-01 7.69506E-02 8.01068E-02
 -1      1835 2.33633E-01 1.98177E-02 9.42222E-02
 -1      1836 1.63270E+00 3.47907E-03 1.13066E-01
 -1      1837 1.57177E+00-4.29658E-02 1.07374E-01
 -1      1838 1.57318E+00 5.11827E-02 1.07851E-01
 -1      1839 1.80314E-01-7.77489E-02 7.97398E-02
 -1      1840 1.83582E-01-5.65412E-02 8.59012E-02
 -1      1841 2.60763E-01-5.48271E-02 9.25240E-02
 -1      1842 2.13617E-01-4.02911E-02 9.20107E-02
 -1      1843 2.38869E-01-1.84883E-02 9.47585E-02
 -1      1844 4.34987E-01 8.63724E-02 9.74467E-02
 -1      1845 4.72655E-01 8.74789E-02 9.79367E-02
 -1      1846 4.64752E-01 9.64475E-02 9.91791E-02
 -1      1847 4.84072E-01 7.18735E-02 9.69028E-02
 -1      1848 5.16929E-01 8.33843E-02 9.76325E-02
 -1      1849 3.98605E-01 8.77753E-02 9.61753E-02
 -1      1850 4.04496E-01 7.90671E-02 9.58040E-02
 -1      1851 4.21798E-01 6.63540E-02 9.62256E-02
 -1      1852 4.63752E-01 5.96055E-02 9.63566E-02
 -1      1853 3.84613E-01 6.89611E-02 9.51703E-02
 -1      1854 1.28524E-03 2.16755E-03 5.59971E-04
 -1      1855 1.95262E-03 2.92657E-03 6.65306E-04
 -1      1856 1.34200E-03 2.34984E-03 5.07436E-04
 -1      1857 2.62543E-03 3.58662E-03 7.38676E-04
 -1      1858 2.92550E-03 3.77063E-03 6.50357E-04
 -1      1859 1.96902E-03 2.97521E-03 5.36363E-04
 -1      1860 3.00515E-03 3.90855E-03 7.37035E-04
 -1      1861 8.11667E-04 1.46135E-03 4.87595E-04
 -1      1862 2.23442E-01-8.53131E-02 8.37613E-02
 -1      1863 1.74966E-01-8.95236E-02 7.47407E-02
 -1      1864 2.62496E-01-8.45675E-02 8.73001E-02
 -1      1865 3.06094E-01-8.22319E-02 9.03643E-02
 -1      1866 2.74878E-01-7.11890E-02 9.04824E-02
 -1      1867 3.07179E-01-5.35676E-02 9.40214E-02
 -1      1868 1.18773E-03-2.07034E-03 5.25205E-04
 -1      1869 1.20085E-03-2.20858E-03 4.73825E-04
 -1      1870 1.92207E-03-2.90521E-03 6.58445E-04
 -1      1871 2.59205E-03-3.56788E-03 7.30362E-04
 -1      1872 2.99430E-03-3.81325E-03 6.50490E-04
 -1      1873 2.97351E-03-3.88805E-03 7.28711E-04
 -1      1874 1.97114E-03-2.96749E-03 5.25852E-04
 -1      1875 2.24078E-01 8.48895E-02 8.39546E-02
 -1      1876 2.62979E-01 8.44284E-02 8.76126E-02
 -1      1877 2.75320E-01 7.10529E-02 9.07710E-02
 -1      1878 3.06549E-01 8.19680E-02 9.08898E-02
 -1      1879 3.02486E-01 5.41800E-02 9.39825E-02
 -1      1880 1.75215E-01 8.91177E-02 7.50478E-02
 -1      1881 1.23433E+00 1.19692E-01 9.42101E-02
 -1      1882 1.30686E+00 1.12390E-01 9.50408E-02
 -1      1883 1.15639E+00 1.11014E-01 9.44169E-02
 -1      1884 1.23903E-02 5.36157E-03 1.29524E-03
 -1      1885 1.65865E-02 5.55966E-03 1.71948E-03
 -1      1886 1.19226E-02 4.67298E-03 1.22019E-03
 -1      1887 1.98056E-02 5.13580E-03 1.99578E-03
 -1      1888 2.00090E-02 3.29224E-03 1.84676E-03
 -1      1889 1.51909E-02 3.82891E-03 1.46717E-03
 -1      1890 2.09848E-02 4.27311E-03 2.06251E-03
 -1      1891 1.36514E+00-1.03765E-01 9.55166E-02
 -1      1892 1.49942E+00-7.66886E-02 1.01183E-01
 -1      1893 1.44283E+00-3.19108E-02 1.01660E-01
 -1      1894 3.27678E-01-9.76210E-02 8.98884E-02
 -1      1895 6.51794E-03-5.23011E-03 9.08461E-04
 -1      1896 6.95151E-03-5.03672E-03 9.09324E-04
 -1      1897 4.76432E-03-4.52910E-03 7.52236E-04
 -1      1898 2.50853E-02-3.55161E-04 2.26938E-03
 -1      1899 2.00355E-02-3.32123E-03 1.86753E-03
 -1      1900 2.04954E-02-2.17580E-03 1.88435E-03
 -1      1901 3.11013E-02 3.26773E-03 2.76278E-03
 -1      1902 2.51192E-02 3.52705E-04 2.24420E-03
 -1      1903 4.40751E-01 1.03663E-01 1.00438E-01
 -1      1904 5.76170E-01 8.35227E-02 9.70507E-02
 -1      1905 6.59918E-01 1.33180E-02 9.54817E-02
 -1      1906 6.58024E-01 2.99350E-02 9.55390E-02
 -1      1907 6.26862E-01 4.81596E-02 9.58136E-02
 -1      1908 6.79929E-01 4.64307E-02 9.55684E-02
 -1      1909 5.66476E-01 4.99733E-02 9.61913E-02
 -1      1910 5.05357E-01 4.84238E-02 9.63060E-02
 -1      1911 5.87102E-01 6.54860E-02 9.64262E-02
 -1      1912 3.36289E-01 3.27032E-02 9.58977E-02
 -1      1913 2.86563E-01 1.93075E-02 9.60128E-02
 -1      1914 3.40510E-01 1.39606E-02 9.64919E-02
 -1      1915 4.01537E-01 1.37666E-02 9.64541E-02
 -1      1916 3.52761E-01-8.37272E-05 9.67920E-02
 -1      1917 2.38117E-01 3.20327E-04 9.58536E-02
 -1      1918 2.92185E-01-1.85705E-02 9.64339E-02
 -1      1919 3.46725E-01-3.31274E-02 9.58700E-02
 -1      1920 3.45644E-01-1.54768E-02 9.64417E-02
 -1      1921 4.06523E-01-1.49148E-02 9.64571E-02
 -1      1922 6.36539E-01-1.58651E-02 9.55305E-02
 -1      1923 8.23883E-01 6.58401E-02 9.50501E-02
 -1      1924 7.38701E-01 5.66626E-02 9.53474E-02
 -1      1925 7.06210E-01 7.56944E-02 9.55349E-02
 -1      1926 5.52084E-02-3.07526E-02 5.38514E-03
 -1      1927 4.23237E-02-2.09662E-02 3.89670E-03
 -1      1928 6.12082E-02-4.04465E-02 6.26188E-03
 -1      1929 5.89988E-02-4.80238E-02 6.89931E-03
 -1      1930 4.91945E-02-3.34604E-02 5.47427E-03
 -1      1931 6.16842E-02-4.62769E-02 6.68191E-03
 -1      1932 1.51582E-01 1.36447E-01 4.52849E-02
 -1      1933 1.14982E-01 1.33291E-01 2.84610E-02
 -1      1934 1.74095E-01 1.47095E-01 4.73607E-02
 -1      1935 1.33935E-01 1.38102E-01 3.60580E-02
 -1      1936 1.39113E+00 1.04472E-01 9.68739E-02
 -1      1937 1.29526E+00 7.91888E-02 9.65160E-02
 -1      1938 1.14260E+00 3.36443E-02 9.57854E-02
 -1      1939 1.22251E+00 4.67551E-02 9.63203E-02
 -1      1940 1.13625E+00 7.44230E-02 9.51792E-02
 -1      1941 1.30549E+00 3.42934E-02 9.77781E-02
 -1      1942 1.08119E+00 9.70480E-02 9.45308E-02
 -1      1943 3.32032E-01 1.12017E-01 9.00278E-02
 -1      1944 3.14479E-01 1.21075E-01 8.70266E-02
 -1      1945 2.04186E-01 1.46785E-01 5.58624E-02
 -1      1946 2.38167E-01 1.43041E-01 6.55577E-02
 -1      1947 2.77875E-01 1.33133E-01 7.77020E-02
 -1      1948 1.96141E+00-4.01913E-03 4.84963E-03
 -1      1949 1.96161E+00 3.70464E-03 3.56352E-03
 -1      1950 1.96613E+00 5.03915E-03 3.12396E-03
 -1      1951 1.96454E+00-1.36359E-02 5.78946E-03
 -1      1952 1.97176E+00-6.20415E-03 3.80223E-03
 -1      1953 1.97139E+00 2.54721E-03 3.05315E-03
 -1      1954 7.27373E-04-1.36857E-03 4.60793E-04
 -1      1955 5.92259E-02 4.79327E-02 6.99297E-03
 -1      1956 1.50111E+00 8.37172E-02 1.01851E-01
 -1      1957 1.44360E+00 3.76613E-02 1.01679E-01
 -1      1958 2.04839E-02 2.19269E-03 1.87390E-03
 -1      1959 1.72392E-01-1.46321E-01 4.65613E-02
 -1      1960 1.51059E-01-1.36302E-01 4.48719E-02
 -1      1961 1.33555E-01-1.37761E-01 3.55349E-02
 -1      1962 1.14666E-01-1.32705E-01 2.79910E-02
 -1      1963 3.42724E-01 4.71961E-02 9.51707E-02
 -1      1964 3.95350E-01 4.15629E-02 9.60070E-02
 -1      1965 4.35681E-01 2.87790E-02 9.61509E-02
 -1      1966 4.40765E-01 4.28855E-02 9.60950E-02
 -1      1967 1.95972E+00 1.58612E-02 2.36647E-04
 -1      1968 1.95963E+00 1.63248E-02 8.59035E-05
 -1      1969 1.95954E+00 1.67535E-02-2.21968E-06
 -1      1970 5.86345E-01-3.37669E-02 9.57280E-02
 -1      1971 5.26330E-01-5.17813E-02 9.61350E-02
 -1      1972 6.02528E-01-5.16160E-02 9.57777E-02
 -1      1973 5.99086E-01-6.91771E-02 9.60143E-02
 -1      1974 1.28742E+00-1.11067E-01 9.42709E-02
 -1      1975 1.17772E+00-1.09882E-01 9.39767E-02
 -1      1976 1.14617E+00-6.88301E-02 9.50385E-02
 -1      1977 1.95892E+00 1.44318E-02-7.54891E-05
 -1      1978 4.27357E-01-6.69974E-02 9.59208E-02
 -1      1979 4.71436E-01-6.04382E-02 9.62572E-02
 -1      1980 3.85630E-01-6.91417E-02 9.49430E-02
 -1      1981 1.95905E+00 1.44208E-02 8.93745E-05
 -1      1982 1.29830E+00-7.35496E-02 9.65247E-02
 -1      1983 3.28410E-01 9.73243E-02 9.05053E-02
 -1      1984 3.33660E-01 1.04963E-01 9.02064E-02
 -1      1985 3.29876E-01 8.82792E-02 9.14216E-02
 -1      1986 3.45045E-01 7.57993E-02 9.35657E-02
 -1      1987 3.66651E-01 9.06551E-02 9.41338E-02
 -1      1988 3.29413E-01-8.84112E-02 9.10447E-02
 -1      1989 3.44868E-01-7.59722E-02 9.31656E-02
 -1      1990 1.02918E+00 3.08663E-02 9.51299E-02
 -1      1991 1.11039E+00 1.98162E-03 9.57116E-02
 -1      1992 1.14899E+00-2.82322E-02 9.57308E-02
 -1      1993 1.22631E+00-4.04639E-02 9.62173E-02
 -1      1994 1.30452E+00-2.89690E-02 9.76583E-02
 -1      1995 1.03543E+00-2.71718E-02 9.50671E-02
 -1      1996 1.36242E+00 3.13442E-03 9.97778E-02
 -1      1997 3.59986E-01 6.17300E-02 9.47754E-02
 -1      1998 3.49170E-01-4.64229E-02 9.53674E-02
 -1      1999 4.01437E-01-4.28993E-02 9.59588E-02
 -1      2000 3.60824E-01-6.19183E-02 9.46389E-02
 -1      2001 3.94053E-01 1.02031E-01 9.85194E-02
 -1      2002 4.55042E-01-3.21531E-02 9.61521E-02
 -1      2003 4.55810E-01-4.51103E-02 9.60526E-02
 -1      2004 4.50125E-02 1.97406E-02 4.14006E-03
 -1      2005 4.22754E-02 2.08290E-02 4.04532E-03
 -1      2006 5.52404E-02 3.07355E-02 5.50106E-03
 -1      2007 6.12986E-02 4.05353E-02 6.28878E-03
 -1      2008 3.73439E-02 1.22097E-02 3.34403E-03
 -1      2009 8.38837E-02-9.62941E-02 1.80236E-02
 -1      2010 1.00330E-01-1.18298E-01 2.39001E-02
 -1      2011 6.98492E-02-7.25681E-02 1.37041E-02
 -1      2012 1.24238E-02-5.37733E-03 1.32027E-03
 -1      2013 1.19482E-02-4.66910E-03 1.23374E-03
 -1      2014 1.66275E-02-5.55854E-03 1.72452E-03
 -1      2015 1.98392E-02-5.14521E-03 1.99638E-03
 -1      2016 9.48617E-03-5.13268E-03 1.08075E-03
 -1      2017 9.46371E-03 5.11818E-03 1.08314E-03
 -1      2018 9.96782E-01 7.89234E-02 9.47970E-02
 -1      2019 6.18711E-02 4.62104E-02 6.72324E-03
 -1      2020 4.93533E-02 3.35255E-02 5.39098E-03
 -1      2021 5.79292E-02-5.06246E-02 8.22583E-03
 -1      2022 3.25422E-03 3.88285E-03 6.46099E-04
 -1      2023 3.33946E-03-3.91815E-03 6.48152E-04
 -1      2024 2.10128E-02-4.28777E-03 2.06094E-03
 -1      2025 1.52215E-02-3.84430E-03 1.46312E-03
 -1      2026 3.62446E-01 1.04609E-01 9.56263E-02
 -1      2027 3.12106E-02 5.25048E-03 2.76194E-03
 -1      2028 3.94815E-01 9.54855E-02 9.69071E-02
 -1      2029 9.70383E-01 5.18046E-02 9.49509E-02
 -1      2030 9.09043E-01 6.90741E-02 9.48360E-02
 -1      2031 8.49742E-01 9.15864E-02 9.48480E-02
 -1      2032 8.07594E-01 1.12116E-01 9.48233E-02
 -1      2033 6.95594E-01 9.61186E-02 9.57210E-02
 -1      2034 7.45421E-01 1.11380E-01 9.52473E-02
 -1      2035 6.37434E-01 8.39685E-02 9.62714E-02
 -1      2036 2.54294E-01-1.16380E-01-5.50465E-02
 -1      2037 3.37290E-01-1.24156E-01 6.64531E-02
 -1      2038 2.53943E-01-1.16253E-01 5.48804E-02
 -1      2039 3.38598E-01-1.25572E-01-6.68736E-02
 -1      2040 2.92655E-01-1.19305E-01-2.97912E-02
 -1      2041 2.90432E-01-1.20930E-01-6.48839E-05
 -1      2042 2.93333E-01-1.21346E-01 2.93372E-02
 -1      2043 2.55737E-01 1.14559E-01-5.43330E-02
 -1      2044 3.38937E-01 1.26941E-01 6.61231E-02
 -1      2045 3.38389E-01 1.27175E-01-6.67311E-02
 -1      2046 2.95115E-01 1.20819E-01 3.00877E-02
 -1      2047 2.91699E-01 1.19533E-01 3.78162E-04
 -1      2048 2.54618E-01 1.14173E-01 5.54205E-02
 -1      2049 2.95932E-01 1.21145E-01-2.98759E-02
 -1      2050 5.09119E-01 2.68084E-04-9.56994E-02
 -1      2051 3.19850E-01-6.89898E-02-9.31624E-02
 -1      2052 3.20311E-01 6.91731E-02-9.28222E-02
 -1      2053 9.97271E-01 1.26682E-03-9.48521E-02
 -1      2054 2.40926E-01-1.21391E-01-7.47186E-02
 -1      2055 2.40906E-01 1.21838E-01-7.44547E-02
 -1      2056 1.96013E+00 1.48326E-02-7.81428E-04
 -1      2057 1.50619E+00 3.64243E-03-1.05327E-01
 -1      2058 1.95983E+00 1.68864E-02 4.31182E-04
 -1      2059 3.61971E-01-9.88055E-02-9.36584E-02
 -1      2060 5.41188E-01-6.83860E-02-9.62382E-02
 -1      2061 3.62751E-01 9.87827E-02-9.36017E-02
 -1      2062 5.27517E-01 6.63256E-02-9.62878E-02
 -1      2063 3.15293E-01 1.15224E-04-9.63584E-02
 -1      2064 7.11275E-01 2.75630E-02-9.50799E-02
 -1      2065 1.96062E+00 1.87354E-02 8.45426E-04
 -1      2066 5.04014E-01 1.00177E-01-9.85337E-02
 -1      2067 5.17254E-01-1.01597E-01-9.82147E-02
 -1      2068 7.74978E-01-6.44523E-02-9.47760E-02
 -1      2069 1.16163E-01-1.20316E-01-3.42497E-02
 -1      2070 1.17044E-01 1.20648E-01-3.43980E-02
 -1      2071 1.21271E+00 8.88754E-02-9.47475E-02
 -1      2072 1.22065E+00-8.19532E-02-9.49103E-02
 -1      2073 2.72085E-01 1.32956E-01-7.61091E-02
 -1      2074 2.71333E-01-1.32266E-01-7.58203E-02
 -1      2075 1.96554E+00-1.28549E-04-2.17216E-03
 -1      2076 1.96603E+00 2.57688E-02-2.63612E-03
 -1      2077 1.37122E-01 3.95623E-02-8.23611E-02
 -1      2078 1.36040E-01-3.90194E-02-8.20481E-02
 -1      2079 2.13267E-03 3.16007E-03-6.26652E-04
 -1      2080 2.07061E-03-3.10455E-03-6.15745E-04
 -1      2081 1.66884E-02 4.79730E-03-1.67385E-03
 -1      2082 1.67317E-02-4.79817E-03-1.66990E-03
 -1      2083 5.38895E-02-3.36845E-02-5.55567E-03
 -1      2084 5.38059E-02 3.37344E-02-5.52302E-03
 -1      2085 9.34990E-01 9.56275E-02-9.42572E-02
 -1      2086 4.27512E-02 1.25206E-02-3.95058E-03
 -1      2087 4.27325E-02-1.25210E-02-3.95325E-03
 -1      2088 1.06191E-02-6.03461E-03-1.26379E-03
 -1      2089 1.05905E-02 6.01878E-03-1.26026E-03
 -1      2090 9.05870E-04-1.18373E-03-5.75244E-04
 -1      2091 6.99936E-02 7.23682E-02-1.09472E-02
 -1      2092 6.99381E-02-7.19647E-02-1.11512E-02
 -1      2093 1.61892E+00 1.01223E-01-1.03591E-01
 -1      2094 1.62093E+00-9.05625E-02-1.05289E-01
 -1      2095 1.95892E+00 1.62154E-02-4.82315E-04
 -1      2096 1.96064E+00 1.51546E-02 6.82853E-04
 -1      2097 9.15389E-04 1.20533E-03-5.65272E-04
 -1      2098 5.26289E-03-5.08839E-03-8.78904E-04
 -1      2099 5.24599E-03 5.07277E-03-8.72736E-04
 -1      2100 2.85267E-02-2.81915E-04-2.64811E-03
 -1      2101 2.84935E-02 2.59250E-04-2.64663E-03
 -1      2102 1.46031E-01-1.47797E-01-3.59099E-02
 -1      2103 1.45396E-01 1.49484E-01-3.58787E-02
 -1      2104 3.96193E-01 2.87860E-02-9.60567E-02
 -1      2105 3.99749E-01-2.96296E-02-9.59298E-02
 -1      2106 1.95930E+00 1.77307E-02-7.02075E-05
 -1      2107 1.95943E+00 1.97351E-02 1.42790E-05
 -1      2108 7.65204E-01 8.72958E-02-9.48891E-02
 -1      2109 3.55874E-01-1.09668E-01-9.60389E-02
 -1      2110 3.58429E-01 1.10081E-01-9.63684E-02
 -1      2111 6.63899E-01-3.23321E-02-9.52261E-02
 -1      2112 9.96383E-01-1.09973E-01-9.38919E-02
 -1      2113 1.96132E+00 1.79795E-02 1.30813E-03
 -1      2114 1.34449E-01-7.74198E-02-6.78011E-02
 -1      2115 1.33809E-01 7.87242E-02-6.77733E-02
 -1      2116 1.95848E+00 1.84436E-02-1.37349E-03
 -1      2117 1.96070E+00 1.01792E-02-4.23904E-05
 -1      2118 4.49924E-01-7.86178E-02-9.68459E-02
 -1      2119 4.41549E-01 7.74452E-02-9.65694E-02
 -1      2120 1.77171E+00 3.83311E-03-1.26516E-01
 -1      2121 6.75938E-01-1.08577E-01-9.55210E-02
 -1      2122 1.95912E+00 1.66064E-02-1.80555E-04
 -1      2123 1.96134E+00 1.98092E-02 1.31552E-03
 -1      2124 6.05402E-01 3.23741E-02-9.54800E-02
 -1      2125 1.34935E+00-1.39592E-01-9.24778E-02
 -1      2126 1.39620E+00 1.37776E-01-9.30821E-02
 -1      2127 2.92151E-01 9.55751E-02-8.72181E-02
 -1      2128 2.91572E-01-9.53656E-02-8.74159E-02
 -1      2129 1.22679E+00 3.16436E-03-9.63396E-02
 -1      2130 2.88046E-01 3.80362E-02-9.51380E-02
 -1      2131 2.93184E-01-3.64880E-02-9.52910E-02
 -1      2132 1.95799E+00-2.47358E-02-5.71731E-03
 -1      2133 1.95406E+00 5.06414E-02-7.99468E-03
 -1      2134 4.56045E-01-1.15219E-01-1.02108E-01
 -1      2135 4.54004E-01 1.14638E-01-1.02322E-01
 -1      2136 1.71956E+00 1.41282E-01-8.56443E-02
 -1      2137 1.71742E+00-1.32263E-01-8.72810E-02
 -1      2138 1.49567E-01 1.11827E-01-5.77730E-02
 -1      2139 1.50733E-01-1.11034E-01-5.92436E-02
 -1      2140 5.10296E-01-3.49890E-02-9.58345E-02
 -1      2141 1.88511E-01-4.79730E-05-9.14413E-02
 -1      2142 1.96132E+00 1.67101E-02 1.28104E-03
 -1      2143 2.30656E-01 7.21364E-02-8.77877E-02
 -1      2144 2.30381E-01-7.18305E-02-8.80526E-02
 -1      2145 6.26413E-01 1.03352E-01-9.64557E-02
 -1      2146 5.66558E-02 2.79222E-02-5.57345E-03
 -1      2147 5.66293E-02-2.79855E-02-5.47884E-03
 -1      2148 4.13217E-01 1.76962E-04-9.61047E-02
 -1      2149 4.88116E-01 3.11597E-02-9.58765E-02
 -1      2150 8.87230E-02-1.12773E-01-1.67731E-02
 -1      2151 8.87635E-02 1.12807E-01-1.65871E-02
 -1      2152 1.64505E-02-6.24394E-03-1.77066E-03
 -1      2153 1.64081E-02 6.23235E-03-1.77185E-03
 -1      2154 1.10109E+00 1.32301E-01-9.34034E-02
 -1      2155 1.80709E-03-2.63945E-03-6.98425E-04
 -1      2156 6.91221E-02 6.00412E-02-7.80312E-03
 -1      2157 6.90026E-02-6.02235E-02-7.68841E-03
 -1      2158 1.82046E-03 2.63437E-03-7.03201E-04
 -1      2159 2.80431E-01 1.32004E-01-8.04524E-02
 -1      2160 2.79588E-01-1.32420E-01-8.03594E-02
 -1      2161 4.05344E-03 4.66889E-03-8.57301E-04
 -1      2162 4.05551E-03-4.66963E-03-8.56674E-04
 -1      2163 2.57150E-02 3.34166E-03-2.48687E-03
 -1      2164 2.57622E-02-3.35104E-03-2.50897E-03
 -1      2165 1.95946E+00 1.60024E-02 1.26390E-04
 -1      2166 1.96005E+00 1.77950E-02 5.13799E-04
 -1      2167 1.97631E+00 1.23099E-02-1.27159E-03
 -1      2168 1.96163E+00 1.88353E-02 1.48851E-03
 -1      2169 3.04309E-01 1.13138E-01-8.50553E-02
 -1      2170 3.03476E-01-1.12718E-01-8.50951E-02
 -1      2171 8.27558E-01-1.35228E-02-9.47658E-02
 -1      2172 9.42699E-04 6.68317E-06-6.40334E-04
 -1      2173 8.80002E-03-6.33721E-03-1.20234E-03
 -1      2174 8.77413E-03 6.32432E-03-1.20427E-03
 -1      2175 4.00388E-02 6.09820E-03-3.76006E-03
 -1      2176 3.99820E-02-6.09537E-03-3.71682E-03
 -1      2177 1.99631E-01 1.48703E-01-5.17381E-02
 -1      2178 2.00172E-01 1.42431E-01-5.83183E-02
 -1      2179 1.99416E-01-1.47325E-01-5.26086E-02
 -1      2180 1.99932E-01-1.41433E-01-5.77655E-02
 -1      2181 1.96041E+00 1.95832E-02 6.96365E-04
 -1      2182 1.13631E+00-1.35609E-01-9.30731E-02
 -1      2183 8.41473E-01-1.15574E-01-9.41279E-02
 -1      2184 7.01021E-02-7.11829E-02-1.69457E-02
 -1      2185 6.97365E-02 7.17323E-02-1.68189E-02
 -1      2186 4.23060E-01-9.41776E-02-9.82254E-02
 -1      2187 4.27355E-01 9.44194E-02-9.81579E-02
 -1      2188 8.82305E-01 4.32575E-02-9.46819E-02
 -1      2189 1.05934E+00 6.15884E-02-9.45455E-02
 -1      2190 1.95917E+00-1.87838E-03-1.93854E-03
 -1      2191 1.95637E+00 2.86143E-02-3.93617E-03
 -1      2192 3.06725E-02 1.12241E-02-2.75295E-03
 -1      2193 3.06896E-02-1.12762E-02-2.80638E-03
 -1      2194 7.89642E-03-4.01375E-03-8.60480E-04
 -1      2195 7.89058E-03 4.00980E-03-8.70687E-04
 -1      2196 5.86707E-04-1.37288E-03-3.49112E-04
 -1      2197 1.95911E+00 1.86111E-02-2.20102E-04
 -1      2198 4.45319E-02-3.20719E-02-5.55912E-03
 -1      2199 4.40968E-02 3.21049E-02-5.40336E-03
 -1      2200 7.53366E-04 1.59226E-03-4.05594E-04
 -1      2201 1.75953E-03 2.65674E-03-4.41886E-04
 -1      2202 1.81923E-03-2.66458E-03-4.31938E-04
 -1      2203 1.31790E-02 2.81483E-03-1.22260E-03
 -1      2204 1.32468E-02-2.83589E-03-1.24312E-03
 -1      2205 1.96433E+00 1.23972E-02-1.25539E-03
 -1      2206 2.49534E-04 1.84821E-04-3.44803E-04
 -1      2207 4.07410E-03-3.75733E-03-5.96666E-04
 -1      2208 4.03696E-03 3.75107E-03-6.02678E-04
 -1      2209 2.08102E-02 8.68095E-04-1.81387E-03
 -1      2210 2.07765E-02-9.78554E-04-1.81979E-03
 -1      2211 1.07180E+00-5.61577E-02-9.46135E-02
 -1      2212 1.95856E+00 2.03690E-02-5.66409E-04
 -1      2213 1.95705E+00 2.26292E-02-1.51354E-03
 -1      2214 1.96213E+00 2.62541E-02 2.03284E-03
 -1      2215 1.95953E+00 2.66327E-02 2.78006E-04
 -1      2216 1.96110E+00 2.66175E-02 1.34062E-03
 -1      2217 1.95854E+00 2.61570E-02-4.06585E-04
 -1      2218 1.96333E+00 2.15610E-02 2.70873E-03
 -1      2219 1.95742E+00 2.15225E-02-1.29642E-03
 -1      2220 1.96369E+00 2.25894E-02 2.98492E-03
 -1      2221 1.96369E+00 2.39659E-02 3.02628E-03
 -1      2222 1.95756E+00 2.51799E-02-1.09885E-03
 -1      2223 1.96333E+00 2.50611E-02 2.80902E-03
 -1      2224 1.96222E+00 2.04287E-02 1.91873E-03
 -1      2225 1.95704E+00 2.41414E-02-1.47918E-03
 -1      2226 6.08784E-01 2.88443E-04-9.53920E-02
 -1      2227 2.15919E-01-9.80139E-02-7.90286E-02
 -1      2228 2.16174E-01 9.81856E-02-7.89379E-02
 -1      2229 1.92551E+00-4.70806E-02-1.92579E-02
 -1      2230 1.92284E+00 6.75451E-02-2.10049E-02
 -1      2231 4.02509E-01-5.51641E-02-9.55428E-02
 -1      2232 4.04088E-01 5.60120E-02-9.54621E-02
 -1      2233 1.53870E+00 1.71670E-01-8.66203E-02
 -1      2234 1.52005E+00-1.66896E-01-8.64137E-02
 -1      2235 1.38077E+00 6.92388E-02-9.80773E-02
 -1      2236 1.37945E+00-6.37606E-02-9.84885E-02
 -1      2237 6.58034E-01-6.94106E-02-9.54912E-02
 -1      2238 7.25304E-01 1.35749E-01-9.46790E-02
 -1      2239 8.49989E-01 1.37697E-01-9.39521E-02
 -1      2240 1.98063E+00-7.71517E-03-7.31377E-04
 -1      2241 1.98049E+00 3.20804E-02-1.30515E-03
 -1      2242 6.75279E-02 4.64836E-02-6.88497E-03
 -1      2243 6.75076E-02-4.65110E-02-7.00091E-03
 -1      2244 1.05880E-01 1.36957E-01-2.07533E-02
 -1      2245 1.05595E-01-1.37351E-01-2.10638E-02
 -1      2246 2.25968E-02-5.35362E-03-2.31399E-03
 -1      2247 2.25472E-02 5.33690E-03-2.31501E-03
 -1      2248 3.08206E-03-3.94909E-03-8.35784E-04
 -1      2249 3.08999E-03 3.94802E-03-8.40085E-04
 -1      2250 6.48012E-01 6.47556E-02-9.55577E-02
 -1      2251 1.25285E+00 1.49695E-01-9.21595E-02
 -1      2252 1.95982E+00 1.86928E-02 2.97951E-04
 -1      2253 3.68180E-01-8.20210E-02-9.40379E-02
 -1      2254 3.68685E-01 8.22087E-02-9.38243E-02
 -1      2255 9.18399E-01-6.02373E-02-9.45218E-02
 -1      2256 1.96083E+00 1.94852E-02-1.88716E-03
 -1      2257 1.95902E+00 1.63393E-02-5.62113E-04
 -1      2258 1.96219E+00 1.52647E-02 1.67319E-03
 -1      2259 1.40812E-01-1.44476E-01-3.13826E-02
 -1      2260 2.13502E-01-1.41167E-01-5.82362E-02
 -1      2261 2.57196E-01-1.31463E-01-7.47993E-02
 -1      2262 2.93341E-01-1.24753E-01-8.79340E-02
 -1      2263 2.35269E-01-1.42108E-01-6.47893E-02
 -1      2264 2.13702E-01 1.41974E-01-5.81149E-02
 -1      2265 1.39873E-01 1.45236E-01-3.01791E-02
 -1      2266 2.94162E-01 1.24884E-01-8.80535E-02
 -1      2267 2.57443E-01 1.31252E-01-7.50805E-02
 -1      2268 2.34862E-01 1.42778E-01-6.42939E-02
 -1      2269 3.39844E-01-1.15812E-01-9.82278E-02
 -1      2270 3.70105E-01-1.14179E-01-1.01653E-01
 -1      2271 4.24659E-01-1.20286E-01-1.05297E-01
 -1      2272 5.28807E-01-1.40573E-01-1.00046E-01
 -1      2273 4.03470E-01-1.08419E-01-1.01184E-01
 -1      2274 3.71391E-01 1.14723E-01-1.02628E-01
 -1      2275 3.41192E-01 1.16044E-01-9.80821E-02
 -1      2276 5.28578E-01 1.40655E-01-1.00290E-01
 -1      2277 4.23899E-01 1.19814E-01-1.05502E-01
 -1      2278 4.04170E-01 1.08725E-01-1.01767E-01
 -1      2279 1.95843E+00 1.99991E-02-6.63183E-04
 -1      2280 1.95799E+00 2.03371E-02-9.52274E-04
 -1      2281 1.95873E+00 1.85166E-02-4.91467E-04
 -1      2282 1.95872E+00 1.91202E-02-4.83707E-04
 -1      2283 1.95926E+00 1.91802E-02-1.06099E-04
 -1      2284 1.95887E+00 1.96745E-02-3.72089E-04
 -1      2285 1.95900E+00 2.00514E-02-2.76097E-04
 -1      2286 1.96208E+00 1.92709E-02 1.79354E-03
 -1      2287 1.96213E+00 1.87752E-02 1.81576E-03
 -1      2288 1.96278E+00 2.03981E-02 2.29962E-03
 -1      2289 1.96236E+00 2.00693E-02 1.99981E-03
 -1      2290 1.96193E+00 1.97667E-02 1.69972E-03
 -1      2291 1.96148E+00 1.93137E-02 1.39967E-03
 -1      2292 1.96179E+00 2.01200E-02 1.61633E-03
 -1      2293 1.99132E+00 2.31469E-02 1.93766E-04
 -1      2294 1.99007E+00 4.35289E-02-3.12354E-04
 -1      2295 1.98976E+00-1.96229E-02 2.66680E-04
 -1      2296 1.99120E+00 8.07560E-04 3.54605E-04
 -1      2297 1.97943E+00 3.31096E-03-9.96031E-04
 -1      2298 1.98655E+00 1.19993E-02-3.34838E-04
 -1      2299 1.97945E+00 2.11576E-02-1.27995E-03
 -1      2300 6.10350E-02-1.44836E-02-5.76760E-02
 -1      2301 6.45038E-02-3.20726E-02-5.76304E-02
 -1      2302 6.37718E-02 3.23460E-02-5.74789E-02
 -1      2303 6.25274E-02 1.32380E-02-5.92388E-02
 -1      2304 1.59282E-01 2.13556E-02-8.83971E-02
 -1      2305 9.59901E-02 6.56468E-05-7.55786E-02
 -1      2306 1.59790E-01-2.04860E-02-8.87012E-02
 -1      2307 1.96038E+00 2.67938E-02 8.55467E-04
 -1      2308 1.95995E+00 2.70626E-02 5.76589E-04
 -1      2309 1.95995E+00 2.63639E-02 5.56902E-04
 -1      2310 1.96074E+00 2.70548E-02 1.10790E-03
 -1      2311 1.96074E+00 2.63564E-02 1.08820E-03
 -1      2312 1.95942E+00 2.62575E-02 1.91270E-04
 -1      2313 1.96127E+00 2.62501E-02 1.44781E-03
 -1      2314 9.15964E-02-1.31865E-01-1.27255E-02
 -1      2315 1.07596E-01-1.41983E-01-1.83706E-02
 -1      2316 1.26066E-01-1.45687E-01-2.63903E-02
 -1      2317 1.69598E-01-1.49698E-01-4.31231E-02
 -1      2318 1.22319E-01-1.43686E-01-2.77525E-02
 -1      2319 8.25558E-02-1.06338E-01-1.03199E-02
 -1      2320 8.76445E-02-1.22159E-01-1.24494E-02
 -1      2321 9.64051E-02-1.26659E-01-1.87379E-02
 -1      2322 7.53879E-02-6.57878E-02-7.93604E-03
 -1      2323 7.84521E-02-8.13593E-02-8.66393E-03
 -1      2324 7.79070E-02-8.90791E-02-9.85127E-03
 -1      2325 7.95176E-02-9.27508E-02-1.40412E-02
 -1      2326 6.84757E-02-6.57663E-02-9.03733E-03
 -1      2327 7.06660E-02-4.51250E-02-7.19075E-03
 -1      2328 7.49227E-02-5.82889E-02-7.71774E-03
 -1      2329 6.81027E-02-5.29610E-02-7.27517E-03
 -1      2330 5.99965E-02-2.60234E-02-5.92887E-03
 -1      2331 6.55437E-02-3.60061E-02-6.54649E-03
 -1      2332 6.20965E-02-3.65749E-02-6.26324E-03
 -1      2333 4.60269E-02-8.25898E-03-4.44904E-03
 -1      2334 5.12838E-02-1.40132E-02-5.02432E-03
 -1      2335 5.35362E-02-1.84472E-02-5.20780E-03
 -1      2336 4.94416E-02-1.94423E-02-4.66278E-03
 -1      2337 4.12175E-02-8.95734E-03-3.82228E-03
 -1      2338 4.04306E-02-3.60507E-03-3.91666E-03
 -1      2339 2.86778E-02 3.59632E-03-2.86528E-03
 -1      2340 3.30427E-02 1.33534E-03-3.26339E-03
 -1      2341 3.51455E-02-5.88891E-04-3.39044E-03
 -1      2342 3.39115E-02-2.50072E-03-3.13392E-03
 -1      2343 2.69796E-02 1.97059E-03-2.55672E-03
 -1      2344 2.29009E-02 5.97665E-03-2.41865E-03
 -1      2345 2.67566E-02 4.70621E-03-2.73784E-03
 -1      2346 2.40380E-02 4.42564E-03-2.39124E-03
 -1      2347 1.66813E-02 7.00416E-03-1.89643E-03
 -1      2348 1.99063E-02 6.49191E-03-2.15069E-03
 -1      2349 1.93068E-02 5.89675E-03-2.02461E-03
 -1      2350 1.03238E-02 6.97683E-03-1.40963E-03
 -1      2351 1.25306E-02 7.15478E-03-1.57499E-03
 -1      2352 9.60539E-03 6.20878E-03-1.22438E-03
 -1      2353 1.38794E-02 6.98818E-03-1.63616E-03
 -1      2354 1.32727E-02 6.22201E-03-1.47904E-03
 -1      2355 8.27885E-03 6.56497E-03-1.25395E-03
 -1      2356 4.55568E-03 5.02865E-03-9.85682E-04
 -1      2357 5.84022E-03 5.71633E-03-1.07772E-03
 -1      2358 6.64441E-03 5.98326E-03-1.09844E-03
 -1      2359 6.85605E-03 5.72280E-03-1.01711E-03
 -1      2360 4.59355E-03 4.89008E-03-8.58843E-04
 -1      2361 3.05543E-03 3.81613E-03-8.96263E-04
 -1      2362 3.98895E-03 4.63409E-03-9.60347E-04
 -1      2363 3.52509E-03 4.31915E-03-8.43724E-04
 -1      2364 1.84005E-03 2.28455E-03-7.91893E-04
 -1      2365 2.43453E-03 3.16771E-03-8.31219E-04
 -1      2366 2.39289E-03 3.28734E-03-7.63879E-04
 -1      2367 1.26153E-03-2.17050E-06-7.47082E-04
 -1      2368 1.33856E-03 9.15673E-04-7.52287E-04
 -1      2369 8.75162E-04 6.22500E-04-5.98051E-04
 -1      2370 1.42560E-03 1.55729E-03-7.29697E-04
 -1      2371 1.28951E-03 1.90220E-03-6.29323E-04
 -1      2372 1.33760E-03-9.17000E-04-7.53702E-04
 -1      2373 2.42892E-03-3.18173E-03-8.31209E-04
 -1      2374 1.84155E-03-2.29562E-03-7.90097E-04
 -1      2375 1.42536E-03-1.55472E-03-7.29794E-04
 -1      2376 8.67916E-04-6.04063E-04-6.00815E-04
 -1      2377 1.28153E-03-1.89594E-03-6.27902E-04
 -1      2378 3.99534E-03-4.64842E-03-9.63920E-04
 -1      2379 3.05640E-03-3.83323E-03-8.94350E-04
 -1      2380 2.37914E-03-3.28994E-03-7.61915E-04
 -1      2381 5.85399E-03-5.72945E-03-1.07702E-03
 -1      2382 4.56767E-03-5.04387E-03-9.79791E-04
 -1      2383 3.52605E-03-4.31931E-03-8.41753E-04
 -1      2384 1.03556E-02-6.99136E-03-1.40431E-03
 -1      2385 8.30456E-03-6.57481E-03-1.25188E-03
 -1      2386 6.87989E-03-5.73277E-03-1.02177E-03
 -1      2387 6.66788E-03-5.99644E-03-1.10140E-03
 -1      2388 4.59512E-03-4.90097E-03-8.58756E-04
 -1      2389 1.25669E-02-7.16853E-03-1.57395E-03
 -1      2390 1.99531E-02-6.51362E-03-2.14873E-03
 -1      2391 1.67253E-02-7.01333E-03-1.89623E-03
 -1      2392 1.39193E-02-6.99963E-03-1.63716E-03
 -1      2393 9.63196E-03-6.22321E-03-1.22391E-03
 -1      2394 1.33099E-02-6.23397E-03-1.48653E-03
 -1      2395 2.68089E-02-4.72166E-03-2.75454E-03
 -1      2396 2.29492E-02-6.00149E-03-2.42434E-03
 -1      2397 1.93481E-02-5.90821E-03-2.01288E-03
 -1      2398 3.30955E-02-1.35311E-03-3.26572E-03
 -1      2399 2.87250E-02-3.60070E-03-2.87737E-03
 -1      2400 2.40873E-02-4.43887E-03-2.39864E-03
 -1      2401 4.60768E-02 8.25158E-03-4.48749E-03
 -1      2402 4.04946E-02 3.57333E-03-3.94467E-03
 -1      2403 3.39559E-02 2.46301E-03-3.14623E-03
 -1      2404 3.51967E-02 5.52404E-04-3.39866E-03
 -1      2405 2.70313E-02-1.96460E-03-2.57255E-03
 -1      2406 5.13467E-02 1.39736E-02-5.01502E-03
 -1      2407 6.56200E-02 3.60320E-02-6.60536E-03
 -1      2408 6.01142E-02 2.59758E-02-5.96537E-03
 -1      2409 4.94544E-02 1.93744E-02-4.66887E-03
 -1      2410 5.36277E-02 1.83700E-02-5.18798E-03
 -1      2411 4.12817E-02 8.98280E-03-3.83897E-03
 -1      2412 7.50691E-02 5.82979E-02-7.59027E-03
 -1      2413 7.07198E-02 4.51710E-02-7.14982E-03
 -1      2414 6.20838E-02 3.65948E-02-6.20274E-03
 -1      2415 7.84479E-02 8.15387E-02-8.45922E-03
 -1      2416 7.55031E-02 6.57834E-02-7.87610E-03
 -1      2417 6.81111E-02 5.28461E-02-7.16235E-03
 -1      2418 8.78590E-02 1.22143E-01-1.22629E-02
 -1      2419 8.27307E-02 1.06500E-01-1.03498E-02
 -1      2420 7.94831E-02 9.27112E-02-1.38484E-02
 -1      2421 7.80226E-02 8.92773E-02-9.67773E-03
 -1      2422 6.84507E-02 6.58674E-02-8.87210E-03
 -1      2423 1.07677E-01 1.42518E-01-1.78104E-02
 -1      2424 9.20098E-02 1.32022E-01-1.26376E-02
 -1      2425 9.65578E-02 1.26387E-01-1.85199E-02
 -1      2426 1.69573E-01 1.51473E-01-4.25845E-02
 -1      2427 1.25333E-01 1.46694E-01-2.56978E-02
 -1      2428 1.21572E-01 1.44309E-01-2.72729E-02
 -1      2429 1.95715E+00 2.52878E-02-1.37263E-03
 -1      2430 1.95749E+00 2.57225E-02-1.13443E-03
 -1      2431 1.95798E+00 2.62110E-02-7.88262E-04
 -1      2432 1.95841E+00 2.65442E-02-4.84425E-04
 -1      2433 1.95847E+00 2.57164E-02-4.66978E-04
 -1      2434 1.95791E+00 2.57703E-02-8.48681E-04
 -1      2435 1.95798E+00 2.52277E-02-8.13089E-04
 -1      2436 1.95668E+00 2.42619E-02-1.71914E-03
 -1      2437 1.95689E+00 2.47688E-02-1.56280E-03
 -1      2438 1.95730E+00 2.46608E-02-1.28899E-03
 -1      2439 1.95661E+00 2.37174E-02-1.78292E-03
 -1      2440 1.95669E+00 2.24154E-02-1.76709E-03
 -1      2441 1.95662E+00 2.29612E-02-1.80011E-03
 -1      2442 1.95688E+00 2.32932E-02-1.61246E-03
 -1      2443 1.95732E+00 2.29613E-02-1.32584E-03
 -1      2444 1.95731E+00 2.37175E-02-1.30866E-03
 -1      2445 1.95708E+00 2.13524E-02-1.53086E-03
 -1      2446 1.95687E+00 2.18622E-02-1.65847E-03
 -1      2447 1.95724E+00 2.20762E-02-1.40495E-03
 -1      2448 1.95742E+00 2.09142E-02-1.31725E-03
 -1      2449 1.95791E+00 2.08043E-02-9.88627E-04
 -1      2450 1.95849E+00 2.08357E-02-6.04163E-04
 -1      2451 1.95792E+00 2.14128E-02-9.68207E-04
 -1      2452 1.96907E+00 6.75154E-02-8.36741E-03
 -1      2453 1.94873E+00 5.65512E-02-2.07786E-02
 -1      2454 1.97000E+00 5.70464E-02-5.10347E-03
 -1      2455 1.94509E+00 6.35631E-02-1.29713E-02
 -1      2456 1.96980E+00 4.29952E-02-4.06971E-03
 -1      2457 1.85553E+00-6.22955E-02-7.90559E-02
 -1      2458 1.84730E+00-8.44931E-02-1.07640E-01
 -1      2459 1.81192E+00-4.43743E-02-5.62410E-02
 -1      2460 1.86760E+00 2.60241E-02-3.98510E-02
 -1      2461 1.70054E+00-1.28324E-01-6.90610E-02
 -1      2462 1.86985E+00 5.18082E-02-3.51906E-02
 -1      2463 1.89923E+00-2.26946E-02-1.37745E-01
 -1      2464 1.89975E+00 3.51276E-02-1.37870E-01
 -1      2465 1.79994E+00-7.46641E-02-1.20742E-01
 -1      2466 1.70082E+00-4.69691E-02-1.17089E-01
 -1      2467 1.68302E+00-1.23008E-01-1.01409E-01
 -1      2468 1.84888E+00 9.36659E-02-1.05088E-01
 -1      2469 1.85527E+00 7.53490E-02-7.88098E-02
 -1      2470 1.70401E+00 5.38774E-02-1.17707E-01
 -1      2471 1.80050E+00 8.67995E-02-1.21675E-01
 -1      2472 1.68353E+00 1.33215E-01-9.85332E-02
 -1      2473 1.94958E+00-3.80530E-02-1.87392E-02
 -1      2474 1.96933E+00-4.61488E-02-6.45364E-03
 -1      2475 1.87353E+00-1.25704E-02-3.66360E-02
 -1      2476 1.81167E+00 6.04063E-02-5.19411E-02
 -1      2477 1.70598E+00 1.37411E-01-6.87515E-02
 -1      2478 1.87563E+00-3.23169E-02-3.22325E-02
 -1      2479 1.94780E+00-3.93190E-02-1.04463E-02
 -1      2480 1.97140E+00-3.23738E-02-4.28266E-03
 -1      2481 1.97082E+00-1.80129E-02-2.99005E-03
 -1      2482 6.45515E-02-4.44926E-02-4.96171E-02
 -1      2483 6.39796E-02-5.11679E-02-3.95228E-02
 -1      2484 1.34083E-01-5.77594E-02-7.65635E-02
 -1      2485 4.86258E-02-4.67142E-02-1.82100E-02
 -1      2486 4.23069E-02-3.88878E-02-1.08813E-02
 -1      2487 8.00479E-02-7.08695E-02-3.67047E-02
 -1      2488 1.34290E-01-1.18330E-01-4.64022E-02
 -1      2489 8.22056E-02-7.96941E-02-3.07187E-02
 -1      2490 9.10412E-02-9.73386E-02-2.55099E-02
 -1      2491 1.46088E-01-9.47921E-02-6.43110E-02
 -1      2492 2.97289E-02-2.24528E-02-5.16983E-03
 -1      2493 2.61379E-02-1.59709E-02-2.94633E-03
 -1      2494 5.34645E-02-4.73413E-02-9.53623E-03
 -1      2495 1.93624E-02-9.22441E-03-1.99449E-03
 -1      2496 1.69760E-02-5.27288E-03-1.19877E-03
 -1      2497 1.28306E-02-2.18191E-03-1.06745E-03
 -1      2498 3.53516E-02-1.87281E-02-3.42889E-03
 -1      2499 1.13126E-02-1.53531E-04-7.65926E-04
 -1      2500 8.62569E-03 1.03234E-03-7.54221E-04
 -1      2501 2.40427E-02-4.51410E-03-1.95220E-03
 -1      2502 7.00545E-03 1.80454E-03-5.81868E-04
 -1      2503 5.06880E-03 2.03860E-03-5.18021E-04
 -1      2504 1.60571E-02 1.46501E-03-1.37342E-03
 -1      2505 4.11160E-03 2.32965E-03-4.06038E-04
 -1      2506 2.83724E-03 2.12511E-03-3.67960E-04
 -1      2507 9.81801E-03 3.58163E-03-9.62294E-04
 -1      2508 2.13037E-03 2.13466E-03-2.71131E-04
 -1      2509 1.37591E-03 1.78384E-03-2.70915E-04
 -1      2510 5.41320E-03 3.85660E-03-6.70894E-04
 -1      2511 8.92887E-04 1.52787E-03-2.02436E-04
 -1      2512 4.72239E-04 1.11820E-03-2.06892E-04
 -1      2513 2.60909E-03 3.13796E-03-4.85736E-04
 -1      2514 7.67880E-05 4.12091E-04-1.81044E-04
 -1      2515 3.14037E-05 5.34785E-05-1.61867E-04
 -1      2516 1.13148E-03 2.10703E-03-3.96022E-04
 -1      2517 2.95233E-04 8.86870E-04-1.87721E-04
 -1      2518 3.81550E-04 8.59914E-04-3.51970E-04
 -1      2519 6.51649E-05-3.75314E-04-1.70619E-04
 -1      2520 2.26212E-04-7.67333E-04-1.64627E-04
 -1      2521 2.56314E-04-5.85995E-04-3.15283E-04
 -1      2522 4.69712E-04-1.07005E-03-1.98930E-04
 -1      2523 8.82638E-04-1.49078E-03-2.01391E-04
 -1      2524 1.01983E-03-1.96386E-03-3.54361E-04
 -1      2525 1.37722E-03-1.77404E-03-2.74032E-04
 -1      2526 2.14377E-03-2.14658E-03-2.79649E-04
 -1      2527 2.67230E-03-3.15437E-03-4.77339E-04
 -1      2528 2.84908E-03-2.10634E-03-3.81184E-04
 -1      2529 4.12970E-03-2.33507E-03-3.87666E-04
 -1      2530 5.46205E-03-3.86502E-03-6.54392E-04
 -1      2531 5.09499E-03-2.02494E-03-5.30161E-04
 -1      2532 6.99590E-03-1.80471E-03-5.41436E-04
 -1      2533 9.89353E-03-3.56057E-03-9.66833E-04
 -1      2534 8.70004E-03-1.08332E-03-7.60178E-04
 -1      2535 1.13678E-02 1.30265E-04-7.81702E-04
 -1      2536 1.61383E-02-1.44266E-03-1.45736E-03
 -1      2537 1.28753E-02 2.19707E-03-1.06497E-03
 -1      2538 1.69463E-02 5.23203E-03-1.21150E-03
 -1      2539 2.41458E-02 4.66053E-03-2.09414E-03
 -1      2540 1.94976E-02 9.36631E-03-2.15254E-03
 -1      2541 2.63854E-02 1.60684E-02-3.19125E-03
 -1      2542 3.54022E-02 1.89860E-02-3.56635E-03
 -1      2543 2.99811E-02 2.25493E-02-5.88898E-03
 -1      2544 4.22382E-02 3.89911E-02-1.11480E-02
 -1      2545 4.79407E-02 4.69362E-02-1.88515E-02
 -1      2546 5.34712E-02 4.74724E-02-9.72812E-03
 -1      2547 6.37043E-02 5.08303E-02-3.98105E-02
 -1      2548 6.42837E-02 4.52947E-02-4.90929E-02
 -1      2549 7.95670E-02 7.06412E-02-3.57285E-02
 -1      2550 1.45259E-01 9.58189E-02-6.33798E-02
 -1      2551 8.15734E-02 7.95821E-02-3.11388E-02
 -1      2552 1.33837E-01 1.18734E-01-4.62061E-02
 -1      2553 9.11424E-02 9.70673E-02-2.52505E-02
 -1      2554 1.34130E-01 5.89281E-02-7.61421E-02
 -1      2555 3.23095E-01-1.19436E-01-9.13772E-02
 -1      2556 3.24159E-01 1.20212E-01-9.06405E-02
 -1      2557 6.39213E-01-1.35934E-01-9.58600E-02
 -1      2558 7.41596E-01-1.43142E-01-9.43724E-02
 -1      2559 5.58176E-01-1.30803E-01-9.84440E-02
 -1      2560 5.96005E-01-1.06055E-01-9.69001E-02
 -1      2561 4.87036E-01-1.08847E-01-9.97348E-02
 -1      2562 8.24380E-01-1.46545E-01-9.37111E-02
 -1      2563 9.26630E-01-1.50521E-01-9.33793E-02
 -1      2564 7.58495E-01-1.12809E-01-9.46163E-02
 -1      2565 1.07290E+00-1.60321E-01-9.27652E-02
 -1      2566 1.17417E+00-1.65024E-01-9.18027E-02
 -1      2567 1.00347E+00-1.47900E-01-9.32992E-02
 -1      2568 1.06668E+00-1.22483E-01-9.35696E-02
 -1      2569 9.18671E-01-1.12979E-01-9.39763E-02
 -1      2570 1.27675E+00-1.67301E-01-9.02506E-02
 -1      2571 1.37427E+00-1.73492E-01-8.75411E-02
 -1      2572 1.24239E+00-1.37057E-01-9.26056E-02
 -1      2573 1.45584E+00-1.86062E-01-8.25041E-02
 -1      2574 1.54270E+00-1.84067E-01-7.76873E-02
 -1      2575 1.43764E+00-1.55127E-01-8.97902E-02
 -1      2576 1.62726E+00-1.64558E-01-7.59579E-02
 -1      2577 1.61735E+00-1.55114E-01-8.71515E-02
 -1      2578 1.90890E+00 6.41771E-02-2.49625E-02
 -1      2579 1.93383E+00 5.76846E-02-1.65980E-02
 -1      2580 1.94608E+00 4.45615E-02-1.03531E-02
 -1      2581 1.95297E+00 3.27330E-02-6.15251E-03
 -1      2582 1.95676E+00 2.51685E-02-3.44540E-03
 -1      2583 1.95521E+00 3.80949E-02-6.22957E-03
 -1      2584 1.95847E+00 2.00437E-02-1.74376E-03
 -1      2585 1.95902E+00 1.76345E-02-9.53811E-04
 -1      2586 1.95779E+00 2.19304E-02-2.24323E-03
 -1      2587 1.95929E+00 1.65819E-02-6.63106E-04
 -1      2588 1.95916E+00 1.62529E-02-4.85775E-04
 -1      2589 1.95877E+00 1.70001E-02-8.43138E-04
 -1      2590 1.95902E+00 1.63950E-02-4.02355E-04
 -1      2591 1.95897E+00 1.68582E-02-3.89837E-04
 -1      2592 1.95898E+00 1.62941E-02-3.89043E-04
 -1      2593 1.95876E+00 1.78993E-02-4.84543E-04
 -1      2594 1.95922E+00 1.71369E-02-1.15596E-04
 -1      2595 1.95891E+00 1.74510E-02-3.89031E-04
 -1      2596 1.95922E+00 1.81651E-02-1.41076E-04
 -1      2597 7.68030E-01 1.57696E-01-9.40588E-02
 -1      2598 6.65666E-01 1.50577E-01-9.54828E-02
 -1      2599 5.51762E-01 1.30214E-01-9.88530E-02
 -1      2600 4.79521E-01 1.07641E-01-1.00114E-01
 -1      2601 6.14613E-01 1.32768E-01-9.68827E-02
 -1      2602 5.64834E-01 1.02417E-01-9.75486E-02
 -1      2603 6.75256E-01 1.19429E-01-9.56173E-02
 -1      2604 9.32459E-01 1.63103E-01-9.34311E-02
 -1      2605 8.30154E-01 1.58532E-01-9.36749E-02
 -1      2606 7.87593E-01 1.37018E-01-9.42681E-02
 -1      2607 1.15874E+00 1.65797E-01-9.21267E-02
 -1      2608 1.05708E+00 1.60436E-01-9.31168E-02
 -1      2609 1.01831E+00 1.13602E-01-9.38840E-02
 -1      2610 9.74948E-01 1.42302E-01-9.35765E-02
 -1      2611 8.92280E-01 1.16930E-01-9.40692E-02
 -1      2612 1.33191E+00 1.81634E-01-8.84269E-02
 -1      2613 1.23325E+00 1.74428E-01-9.10780E-02
 -1      2614 1.17725E+00 1.40700E-01-9.29108E-02
 -1      2615 1.55296E+00 1.90996E-01-7.68543E-02
 -1      2616 1.46698E+00 1.91578E-01-8.22914E-02
 -1      2617 1.47126E+00 1.56666E-01-9.06417E-02
 -1      2618 1.39833E+00 1.76219E-01-8.76470E-02
 -1      2619 1.32347E+00 1.43859E-01-9.24512E-02
 -1      2620 1.63122E+00 1.73911E-01-7.43178E-02
 -1      2621 1.62891E+00 1.62441E-01-8.62731E-02
 -1      2622 1.91408E+00-4.20990E-02-2.22461E-02
 -1      2623 1.95017E+00-1.83515E-02-7.65800E-03
 -1      2624 1.93859E+00-3.33927E-02-1.32763E-02
 -1      2625 1.96122E+00 2.50923E-03-7.15096E-04
 -1      2626 1.95710E+00-6.05802E-03-3.54903E-03
 -1      2627 1.95810E+00-1.21195E-02-4.38966E-03
 -1      2628 1.96209E+00 1.19837E-02 1.18680E-03
 -1      2629 1.96143E+00 8.03284E-03 1.83014E-04
 -1      2630 1.96025E+00 5.24383E-03-9.00871E-04
 -1      2631 1.96300E+00 1.59737E-02 2.16211E-03
 -1      2632 1.96313E+00 1.45588E-02 2.08609E-03
 -1      2633 1.96141E+00 1.32177E-02 8.92109E-04
 -1      2634 1.96226E+00 1.72940E-02 1.83847E-03
 -1      2635 1.96238E+00 1.66408E-02 1.85800E-03
 -1      2636 1.96168E+00 1.61578E-02 1.48940E-03
 -1      2637 1.96203E+00 1.83593E-02 1.74159E-03
 -1      2638 1.96210E+00 1.78840E-02 1.77574E-03
 -1      2639 1.96132E+00 1.74023E-02 1.31168E-03
 -1      2640 1.96148E+00 1.84095E-02 1.40049E-03
 -1      2641 1.96366E+00 2.13939E-02 2.93288E-03
 -1      2642 1.96333E+00 2.09638E-02 2.69477E-03
 -1      2643 1.96285E+00 2.08561E-02 2.36105E-03
 -1      2644 1.96284E+00 2.14532E-02 2.37470E-03
 -1      2645 1.96229E+00 2.08873E-02 1.97877E-03
 -1      2646 1.96387E+00 2.18953E-02 3.08938E-03
 -1      2647 1.96412E+00 2.29488E-02 3.29143E-03
 -1      2648 1.96405E+00 2.24096E-02 3.22747E-03
 -1      2649 1.96351E+00 2.20749E-02 2.84688E-03
 -1      2650 1.96406E+00 2.41775E-02 3.27924E-03
 -1      2651 1.96413E+00 2.36371E-02 3.31218E-03
 -1      2652 1.96343E+00 2.29487E-02 2.81850E-03
 -1      2653 1.96386E+00 2.33083E-02 3.12494E-03
 -1      2654 1.96343E+00 2.36370E-02 2.83910E-03
 -1      2655 1.96366E+00 2.52294E-02 3.04310E-03
 -1      2656 1.96387E+00 2.47250E-02 3.17068E-03
 -1      2657 1.96351E+00 2.45133E-02 2.91769E-03
 -1      2658 1.96333E+00 2.56627E-02 2.82962E-03
 -1      2659 1.96230E+00 2.65922E-02 2.15669E-03
 -1      2660 1.96274E+00 2.62593E-02 2.44158E-03
 -1      2661 1.96284E+00 2.57713E-02 2.50147E-03
 -1      2662 1.96224E+00 2.57660E-02 2.09277E-03
 -1      2663 1.96284E+00 2.51696E-02 2.48091E-03
 -1      2664 1.96180E+00 2.68015E-02 1.81986E-03
 -1      2665 1.96128E+00 2.69833E-02 1.47375E-03
 -1      2666 1.96162E+00 2.64358E-02 1.68674E-03
 -1      2667 1.95941E+00 2.69913E-02 2.06661E-04
 -1      2668 1.95891E+00 2.67820E-02-1.42106E-04
 -1      2669 1.95904E+00 2.63949E-02-6.42812E-05
 -1      2670 1.95892E+00 2.60196E-02-1.51003E-04
 -1      2671 1.95768E+00 2.47734E-02-1.03129E-03
 -1      2672 1.95742E+00 2.42541E-02-1.22143E-03
 -1      2673 1.95743E+00 2.24233E-02-1.26892E-03
 -1      2674 1.95761E+00 2.18701E-02-1.16044E-03
 -1      2675 1.95895E+00 2.05302E-02-3.03293E-04
 -1      2676 1.95938E+00 2.02180E-02-1.22110E-05
 -1      2677 1.95990E+00 2.01226E-02 3.50287E-04
 -1      2678 1.96086E+00 2.01559E-02 1.00149E-03
 -1      2679 1.96140E+00 2.02724E-02 1.36351E-03
 -1      2680 1.96040E+00 2.00444E-02 6.93732E-04
 -1      2681 1.96087E+00 1.97005E-02 1.00606E-03
 -1      2682 1.95992E+00 1.96540E-02 3.55723E-04
 -1      2683 1.96185E+00 2.05867E-02 1.66554E-03
 -1      2684 1.96314E+00 2.19028E-02 2.59303E-03
 -1      2685 1.96332E+00 2.24171E-02 2.73118E-03
 -1      2686 1.96332E+00 2.41697E-02 2.78214E-03
 -1      2687 1.96314E+00 2.47173E-02 2.67346E-03
 -1      2688 1.96179E+00 2.60685E-02 1.79394E-03
 -1      2689 1.19426E-02-4.66548E-03-1.23410E-03
 -1      2690 1.24208E-02-5.37991E-03-1.31271E-03
 -1      2691 1.66255E-02-5.55953E-03-1.72536E-03
 -1      2692 1.98422E-02-5.14964E-03-1.99715E-03
 -1      2693 2.10172E-02-4.29353E-03-2.06182E-03
 -1      2694 2.00452E-02-3.31572E-03-1.88691E-03
 -1      2695 1.52234E-02-3.84587E-03-1.46380E-03
 -1      2696 1.20000E-03-2.20487E-03-4.71608E-04
 -1      2697 1.18642E-03-2.06077E-03-5.24526E-04
 -1      2698 1.91770E-03-2.90282E-03-6.53932E-04
 -1      2699 2.59376E-03-3.56484E-03-7.29379E-04
 -1      2700 2.97744E-03-3.88180E-03-7.33663E-04
 -1      2701 2.99242E-03-3.80447E-03-6.47189E-04
 -1      2702 1.96943E-03-2.96280E-03-5.30787E-04
 -1      2703 1.96111E+00 1.87953E-02 1.16463E-03
 -1      2704 1.96099E+00 1.92816E-02 1.08461E-03
 -1      2705 1.96052E+00 1.91549E-02 7.72987E-04
 -1      2706 1.96021E+00 1.87117E-02 5.69540E-04
 -1      2707 1.95996E+00 1.82305E-02 4.12334E-04
 -1      2708 1.96034E+00 1.82730E-02 6.85057E-04
 -1      2709 1.96012E+00 1.91459E-02 4.96472E-04
 -1      2710 1.96063E+00 1.78933E-02 8.95748E-04
 -1      2711 1.96094E+00 1.83580E-02 1.06957E-03
 -1      2712 1.96054E+00 1.23738E-02-4.36646E-04
 -1      2713 1.96064E+00 1.33272E-02 4.73397E-04
 -1      2714 1.95995E+00 1.44717E-02-2.23579E-05
 -1      2715 1.96168E+00 1.39070E-02-1.05393E-03
 -1      2716 1.96162E+00 9.56850E-03-8.73070E-04
 -1      2717 1.95997E+00 1.56322E-02 3.76803E-04
 -1      2718 1.95949E+00 1.53729E-02-3.28587E-04
 -1      2719 1.95905E+00 1.60529E-02-6.11819E-04
 -1      2720 1.95871E+00 1.68493E-02-8.28414E-04
 -1      2721 1.95921E+00 1.71129E-02-1.12273E-03
 -1      2722 1.95910E+00 1.60609E-02-2.22256E-04
 -1      2723 1.95905E+00 1.93166E-02-1.62563E-03
 -1      2724 1.96058E+00 1.64662E-02-1.26641E-03
 -1      2725 1.96296E+00 1.64994E-02-1.68161E-03
 -1      2726 4.83986E-01 7.18230E-02-9.66619E-02
 -1      2727 4.72592E-01 8.72009E-02-9.76881E-02
 -1      2728 5.16803E-01 8.33699E-02-9.73170E-02
 -1      2729 4.65379E-01 6.00277E-02-9.60310E-02
 -1      2730 4.23661E-01 6.68307E-02-9.58058E-02
 -1      2731 4.35143E-01 8.62610E-02-9.71526E-02
 -1      2732 4.64790E-01 9.63346E-02-9.89053E-02
 -1      2733 3.86660E-01 6.95049E-02-9.48292E-02
 -1      2734 4.04673E-01 7.90628E-02-9.55290E-02
 -1      2735 3.98779E-01 8.77648E-02-9.57373E-02
 -1      2736 1.96757E-03 2.97772E-03-5.34769E-04
 -1      2737 2.92843E-03 3.77234E-03-6.50337E-04
 -1      2738 3.00582E-03 3.91075E-03-7.34864E-04
 -1      2739 2.62643E-03 3.58709E-03-7.37159E-04
 -1      2740 1.95454E-03 2.92537E-03-6.64953E-04
 -1      2741 1.28871E-03 2.16809E-03-5.59690E-04
 -1      2742 1.34203E-03 2.34939E-03-5.07002E-04
 -1      2743 1.84131E-01 5.68724E-02-8.62269E-02
 -1      2744 2.58225E-01 5.54553E-02-9.23597E-02
 -1      2745 2.11285E-01 4.11542E-02-9.12880E-02
 -1      2746 1.80347E-01 7.82190E-02-7.97115E-02
 -1      2747 2.62867E-01 8.47488E-02-8.73853E-02
 -1      2748 2.23781E-01 8.55420E-02-8.37400E-02
 -1      2749 2.53658E-01 9.79712E-02-8.34045E-02
 -1      2750 2.75157E-01 7.12737E-02-9.05913E-02
 -1      2751 3.06629E-01 8.23986E-02-9.04303E-02
 -1      2752 3.04593E-01 5.43014E-02-9.38974E-02
 -1      2753 1.75011E-01 9.01994E-02-7.44903E-02
 -1      2754 2.38004E-01 1.96223E-02-9.45267E-02
 -1      2755 4.62024E-01-1.74472E-02-9.59453E-02
 -1      2756 4.61060E-01 2.30821E-04-9.59373E-02
 -1      2757 5.09932E-01-1.74402E-02-9.57499E-02
 -1      2758 4.50815E-01 1.57856E-02-9.59725E-02
 -1      2759 4.98685E-01 1.58405E-02-9.57676E-02
 -1      2760 5.58705E-01 2.42607E-04-9.55385E-02
 -1      2761 5.59436E-01-1.79004E-02-9.55674E-02
 -1      2762 5.46342E-01 3.15665E-02-9.56533E-02
 -1      2763 5.57304E-01 1.58918E-02-9.55758E-02
 -1      2764 6.07331E-01 1.63648E-02-9.54197E-02
 -1      2765 4.08526E-01-7.92734E-02-9.58799E-02
 -1      2766 3.85443E-01-6.89851E-02-9.49623E-02
 -1      2767 4.27244E-01-6.69190E-02-9.59699E-02
 -1      2768 3.60676E-01-6.18171E-02-9.47722E-02
 -1      2769 3.44765E-01-7.59127E-02-9.34251E-02
 -1      2770 4.37006E-01-8.67488E-02-9.73366E-02
 -1      2771 3.96678E-01-8.77442E-02-9.59186E-02
 -1      2772 3.29413E-01-8.85402E-02-9.11887E-02
 -1      2773 3.05992E-01-8.23096E-02-9.07343E-02
 -1      2774 3.27580E-01-9.76868E-02-9.00592E-02
 -1      2775 3.66099E-01-9.07237E-02-9.39263E-02
 -1      2776 3.92263E-01-9.55083E-02-9.63977E-02
 -1      2777 7.69449E-01 7.80659E-03-9.49022E-02
 -1      2778 7.45090E-01-2.35157E-02-9.49410E-02
 -1      2779 6.88370E-01-2.87199E-03-9.51129E-02
 -1      2780 6.36512E-01-1.57245E-02-9.53061E-02
 -1      2781 6.59891E-01 1.34284E-02-9.52295E-02
 -1      2782 7.96047E-01 3.50724E-02-9.48617E-02
 -1      2783 8.55514E-01 1.44015E-02-9.47799E-02
 -1      2784 6.58000E-01 3.00614E-02-9.52769E-02
 -1      2785 6.26889E-01 4.82535E-02-9.55187E-02
 -1      2786 6.79915E-01 4.65953E-02-9.52701E-02
 -1      2787 7.38650E-01 5.67893E-02-9.50103E-02
 -1      2788 8.23813E-01 6.59669E-02-9.46749E-02
 -1      2789 7.06167E-01 7.57919E-02-9.52641E-02
 -1      2790 5.52061E-02-3.06683E-02-5.44462E-03
 -1      2791 4.50443E-02-1.99099E-02-4.12869E-03
 -1      2792 4.24348E-02-2.08467E-02-4.07631E-03
 -1      2793 6.12727E-02-4.05395E-02-6.33953E-03
 -1      2794 4.93082E-02-3.35226E-02-5.57818E-03
 -1      2795 5.90990E-02-4.80722E-02-7.03424E-03
 -1      2796 6.17826E-02-4.63255E-02-6.77828E-03
 -1      2797 4.73741E-03 4.51453E-03-7.45555E-04
 -1      2798 6.47372E-03 5.21230E-03-9.03858E-04
 -1      2799 3.25555E-03 3.87989E-03-6.41995E-04
 -1      2800 6.98522E-02-7.24863E-02-1.37681E-02
 -1      2801 8.40339E-02-9.62025E-02-1.81854E-02
 -1      2802 5.80006E-02-5.06420E-02-8.40324E-03
 -1      2803 5.76273E-01 8.35936E-02-9.65750E-02
 -1      2804 6.37510E-01 8.40232E-02-9.59907E-02
 -1      2805 5.87143E-01 6.55864E-02-9.60246E-02
 -1      2806 5.66523E-01 5.00501E-02-9.58606E-02
 -1      2807 5.08429E-01 4.87597E-02-9.59969E-02
 -1      2808 4.45619E-01 4.36639E-02-9.57926E-02
 -1      2809 3.33600E-01 1.05333E-01-8.98952E-02
 -1      2810 3.32023E-01 1.12321E-01-8.96130E-02
 -1      2811 3.62411E-01 1.04936E-01-9.45215E-02
 -1      2812 3.94417E-01 1.01878E-01-9.82089E-02
 -1      2813 3.94748E-01 9.55634E-02-9.63356E-02
 -1      2814 3.28138E-01 9.75340E-02-9.00736E-02
 -1      2815 2.99904E-01 1.04652E-01-8.61231E-02
 -1      2816 3.66601E-01 9.07916E-02-9.36728E-02
 -1      2817 3.30050E-01 8.84439E-02-9.10582E-02
 -1      2818 4.40667E-01 1.03353E-01-1.00162E-01
 -1      2819 2.90064E-01-1.22230E-01-8.13094E-02
 -1      2820 3.30805E-01-1.12043E-01-8.96007E-02
 -1      2821 3.13977E-01-1.20400E-01-8.69367E-02
 -1      2822 2.77668E-01-1.33102E-01-7.76906E-02
 -1      2823 2.71556E-01-1.17971E-01-7.97600E-02
 -1      2824 2.58145E-01-1.27675E-01-7.50846E-02
 -1      2825 2.32895E-01-1.38965E-01-6.64819E-02
 -1      2826 2.22190E-01-1.32377E-01-6.67848E-02
 -1      2827 2.37753E-01-1.42529E-01-6.58831E-02
 -1      2828 2.03608E-01-1.46308E-01-5.53246E-02
 -1      2829 1.23397E+00 1.20009E-01-9.35962E-02
 -1      2830 1.30643E+00 1.12725E-01-9.43687E-02
 -1      2831 1.39061E+00 1.04813E-01-9.61271E-02
 -1      2832 1.29507E+00 7.95406E-02-9.59784E-02
 -1      2833 1.22248E+00 4.69676E-02-9.58456E-02
 -1      2834 1.14275E+00 3.39400E-02-9.54104E-02
 -1      2835 1.13604E+00 7.47038E-02-9.47046E-02
 -1      2836 1.30550E+00 3.46852E-02-9.72897E-02
 -1      2837 1.15610E+00 1.11239E-01-9.38955E-02
 -1      2838 1.08100E+00 9.72290E-02-9.40553E-02
 -1      2839 2.79075E-01 1.33819E-01-7.80084E-02
 -1      2840 3.15277E-01 1.21070E-01-8.67043E-02
 -1      2841 2.90563E-01 1.22876E-01-8.11696E-02
 -1      2842 2.33682E-01 1.39944E-01-6.64702E-02
 -1      2843 2.04247E-01 1.48092E-01-5.57015E-02
 -1      2844 2.37087E-01 1.43462E-01-6.46456E-02
 -1      2845 2.22587E-01 1.33321E-01-6.69458E-02
 -1      2846 2.58630E-01 1.28168E-01-7.50540E-02
 -1      2847 2.72040E-01 1.18405E-01-7.97551E-02
 -1      2848 1.56922E+00-1.32360E-01-9.57709E-02
 -1      2849 1.47634E+00-1.18741E-01-9.61338E-02
 -1      2850 1.65778E-02 5.56379E-03-1.72572E-03
 -1      2851 1.23936E-02 5.37246E-03-1.31097E-03
 -1      2852 1.19125E-02 4.68170E-03-1.23343E-03
 -1      2853 1.97975E-02 5.13785E-03-1.99781E-03
 -1      2854 1.51719E-02 3.83729E-03-1.47102E-03
 -1      2855 2.00074E-02 3.28927E-03-1.85321E-03
 -1      2856 2.09786E-02 4.27369E-03-2.06104E-03
 -1      2857 1.50214E+00 1.21079E-01-9.69322E-02
 -1      2858 1.57964E+00 1.39921E-01-9.57578E-02
 -1      2859 5.81577E-04 1.18596E-04-4.94962E-04
 -1      2860 5.24910E-04 6.45640E-04-4.57750E-04
 -1      2861 8.12486E-04 1.46358E-03-4.83228E-04
 -1      2862 1.78943E-01-1.28761E-01-5.86665E-02
 -1      2863 1.51380E-01-1.36252E-01-4.50969E-02
 -1      2864 1.00325E-01-1.18427E-01-2.40972E-02
 -1      2865 1.14654E-01-1.32905E-01-2.81550E-02
 -1      2866 1.73648E-01-1.47000E-01-4.69482E-02
 -1      2867 1.33476E-01-1.37949E-01-3.57799E-02
 -1      2868 4.94936E-01-7.34301E-02-9.68206E-02
 -1      2869 4.71448E-01-6.03832E-02-9.60573E-02
 -1      2870 4.01272E-01-4.26967E-02-9.57335E-02
 -1      2871 3.48589E-01-4.64177E-02-9.54175E-02
 -1      2872 3.46244E-01-3.29863E-02-9.58719E-02
 -1      2873 4.54972E-01-3.19796E-02-9.58996E-02
 -1      2874 4.55652E-01-4.49159E-02-9.59727E-02
 -1      2875 3.06758E-01-5.34067E-02-9.43195E-02
 -1      2876 5.26301E-01-5.16541E-02-9.59779E-02
 -1      2877 8.08354E-01-8.96632E-02-9.44818E-02
 -1      2878 7.25829E-01-8.71178E-02-9.50676E-02
 -1      2879 6.67102E-01-8.86149E-02-9.55818E-02
 -1      2880 7.16175E-01-6.71637E-02-9.51019E-02
 -1      2881 7.19203E-01-4.78138E-02-9.50367E-02
 -1      2882 8.01713E-01-3.93347E-02-9.47796E-02
 -1      2883 6.61291E-01-5.08700E-02-9.53366E-02
 -1      2884 8.73174E-01-3.63402E-02-9.46427E-02
 -1      2885 8.46296E-01-6.25524E-02-9.45783E-02
 -1      2886 8.80012E-01-8.83391E-02-9.43488E-02
 -1      2887 1.96131E+00 1.51491E-02 1.14866E-03
 -1      2888 1.96094E+00 1.60293E-02 1.01088E-03
 -1      2889 1.96137E+00-2.10026E-03-2.16036E-03
 -1      2890 1.96152E+00 5.33597E-03-1.27725E-03
 -1      2891 1.96566E+00 6.80373E-03-1.61948E-03
 -1      2892 5.30116E-01-8.50970E-02-9.71758E-02
 -1      2893 4.83231E-01-8.86236E-02-9.76433E-02
 -1      2894 4.68968E-01-9.69089E-02-9.86857E-02
 -1      2895 1.57319E+00 5.28820E-02-1.07018E-01
 -1      2896 1.63513E+00 3.28548E-03-1.13379E-01
 -1      2897 1.57263E+00-4.41586E-02-1.07645E-01
 -1      2898 6.07508E-01-8.72825E-02-9.61088E-02
 -1      2899 5.99098E-01-6.89857E-02-9.59008E-02
 -1      2900 1.36545E+00-1.03836E-01-9.55105E-02
 -1      2901 1.49979E+00-7.72578E-02-1.01380E-01
 -1      2902 1.28757E+00-1.10977E-01-9.42721E-02
 -1      2903 1.17779E+00-1.09767E-01-9.38045E-02
 -1      2904 1.29859E+00-7.33489E-02-9.63533E-02
 -1      2905 1.50014E+00 8.47755E-02-1.00788E-01
 -1      2906 1.44376E+00 3.82766E-02-1.01394E-01
 -1      2907 1.73077E-01 1.48423E-01-4.68706E-02
 -1      2908 1.33586E-01 1.38736E-01-3.60433E-02
 -1      2909 1.51442E-01 1.36861E-01-4.47631E-02
 -1      2910 1.15134E-01 1.32648E-01-2.79236E-02
 -1      2911 3.61132E-01-1.04870E-01-9.44904E-02
 -1      2912 3.32702E-01-1.05291E-01-8.98668E-02
 -1      2913 3.91377E-01-1.01562E-01-9.79084E-02
 -1      2914 4.38518E-01-1.02699E-01-9.98585E-02
 -1      2915 5.86347E-01-3.35844E-02-9.55139E-02
 -1      2916 6.02462E-01-5.14127E-02-9.56516E-02
 -1      2917 1.75071E-01-8.95565E-02-7.45406E-02
 -1      2918 1.81601E-01-1.07613E-01-6.89720E-02
 -1      2919 1.83823E-01-5.65169E-02-8.63791E-02
 -1      2920 1.80201E-01-7.77893E-02-7.97128E-02
 -1      2921 2.23473E-01-8.53003E-02-8.38617E-02
 -1      2922 3.57430E-01-1.51361E-02-9.63681E-02
 -1      2923 3.03538E-01-1.83080E-02-9.60500E-02
 -1      2924 4.06335E-01-1.47941E-02-9.60508E-02
 -1      2925 3.64193E-01 1.58032E-04-9.63996E-02
 -1      2926 6.95222E-03-5.03759E-03-8.99196E-04
 -1      2927 6.51728E-03-5.22378E-03-8.98547E-04
 -1      2928 9.48416E-03-5.13654E-03-1.07486E-03
 -1      2929 6.90092E-03 5.02603E-03-8.99969E-04
 -1      2930 9.46489E-03 5.12642E-03-1.07320E-03
 -1      2931 4.76962E-04-4.20880E-04-4.51591E-04
 -1      2932 7.28773E-04-1.36711E-03-4.66534E-04
 -1      2933 3.73571E-02-1.23181E-02-3.43922E-03
 -1      2934 3.10821E-02-3.32725E-03-2.72228E-03
 -1      2935 3.12516E-02-5.24889E-03-2.75934E-03
 -1      2936 3.11095E-02 3.26249E-03-2.77978E-03
 -1      2937 2.51349E-02 3.51496E-04-2.25603E-03
 -1      2938 2.05019E-02-2.17691E-03-1.89574E-03
 -1      2939 4.77169E-03-4.52569E-03-7.56630E-04
 -1      2940 3.34146E-03-3.91845E-03-6.43422E-04
 -1      2941 1.96028E+00 1.62486E-02 6.74586E-04
 -1      2942 1.44346E+00-3.17665E-02-1.01663E-01
 -1      2943 2.66843E-01-1.08740E-01-8.16811E-02
 -1      2944 2.99093E-01-1.04364E-01-8.61994E-02
 -1      2945 1.78945E-01 1.29901E-01-5.85156E-02
 -1      2946 1.92300E-01 1.21077E-01-6.58562E-02
 -1      2947 2.67401E-01 1.08835E-01-8.17542E-02
 -1      2948 2.30677E-01 1.10387E-01-7.68707E-02
 -1      2949 3.45271E-01 7.61058E-02-9.30756E-02
 -1      2950 2.62470E-01-8.46048E-02-8.76744E-02
 -1      2951 2.74799E-01-7.12000E-02-9.09757E-02
 -1      2952 2.30277E-01-1.10112E-01-7.70186E-02
 -1      2953 2.53152E-01-9.79238E-02-8.35090E-02
 -1      2954 6.95637E-01 9.62693E-02-9.54258E-02
 -1      2955 7.45328E-01 1.11480E-01-9.48425E-02
 -1      2956 8.07499E-01 1.12248E-01-9.44628E-02
 -1      2957 1.36279E+00 3.54210E-03-9.95164E-02
 -1      2958 1.30476E+00-2.86849E-02-9.73782E-02
 -1      2959 1.14625E+00-6.86787E-02-9.47063E-02
 -1      2960 1.14896E+00-2.79946E-02-9.54316E-02
 -1      2961 1.22642E+00-4.02697E-02-9.59622E-02
 -1      2962 1.02917E+00 3.09757E-02-9.48009E-02
 -1      2963 1.11020E+00 2.21218E-03-9.53010E-02
 -1      2964 1.03522E+00-2.70086E-02-9.47601E-02
 -1      2965 2.51916E-01 7.53381E-05-9.50402E-02
 -1      2966 3.00810E-01 1.90901E-02-9.59181E-02
 -1      2967 3.61686E-01 6.23190E-02-9.45658E-02
 -1      2968 3.47006E-01 4.75975E-02-9.51710E-02
 -1      2969 3.41912E-01 3.32595E-02-9.58199E-02
 -1      2970 3.55536E-01 1.47814E-02-9.63322E-02
 -1      2971 4.00361E-01 4.27189E-02-9.57160E-02
 -1      2972 2.40890E-01-1.88054E-02-9.46436E-02
 -1      2973 2.13037E-01-4.06043E-02-9.16621E-02
 -1      2974 2.60398E-01-5.48910E-02-9.27301E-02
 -1      2975 1.96453E+00-1.17700E-02-3.34767E-03
 -1      2976 1.97147E+00-4.41603E-03-1.75131E-03
 -1      2977 1.81430E-01 1.08068E-01-6.89473E-02
 -1      2978 4.49958E-02 1.97772E-02-4.18665E-03
 -1      2979 3.73611E-02 1.22636E-02-3.36936E-03
 -1      2980 4.22825E-02 2.08654E-02-4.05365E-03
 -1      2981 5.51923E-02 3.07293E-02-5.48853E-03
 -1      2982 6.11977E-02 4.05062E-02-6.25902E-03
 -1      2983 4.04507E-01 1.44955E-02-9.60961E-02
 -1      2984 4.42037E-01 2.97657E-02-9.59328E-02
 -1      2985 1.93230E-01-1.20156E-01-6.65330E-02
 -1      2986 9.96678E-01 7.91181E-02-9.43510E-02
 -1      2987 9.08992E-01 6.92327E-02-9.44896E-02
 -1      2988 8.49715E-01 9.16747E-02-9.44873E-02
 -1      2989 9.70203E-01 5.19427E-02-9.46115E-02
 -1      2990 3.12283E-02 5.25704E-03-2.77018E-03
 -1      2991 1.95964E+00 1.64352E-02 2.93379E-04
 -1      2992 1.95939E+00 1.67456E-02 1.01913E-04
 -1      2993 1.95922E+00 1.63848E-02-3.61390E-05
 -1      2994 1.95950E+00 1.71694E-02 1.44242E-04
 -1      2995 1.95995E+00 1.73411E-02 4.78290E-04
 -1      2996 1.96045E+00 1.68216E-02 8.13688E-04
 -1      2997 1.96057E+00 1.74524E-02 8.75821E-04
 -1      2998 1.03388E+00-8.36684E-02-9.42464E-02
 -1      2999 1.10555E+00-9.63350E-02-9.40378E-02
 -1      3000 9.57679E-01-8.48924E-02-9.42442E-02
 -1      3001 9.94567E-01-5.82938E-02-9.45233E-02
 -1      3002 1.95898E+00 1.63159E-02-2.86723E-04
 -1      3003 1.95888E+00 1.63336E-02-5.31575E-04
 -1      3004 1.96288E+00 2.21795E-02-2.30426E-03
 -1      3005 1.95928E+00 2.40021E-02-2.74149E-03
 -1      3006 1.96012E+00 2.87296E-02-3.55964E-03
 -1      3007 1.96622E+00 1.78144E-02-1.79263E-03
 -1      3008 1.96412E+00 3.75083E-02-4.33929E-03
 -1      3009 1.97201E+00 2.91194E-02-2.22235E-03
 -1      3010 1.97180E+00 2.02519E-02-1.78543E-03
 -1      3011 1.96906E+00 1.19962E-02-1.52124E-03
 -1      3012 8.38371E-02 9.62152E-02-1.78450E-02
 -1      3013 1.00518E-01 1.18456E-01-2.38175E-02
 -1      3014 9.11717E-01-6.49605E-03-9.47579E-02
 -1      3015 9.39790E-01 2.29334E-02-9.47451E-02
 -1      3016 9.58228E-01-3.01576E-02-9.46953E-02
 -1      3017 2.51167E-02-4.09638E-04-2.28679E-03
 -1      3018 1.95964E+00 1.77496E-02 2.13390E-04
 -1      3019 1.95964E+00 1.92109E-02 1.58469E-04
 -1      3020 1.95946E+00 1.86454E-02 3.76338E-05
 -1      3021 1.95955E+00 1.82181E-02 1.11471E-04
 -1      3022 6.17306E-02 4.61900E-02-6.68626E-03
 -1      3023 5.90652E-02 4.78791E-02-6.82803E-03
 -1      3024 4.92282E-02 3.35219E-02-5.41042E-03
 -1      3025 1.97135E+00 4.42261E-03-1.54800E-03
 -1      3026 6.98226E-02 7.28479E-02-1.38009E-02
 -1      3027 5.78109E-02 5.06129E-02-8.31577E-03
 -1      3028 2.04929E-02 2.17563E-03-1.88701E-03
 -1      3029 6.50385E-01-1.67372E-01 8.02007E-05
 -1      3030 1.95835E+00 1.72699E-02-8.41843E-04
 -1      3031 1.76204E+00-4.05635E-02-3.88891E-05
 -1      3032 1.96086E+00 2.59644E-02-1.20560E-03
 -1      3033 1.96000E+00 1.58871E-02-9.67445E-04
 -1      3034 1.31252E+00-1.94634E-01-9.86595E-05
 -1      3035 9.41282E-01-1.81808E-01-2.19795E-03
 -1      3036 1.90849E+00 4.36687E-02-2.95894E-03
 -1      3037 1.59019E+00-1.71430E-01-8.93583E-05
 -1      3038 1.95875E+00 1.59826E-02-9.46784E-04
 -1      3039 1.96154E+00 1.85370E-02-9.39950E-04
 -1      3040 1.11951E+00-1.88179E-01 3.04106E-02
 -1      3041 1.94958E+00 3.70027E-02 3.64464E-03
 -1      3042 1.45180E+00-1.95221E-01-2.81451E-02
 -1      3043 1.45741E+00-1.95172E-01 2.85078E-02
 -1      3044 1.94921E+00 3.84773E-02-6.02645E-03
 -1      3045 1.11805E+00-1.88206E-01-3.74970E-02
 -1      3046 1.96100E+00 1.86645E-02-1.10598E-03
 -1      3047 7.52523E-01-1.73846E-01-3.58825E-02
 -1      3048 7.47452E-01-1.73687E-01 3.51604E-02
 -1      3049 1.95896E+00 1.62615E-02-7.35150E-04
 -1      3050 1.82794E+00 1.05450E-02 1.44189E-02
 -1      3051 1.69102E+00-1.11205E-01 1.80776E-02
 -1      3052 1.68527E+00-1.13228E-01-2.16512E-02
 -1      3053 1.82527E+00 1.02917E-02-1.65523E-02
 -1      3054 1.95831E+00 1.82583E-02-7.85933E-04
 -1      3055 5.50549E-01-1.57416E-01-4.54464E-02
 -1      3056 5.51404E-01-1.57975E-01 4.54070E-02
 -1      3057 1.95834E+00 1.74091E-02-8.37216E-04
 -1      3058 1.95846E+00 1.70889E-02-7.81379E-04
 -1      3059 1.95844E+00 1.64135E-02-9.38963E-04
 -1      3060 1.95926E+00 1.52459E-02-1.19005E-03
 -1      3061 1.95992E+00 2.53749E-02 1.21082E-03
 -1      3062 1.96006E+00 2.67371E-02-3.62521E-03
 -1      3063 1.95989E+00 1.62558E-02-6.86870E-04
 -1      3064 1.31159E+00-1.96474E-01 4.96353E-02
 -1      3065 1.31186E+00-1.96243E-01-4.95743E-02
 -1      3066 1.95832E+00 1.81009E-02-7.97934E-04
 -1      3067 4.98801E-01-1.51507E-01 2.52840E-04
 -1      3068 9.23392E-01-1.81418E-01 5.09046E-02
 -1      3069 9.26104E-01-1.81500E-01-5.22124E-02
 -1      3070 4.74477E-01-1.46710E-01 7.58079E-02
 -1      3071 5.79333E-01-1.60654E-01 7.14024E-02
 -1      3072 4.68096E-01-1.46322E-01 4.04766E-02
 -1      3073 1.95836E+00 1.69800E-02-8.65753E-04
 -1      3074 1.95835E+00 1.75685E-02-8.08750E-04
 -1      3075 1.95834E+00 1.78874E-02-8.01603E-04
 -1      3076 4.73994E-01-1.46826E-01-7.61512E-02
 -1      3077 4.67610E-01-1.47840E-01-4.08519E-02
 -1      3078 5.79283E-01-1.60379E-01-7.15131E-02
 -1      3079 1.95830E+00 1.89402E-02-7.70803E-04
 -1      3080 1.95830E+00 1.83506E-02-7.74693E-04
 -1      3081 1.95831E+00 1.86276E-02-7.77880E-04
 -1      3082 6.76884E-01-1.69261E-01 6.51610E-02
 -1      3083 7.77731E-01-1.75451E-01 6.42149E-02
 -1      3084 6.50165E-01-1.66791E-01 3.97208E-02
 -1      3085 8.65569E-01-1.79457E-01 7.20170E-02
 -1      3086 9.67086E-01-1.83267E-01 7.18921E-02
 -1      3087 8.35304E-01-1.77863E-01 4.29596E-02
 -1      3088 1.06521E+00-1.86695E-01 6.15484E-02
 -1      3089 1.16657E+00-1.90839E-01 6.04531E-02
 -1      3090 1.02142E+00-1.84951E-01 4.07192E-02
 -1      3091 1.26263E+00-1.95346E-01 6.96678E-02
 -1      3092 1.35830E+00-1.99737E-01 6.62075E-02
 -1      3093 1.21660E+00-1.92176E-01 4.06469E-02
 -1      3094 1.43104E+00-1.99352E-01 5.43871E-02
 -1      3095 1.51391E+00-1.95728E-01 4.97789E-02
 -1      3096 1.38605E+00-1.97352E-01 3.91142E-02
 -1      3097 1.62703E+00-1.59561E-01 4.14236E-02
 -1      3098 1.68785E+00-1.10330E-01 3.68502E-02
 -1      3099 1.57766E+00-1.79121E-01 3.37847E-02
 -1      3100 1.64282E+00-1.47410E-01 9.91052E-03
 -1      3101 1.52634E+00-1.88081E-01 1.38206E-02
 -1      3102 1.82030E+00 1.08247E-02 2.92108E-02
 -1      3103 1.75584E+00-4.10941E-02 3.09464E-02
 -1      3104 1.76248E+00-4.31763E-02 1.52621E-02
 -1      3105 1.87814E+00 4.25381E-02 2.26332E-02
 -1      3106 1.93787E+00 4.38294E-02 1.15237E-02
 -1      3107 1.95193E+00 3.61234E-02 6.09314E-03
 -1      3108 1.91495E+00 4.47117E-02 1.10867E-02
 -1      3109 1.93384E+00 4.15274E-02 2.14373E-03
 -1      3110 1.87473E+00 3.52553E-02 4.03180E-03
 -1      3111 1.95706E+00 2.92130E-02 3.82700E-03
 -1      3112 1.96005E+00 2.31888E-02 8.99093E-04
 -1      3113 1.95617E+00 3.13473E-02 2.57050E-03
 -1      3114 1.96094E+00 1.92400E-02-3.96335E-04
 -1      3115 1.96071E+00 1.69357E-02-1.08136E-03
 -1      3116 1.96146E+00 2.14760E-02-1.76876E-04
 -1      3117 1.95967E+00 1.49558E-02-1.32509E-03
 -1      3118 1.95915E+00 1.48920E-02-1.29129E-03
 -1      3119 1.96021E+00 1.55760E-02-1.22470E-03
 -1      3120 1.95961E+00 1.55360E-02-1.08651E-03
 -1      3121 1.96099E+00 1.66630E-02-1.09514E-03
 -1      3122 1.95879E+00 1.51840E-02-1.16405E-03
 -1      3123 1.95848E+00 1.58966E-02-1.01078E-03
 -1      3124 1.95839E+00 1.64774E-02-9.22277E-04
 -1      3125 1.95899E+00 1.55770E-02-1.06733E-03
 -1      3126 1.95862E+00 1.56858E-02-1.03689E-03
 -1      3127 1.95856E+00 1.61846E-02-9.57737E-04
 -1      3128 1.95837E+00 1.69073E-02-8.80044E-04
 -1      3129 4.39467E-01-1.43060E-01-1.65352E-02
 -1      3130 4.40102E-01-1.43015E-01 1.68473E-02
 -1      3131 5.25536E-01-1.55059E-01 2.30175E-02
 -1      3132 5.24437E-01-1.54258E-01-2.29107E-02
 -1      3133 7.80205E-01-1.75530E-01-6.45517E-02
 -1      3134 6.79464E-01-1.69115E-01-6.57377E-02
 -1      3135 6.52094E-01-1.67056E-01-3.99970E-02
 -1      3136 9.68481E-01-1.83356E-01-7.24751E-02
 -1      3137 8.66893E-01-1.79460E-01-7.26704E-02
 -1      3138 8.39177E-01-1.77977E-01-4.40080E-02
 -1      3139 1.16576E+00-1.90651E-01-6.41685E-02
 -1      3140 1.06455E+00-1.86740E-01-6.50267E-02
 -1      3141 1.02208E+00-1.84921E-01-4.48868E-02
 -1      3142 1.35840E+00-1.99657E-01-6.61842E-02
 -1      3143 1.26255E+00-1.95315E-01-6.96734E-02
 -1      3144 1.21623E+00-1.92321E-01-4.41179E-02
 -1      3145 1.51025E+00-1.95625E-01-4.98277E-02
 -1      3146 1.42820E+00-1.99307E-01-5.42075E-02
 -1      3147 1.38322E+00-1.97197E-01-3.88315E-02
 -1      3148 1.68573E+00-1.11254E-01-3.96254E-02
 -1      3149 1.62573E+00-1.59675E-01-4.29072E-02
 -1      3150 1.57733E+00-1.78608E-01-3.41626E-02
 -1      3151 1.52400E+00-1.88361E-01-1.33331E-02
 -1      3152 1.64027E+00-1.47549E-01-1.15526E-02
 -1      3153 1.81948E+00 1.20689E-02-3.16809E-02
 -1      3154 1.75501E+00-4.05634E-02-3.35597E-02
 -1      3155 1.75817E+00-4.43888E-02-1.78031E-02
 -1      3156 1.87807E+00 4.43099E-02-2.54246E-02
 -1      3157 1.95221E+00 3.73239E-02-8.25295E-03
 -1      3158 1.93719E+00 4.61143E-02-1.45248E-02
 -1      3159 1.91532E+00 4.65427E-02-1.47838E-02
 -1      3160 1.87334E+00 3.54206E-02-7.70247E-03
 -1      3161 1.93341E+00 4.23078E-02-5.67683E-03
 -1      3162 1.96016E+00 2.43514E-02-2.95443E-03
 -1      3163 1.95732E+00 3.10935E-02-5.90160E-03
 -1      3164 1.95587E+00 3.24891E-02-4.60782E-03
 -1      3165 1.96049E+00 1.79151E-02-8.95185E-04
 -1      3166 1.96087E+00 2.00760E-02-1.31269E-03
 -1      3167 1.96138E+00 2.20394E-02-1.81176E-03
 -1      3168 1.95936E+00 1.62892E-02-5.65614E-04
 -1      3169 1.95995E+00 1.66423E-02-6.52950E-04
 -1      3170 1.96048E+00 1.70928E-02-8.10251E-04
 -1      3171 1.95866E+00 1.67136E-02-6.70777E-04
 -1      3172 1.95899E+00 1.63510E-02-6.06520E-04
 -1      3173 1.95941E+00 1.61435E-02-6.71476E-04
 -1      3174 1.95836E+00 1.77533E-02-7.64075E-04
 -1      3175 1.95847E+00 1.71787E-02-7.23748E-04
 -1      3176 1.95867E+00 1.66350E-02-7.47480E-04
 -1      3177 1.95836E+00 1.76612E-02-7.94076E-04
 -1      3178 1.95833E+00 1.82319E-02-7.86525E-04
 -1      3179 1.95832E+00 1.85471E-02-7.79139E-04
 -1      3180 1.95833E+00 1.77555E-02-8.16384E-04
 -1      3181 1.95831E+00 1.81803E-02-7.93195E-04
 -1      3182 1.95999E+00 1.61071E-02-8.27626E-04
 -1      3183 1.95944E+00 1.59987E-02-8.27990E-04
 -1      3184 1.96065E+00 1.69784E-02-9.00589E-04
 -1      3185 1.68959E+00-1.09418E-01-1.81014E-03
 -1      3186 1.45460E+00-1.93575E-01 2.33692E-04
 -1      3187 1.95927E+00 1.57389E-02-9.70357E-04
 -1      3188 1.72680E+00-7.53110E-02 9.46880E-03
 -1      3189 1.72419E+00-7.71978E-02-9.53122E-03
 -1      3190 1.79737E+00-1.06518E-02 7.65041E-03
 -1      3191 9.33728E-01-1.81602E-01-2.72009E-02
 -1      3192 1.02975E+00-1.85040E-01-1.99873E-02
 -1      3193 8.46783E-01-1.78191E-01-1.88850E-02
 -1      3194 1.21634E+00-1.91742E-01-1.82945E-02
 -1      3195 1.31231E+00-1.95029E-01-2.48335E-02
 -1      3196 1.38391E+00-1.96386E-01-1.49547E-02
 -1      3197 1.11889E+00-1.87920E-01-3.51557E-03
 -1      3198 1.03044E+00-1.85059E-01 1.42326E-02
 -1      3199 9.32430E-01-1.81539E-01 2.43358E-02
 -1      3200 8.44305E-01-1.78085E-01 1.62674E-02
 -1      3201 7.50123E-01-1.73612E-01-4.11987E-04
 -1      3202 1.21699E+00-1.91728E-01 1.48629E-02
 -1      3203 1.96072E+00 2.55947E-02 1.42804E-05
 -1      3204 1.95719E+00 3.16923E-02 3.74942E-04
 -1      3205 1.96178E+00 2.20241E-02-7.57221E-04
 -1      3206 1.38684E+00-1.96451E-01 1.51492E-02
 -1      3207 1.31225E+00-1.95167E-01 2.47289E-02
 -1      3208 1.95887E+00 1.61316E-02-8.41259E-04
 -1      3209 1.95859E+00 1.65442E-02-8.45459E-04
 -1      3210 1.95849E+00 1.66013E-02-8.85861E-04
 -1      3211 1.95840E+00 1.71791E-02-8.20413E-04
 -1      3212 1.95839E+00 1.68455E-02-8.83946E-04
 -1      3213 1.95708E+00 3.22399E-02-2.58255E-03
 -1      3214 1.96067E+00 2.62519E-02-2.39111E-03
 -1      3215 1.96169E+00 2.18424E-02-1.37147E-03
 -1      3216 6.00793E-01-1.62673E-01 2.23015E-02
 -1      3217 5.75612E-01-1.60369E-01-2.04093E-04
 -1      3218 6.00426E-01-1.62821E-01-2.22884E-02
 -1      3219 1.95020E+00 3.73691E-02-1.13081E-03
 -1      3220 1.96145E+00 1.86519E-02-1.07954E-03
 -1      3221 1.83007E+00 1.16516E-02-1.27255E-03
 -1      3222 1.95833E+00 1.77651E-02-8.11021E-04
 -1      3223 1.95834E+00 1.73405E-02-8.42082E-04
 -1      3224 1.95833E+00 1.76890E-02-8.19619E-04
 -1      3225 1.79595E+00-1.19598E-02-9.78881E-03
 -1      3226 6.99019E-01-1.70757E-01 1.77967E-02
 -1      3227 7.01618E-01-1.70780E-01-1.81299E-02
 -1      3228 6.52548E-01 1.68414E-01 1.47457E-04
 -1      3229 1.96264E+00 1.74860E-02 2.07226E-03
 -1      3230 1.96573E+00-1.19523E-03 1.87308E-03
 -1      3231 1.10033E+00 1.91418E-01-2.51519E-03
 -1      3232 1.63581E+00 1.57008E-01 2.83299E-03
 -1      3233 1.89098E+00-2.08464E-02 3.51112E-03
 -1      3234 1.96443E+00 1.39405E-02 2.04838E-03
 -1      3235 1.38312E+00 2.01957E-01 2.57762E-06
 -1      3236 1.96310E+00 1.60956E-02 2.02340E-03
 -1      3237 8.72312E-01 1.81392E-01 1.32604E-02
 -1      3238 1.95078E+00-1.71297E-02-2.94289E-03
 -1      3239 1.76605E+00 5.62573E-02-1.58073E-02
 -1      3240 1.96609E+00 1.00349E-02 1.96807E-03
 -1      3241 1.53242E+00 1.98888E-01 2.72348E-02
 -1      3242 1.52837E+00 1.99939E-01-2.71932E-02
 -1      3243 1.76655E+00 5.73471E-02 2.33854E-02
 -1      3244 1.95000E+00-1.69760E-02 9.02842E-03
 -1      3245 1.96605E+00 8.37017E-03 2.20393E-03
 -1      3246 9.44330E-01 1.84742E-01-4.48328E-02
 -1      3247 1.96334E+00 1.61989E-02 2.27668E-03
 -1      3248 1.23212E+00 1.97410E-01 3.05499E-02
 -1      3249 1.24461E+00 1.98164E-01-3.36569E-02
 -1      3250 5.52410E-01 1.58278E-01-4.54365E-02
 -1      3251 1.96259E+00 1.75797E-02 2.05046E-03
 -1      3252 1.96255E+00 1.84273E-02 2.09229E-03
 -1      3253 5.52157E-01 1.58416E-01 4.56623E-02
 -1      3254 1.96277E+00 1.73642E-02 2.14357E-03
 -1      3255 7.58919E-01 1.75757E-01-4.10105E-02
 -1      3256 1.96274E+00 1.66967E-02 1.99152E-03
 -1      3257 7.07305E-01 1.72435E-01 5.19684E-02
 -1      3258 1.96367E+00 1.47425E-02 1.82097E-03
 -1      3259 1.01476E+00 1.87725E-01 3.96702E-02
 -1      3260 1.88232E+00-2.01917E-02-1.81335E-02
 -1      3261 1.88548E+00-2.22968E-02 1.98816E-02
 -1      3262 1.96436E+00-1.09386E-03-2.23489E-04
 -1      3263 1.62976E+00 1.63797E-01 3.63899E-02
 -1      3264 1.96457E+00-2.08250E-03 3.97819E-03
 -1      3265 1.63812E+00 1.63880E-01-3.31065E-02
 -1      3266 1.96438E+00 1.46633E-02 2.40750E-03
 -1      3267 1.10780E+00 1.91985E-01-5.24712E-02
 -1      3268 1.96255E+00 1.82407E-02 2.07291E-03
 -1      3269 4.99407E-01 1.53382E-01 3.14883E-05
 -1      3270 5.81053E-01 1.61350E-01 7.20632E-02
 -1      3271 4.75249E-01 1.47078E-01 7.63917E-02
 -1      3272 4.67463E-01 1.45964E-01 4.08053E-02
 -1      3273 1.96258E+00 1.77006E-02 2.05577E-03
 -1      3274 1.96262E+00 1.71913E-02 2.02803E-03
 -1      3275 1.96256E+00 1.80133E-02 2.06265E-03
 -1      3276 4.68877E-01 1.47222E-01-4.02820E-02
 -1      3277 4.75193E-01 1.46870E-01-7.59922E-02
 -1      3278 5.81091E-01 1.61343E-01-7.15231E-02
 -1      3279 1.96256E+00 1.85602E-02 2.11501E-03
 -1      3280 1.96252E+00 1.90709E-02 2.08978E-03
 -1      3281 1.96253E+00 1.87533E-02 2.08381E-03
 -1      3282 7.58832E-01 1.75941E-01 7.27876E-02
 -1      3283 6.57836E-01 1.68640E-01 7.42705E-02
 -1      3284 6.30324E-01 1.66387E-01 4.88105E-02
 -1      3285 1.01464E+00 1.87852E-01 6.66022E-02
 -1      3286 9.12502E-01 1.83570E-01 6.66738E-02
 -1      3287 9.43483E-01 1.84598E-01 2.64923E-02
 -1      3288 8.41515E-01 1.80185E-01 5.35668E-02
 -1      3289 7.89736E-01 1.77338E-01 3.23805E-02
 -1      3290 1.11678E+00 1.92556E-01 6.59204E-02
 -1      3291 1.32330E+00 2.03106E-01 5.80730E-02
 -1      3292 1.22513E+00 1.97981E-01 6.06771E-02
 -1      3293 1.12392E+00 1.92401E-01 3.52081E-02
 -1      3294 1.55135E+00 1.99431E-01 4.79670E-02
 -1      3295 1.47407E+00 2.07720E-01 5.32828E-02
 -1      3296 1.39728E+00 2.04399E-01 4.14657E-02
 -1      3297 1.30872E+00 2.00267E-01 1.48495E-02
 -1      3298 1.46141E+00 2.03381E-01 1.46829E-02
 -1      3299 1.66340E+00 1.43416E-01 5.04964E-02
 -1      3300 1.60122E+00 1.85741E-01 5.07789E-02
 -1      3301 1.58463E+00 1.85881E-01 3.23124E-02
 -1      3302 1.79401E+00 2.87265E-02 3.63045E-02
 -1      3303 1.72916E+00 8.53700E-02 4.00710E-02
 -1      3304 1.69952E+00 1.14858E-01 3.00288E-02
 -1      3305 1.90452E+00-2.94595E-02 2.48900E-02
 -1      3306 1.85494E+00-1.55382E-02 3.22017E-02
 -1      3307 1.83245E+00 3.42781E-03 2.11632E-02
 -1      3308 1.95505E+00-1.52223E-02 1.03678E-02
 -1      3309 1.93763E+00-2.40997E-02 1.67245E-02
 -1      3310 1.92531E+00-2.60639E-02 1.32073E-02
 -1      3311 1.96475E+00 1.35199E-03 3.59055E-03
 -1      3312 1.96216E+00-6.25663E-03 6.35188E-03
 -1      3313 1.95965E+00-9.52652E-03 6.17878E-03
 -1      3314 1.96535E+00 1.01027E-02 1.97094E-03
 -1      3315 1.96554E+00 6.49793E-03 2.51572E-03
 -1      3316 1.96602E+00 4.02760E-03 2.66127E-03
 -1      3317 1.96360E+00 1.45981E-02 1.71603E-03
 -1      3318 1.96420E+00 1.34424E-02 1.66357E-03
 -1      3319 1.96403E+00 1.43706E-02 1.92440E-03
 -1      3320 1.96472E+00 1.26884E-02 1.80122E-03
 -1      3321 1.96540E+00 1.15820E-02 1.91850E-03
 -1      3322 1.96323E+00 1.53913E-02 1.80765E-03
 -1      3323 1.96269E+00 1.67592E-02 1.99334E-03
 -1      3324 1.96284E+00 1.62540E-02 1.92649E-03
 -1      3325 1.96300E+00 1.59490E-02 1.91469E-03
 -1      3326 1.96337E+00 1.54552E-02 1.93005E-03
 -1      3327 1.96288E+00 1.64252E-02 1.99328E-03
 -1      3328 1.96266E+00 1.71365E-02 2.02669E-03
 -1      3329 4.40100E-01 1.42025E-01 1.64635E-02
 -1      3330 4.41317E-01 1.43067E-01-1.62466E-02
 -1      3331 5.25894E-01 1.55819E-01 2.30131E-02
 -1      3332 5.26105E-01 1.55696E-01-2.29305E-02
 -1      3333 6.83544E-01 1.70692E-01-6.84579E-02
 -1      3334 7.84649E-01 1.77399E-01-6.72053E-02
 -1      3335 6.56233E-01 1.68437E-01-4.26331E-02
 -1      3336 8.77283E-01 1.82070E-01-6.90387E-02
 -1      3337 9.79238E-01 1.86484E-01-6.88824E-02
 -1      3338 8.51422E-01 1.80579E-01-4.27630E-02
 -1      3339 1.06105E+00 1.90268E-01-7.26616E-02
 -1      3340 1.16264E+00 1.95044E-01-7.15869E-02
 -1      3341 1.02617E+00 1.88353E-01-4.87485E-02
 -1      3342 1.23107E+00 1.98660E-01-6.18116E-02
 -1      3343 1.32903E+00 2.03618E-01-5.91234E-02
 -1      3344 1.17653E+00 1.94975E-01-4.29295E-02
 -1      3345 1.47056E+00 2.06868E-01-5.32009E-02
 -1      3346 1.54903E+00 2.00057E-01-4.76307E-02
 -1      3347 1.31476E+00 2.00497E-01-1.64772E-02
 -1      3348 1.39691E+00 2.05144E-01-4.12506E-02
 -1      3349 1.45864E+00 2.03304E-01-1.49575E-02
 -1      3350 1.60311E+00 1.85571E-01-4.91536E-02
 -1      3351 1.66614E+00 1.45596E-01-4.66044E-02
 -1      3352 1.58605E+00 1.87272E-01-3.05966E-02
 -1      3353 1.72901E+00 8.62184E-02-3.45723E-02
 -1      3354 1.79185E+00 3.06589E-02-2.87190E-02
 -1      3355 1.70293E+00 1.16482E-01-2.41679E-02
 -1      3356 1.85292E+00-1.42919E-02-2.78267E-02
 -1      3357 1.90501E+00-2.93038E-02-2.28574E-02
 -1      3358 1.83059E+00 4.02024E-03-1.53914E-02
 -1      3359 1.93881E+00-2.29660E-02-1.15072E-02
 -1      3360 1.95570E+00-1.39061E-02-5.38705E-03
 -1      3361 1.92469E+00-2.45033E-02-8.78155E-03
 -1      3362 1.96213E+00-4.79565E-03-2.49141E-03
 -1      3363 1.96464E+00 2.55850E-03 8.39754E-05
 -1      3364 1.95979E+00-8.64642E-03-1.69874E-03
 -1      3365 1.96558E+00 8.16533E-03 1.38416E-03
 -1      3366 1.96530E+00 1.16823E-02 2.10608E-03
 -1      3367 1.96608E+00 5.38404E-03 1.26233E-03
 -1      3368 1.96446E+00 1.41480E-02 2.45872E-03
 -1      3369 1.96380E+00 1.55868E-02 2.51283E-03
 -1      3370 1.96520E+00 1.26127E-02 2.25009E-03
 -1      3371 1.96338E+00 1.62815E-02 2.40111E-03
 -1      3372 1.96302E+00 1.70120E-02 2.29944E-03
 -1      3373 1.96378E+00 1.55066E-02 2.32812E-03
 -1      3374 1.96280E+00 1.75175E-02 2.21494E-03
 -1      3375 1.96265E+00 1.80483E-02 2.15340E-03
 -1      3376 1.96302E+00 1.68451E-02 2.21085E-03
 -1      3377 1.96264E+00 1.79010E-02 2.12052E-03
 -1      3378 1.96253E+00 1.86618E-02 2.07683E-03
 -1      3379 1.96254E+00 1.83465E-02 2.07079E-03
 -1      3380 1.96257E+00 1.79091E-02 2.06270E-03
 -1      3381 1.96255E+00 1.83333E-02 2.08184E-03
 -1      3382 1.96443E+00 1.42591E-02 2.22531E-03
 -1      3383 1.96533E+00 1.21310E-02 2.08613E-03
 -1      3384 1.96616E+00 9.25646E-03 2.03978E-03
 -1      3385 1.96644E+00 3.93274E-03 2.30447E-03
 -1      3386 1.96651E+00 4.88336E-03 1.69641E-03
 -1      3387 1.96551E+00-1.25397E-03 8.84922E-04
 -1      3388 1.16664E+00 1.94228E-01 1.42173E-02
 -1      3389 1.23867E+00 1.97696E-01-1.61304E-03
 -1      3390 1.17304E+00 1.94583E-01-1.83079E-02
 -1      3391 1.05765E+00 1.89587E-01 1.85274E-02
 -1      3392 1.58762E+00 1.82599E-01 1.37126E-02
 -1      3393 1.63380E+00 1.59017E-01 1.98140E-02
 -1      3394 1.58630E+00 1.83957E-01-1.11630E-02
 -1      3395 1.53154E+00 1.97767E-01 1.15531E-04
 -1      3396 1.96366E+00 1.51967E-02 2.02732E-03
 -1      3397 6.02590E-01 1.63856E-01-2.21926E-02
 -1      3398 5.77301E-01 1.60993E-01 1.38095E-04
 -1      3399 7.05911E-01 1.72272E-01-2.06497E-02
 -1      3400 1.96292E+00 1.67385E-02 2.09855E-03
 -1      3401 1.96323E+00 1.61359E-02 2.14311E-03
 -1      3402 1.96384E+00 1.51633E-02 2.18083E-03
 -1      3403 1.96270E+00 1.74258E-02 2.10413E-03
 -1      3404 1.96282E+00 1.68363E-02 2.05302E-03
 -1      3405 1.96269E+00 1.70851E-02 2.03395E-03
 -1      3406 1.96259E+00 1.78683E-02 2.07153E-03
 -1      3407 1.96260E+00 1.79600E-02 2.08704E-03
 -1      3408 1.96261E+00 1.75360E-02 2.05642E-03
 -1      3409 6.02559E-01 1.63820E-01 2.25306E-02
 -1      3410 6.79955E-01 1.70293E-01 2.63117E-02
 -1      3411 1.70308E+00 1.12499E-01-7.10966E-03
 -1      3412 1.63915E+00 1.58995E-01-1.50309E-02
 -1      3413 7.62540E-01 1.75772E-01 6.82170E-03
 -1      3414 8.15629E-01 1.78628E-01-1.36963E-02
 -1      3415 1.96136E+00-8.83789E-03 2.67066E-04
 -1      3416 1.92608E+00-2.20969E-02-1.34281E-03
 -1      3417 1.88669E+00-1.81757E-02-6.83251E-03
 -1      3418 1.92557E+00-2.19217E-02 7.69801E-03
 -1      3419 1.94992E+00-1.59666E-02 2.84724E-03
 -1      3420 1.96125E+00-9.08892E-03 4.02878E-03
 -1      3421 1.96558E+00-1.69550E-03 2.87701E-03
 -1      3422 1.70266E+00 1.12153E-01 1.41639E-02
 -1      3423 1.76835E+00 5.75806E-02 3.82182E-03
 -1      3424 1.83675E+00 3.12165E-03-3.34699E-03
 -1      3425 1.83700E+00 2.43689E-03 1.06614E-02
 -1      3426 1.10422E+00 1.91685E-01-2.75329E-02
 -1      3427 1.02229E+00 1.88130E-01-2.36409E-02
 -1      3428 9.08368E-01 1.83024E-01-1.58208E-02
 -1      3429 1.88933E+00-2.09374E-02 1.08547E-02
 -1      3430 9.86174E-01 1.86493E-01 5.35091E-03
 -1      3431 1.96338E+00 2.53172E-02 2.85055E-03
 -1      3432 1.95933E+00 2.64022E-02 1.35487E-04
 -1      3433 1.95752E+00 1.92865E-02-1.29126E-03
 -1      3434 1.95678E+00 2.02301E-02-1.76221E-03
 -1      3435 1.96262E+00 2.59204E-02 2.34999E-03
 -1      3436 1.96404E+00 2.44504E-02 3.27753E-03
 -1      3437 1.96440E+00 2.36520E-02 3.49639E-03
 -1      3438 1.95639E+00 2.11339E-02-2.00024E-03
 -1      3439 1.95622E+00 2.21200E-02-2.08845E-03
 -1      3440 1.95744E+00 2.53109E-02-1.17414E-03
 -1      3441 1.95832E+00 2.59829E-02-5.62916E-04
 -1      3442 1.96020E+00 2.65391E-02 7.26403E-04
 -1      3443 1.96180E+00 2.63080E-02 1.80978E-03
 -1      3444 1.96458E+00 2.19864E-02 3.57621E-03
 -1      3445 1.96423E+00 2.06387E-02 3.30011E-03
 -1      3446 1.95633E+00 2.33115E-02-1.98304E-03
 -1      3447 1.95677E+00 2.44205E-02-1.65741E-03
 -1      3448 1.96376E+00 2.02261E-02 2.96310E-03
 -1      3449 1.96099E+00 2.68417E-02 1.27210E-03
 -1      3450 1.96102E+00 2.61447E-02 1.27604E-03
 -1      3451 1.96299E+00 2.61209E-02 2.60748E-03
 -1      3452 1.96303E+00 2.51734E-02 2.60772E-03
 -1      3453 1.95879E+00 2.66998E-02-2.21889E-04
 -1      3454 1.95883E+00 2.57522E-02-2.21701E-04
 -1      3455 1.95784E+00 2.61517E-02-8.80963E-04
 -1      3456 1.96456E+00 2.31965E-02 3.59243E-03
 -1      3457 1.95788E+00 2.52041E-02-8.80729E-04
 -1      3458 1.96459E+00 2.24937E-02 3.59311E-03
 -1      3459 1.96372E+00 2.53725E-02 3.08711E-03
 -1      3460 1.96376E+00 2.44250E-02 3.08740E-03
 -1      3461 1.95982E+00 2.69563E-02 4.82936E-04
 -1      3462 1.95986E+00 2.60507E-02 4.83741E-04
 -1      3463 1.95706E+00 2.53692E-02-1.43170E-03
 -1      3464 1.96425E+00 2.44358E-02 3.42142E-03
 -1      3465 1.95710E+00 2.44217E-02-1.43139E-03
 -1      3466 1.96429E+00 2.35292E-02 3.42204E-03
 -1      3467 1.95658E+00 2.02077E-02-1.90170E-03
 -1      3468 1.95712E+00 1.92535E-02-1.55979E-03
 -1      3469 1.95654E+00 2.11548E-02-1.90257E-03
 -1      3470 1.95708E+00 2.02530E-02-1.56087E-03
 -1      3471 1.95653E+00 2.34221E-02-1.84218E-03
 -1      3472 1.95649E+00 2.43696E-02-1.84254E-03
 -1      3473 1.96389E+00 1.96259E-02 3.03830E-03
 -1      3474 1.95629E+00 2.12195E-02-2.06991E-03
 -1      3475 1.96208E+00 2.66419E-02 2.00817E-03
 -1      3476 1.96451E+00 2.20511E-02 3.52894E-03
 -1      3477 1.96212E+00 2.57358E-02 2.00894E-03
 -1      3478 1.96455E+00 2.11448E-02 3.52940E-03
 -1      3479 1.95625E+00 2.21668E-02-2.07053E-03
 -1      3480 1.95626E+00 2.23352E-02-2.05561E-03
 -1      3481 1.96423E+00 2.12472E-02 3.31316E-03
 -1      3482 1.96428E+00 2.01456E-02 3.32186E-03
 -1      3483 1.95622E+00 2.32826E-02-2.05607E-03
 -1      3484 1.96321E+00 1.90944E-02 2.55486E-03
 -1      3485 1.96309E+00 1.96583E-02 2.48901E-03
 -1      3486 1.95769E+00 1.96554E-02-1.16658E-03
 -1      3487 1.95774E+00 1.85718E-02-1.16778E-03
 -1      3488 1.96295E+00 1.84377E-02 2.35566E-03
 -1      3489 1.95804E+00 1.81388E-02-9.77059E-04
 -1      3490 1.95761E+00 1.84888E-02-1.25398E-03
 -1      3491 1.95803E+00 1.84536E-02-9.76339E-04
 -1      3492 1.96319E+00 1.84477E-02 2.52373E-03
 -1      3493 1.96276E+00 1.81239E-02 2.21415E-03
 -1      3494 1.96274E+00 1.84401E-02 2.21544E-03
 -1      3495 1.95755E+00 1.99773E-02-1.25413E-03
 -1      3496 1.95798E+00 1.96272E-02-9.71373E-04
 -1      3497 1.95799E+00 1.93108E-02-9.72082E-04
 -1      3498 1.96279E+00 1.96733E-02 2.28952E-03
 -1      3499 1.96322E+00 2.00099E-02 2.58667E-03
 -1      3500 1.96280E+00 1.93586E-02 2.28916E-03
 -1      3501 1.96399E+00 1.94781E-02 3.10022E-03
 -1      3502 1.96367E+00 1.90387E-02 2.86959E-03
 -1      3503 1.96357E+00 1.93390E-02 2.81226E-03
 -1      3504 1.96331E+00 1.87835E-02 2.61918E-03
 -1      3505 1.96308E+00 1.87631E-02 2.45710E-03
 -1      3506 1.96440E+00 2.02372E-02 3.40341E-03
 -1      3507 1.96419E+00 1.97362E-02 3.24471E-03
 -1      3508 1.96410E+00 1.98762E-02 3.19144E-03
 -1      3509 1.96461E+00 2.12778E-02 3.57607E-03
 -1      3510 1.96452E+00 2.07396E-02 3.50250E-03
 -1      3511 1.96444E+00 2.06375E-02 3.44210E-03
 -1      3512 1.96455E+00 2.24961E-02 3.57042E-03
 -1      3513 1.96462E+00 2.19543E-02 3.60100E-03
 -1      3514 1.96461E+00 2.18173E-02 3.59329E-03
 -1      3515 1.96419E+00 2.35195E-02 3.35501E-03
 -1      3516 1.96440E+00 2.30150E-02 3.48396E-03
 -1      3517 1.96448E+00 2.30217E-02 3.53501E-03
 -1      3518 1.96360E+00 2.44033E-02 2.97400E-03
 -1      3519 1.96393E+00 2.39686E-02 3.18768E-03
 -1      3520 1.96406E+00 2.39938E-02 3.27494E-03
 -1      3521 1.96279E+00 2.51131E-02 2.44868E-03
 -1      3522 1.96323E+00 2.47770E-02 2.73274E-03
 -1      3523 1.96342E+00 2.48223E-02 2.86423E-03
 -1      3524 1.96183E+00 2.56063E-02 1.81115E-03
 -1      3525 1.96234E+00 2.53911E-02 2.14705E-03
 -1      3526 1.96259E+00 2.54832E-02 2.32079E-03
 -1      3527 1.96074E+00 2.58814E-02 1.07658E-03
 -1      3528 1.96128E+00 2.58068E-02 1.44288E-03
 -1      3529 1.96158E+00 2.59775E-02 1.65076E-03
 -1      3530 1.95961E+00 2.57606E-02 3.08850E-04
 -1      3531 1.96016E+00 2.58339E-02 6.79442E-04
 -1      3532 1.96044E+00 2.61386E-02 8.81111E-04
 -1      3533 1.95859E+00 2.54022E-02-3.94224E-04
 -1      3534 1.95910E+00 2.56120E-02-4.47244E-05
 -1      3535 1.95934E+00 2.59343E-02 1.25902E-04
 -1      3536 1.95768E+00 2.47936E-02-1.02887E-03
 -1      3537 1.95812E+00 2.51277E-02-7.24461E-04
 -1      3538 1.95834E+00 2.55094E-02-5.62537E-04
 -1      3539 1.95695E+00 2.39659E-02-1.54328E-03
 -1      3540 1.95729E+00 2.44019E-02-1.30500E-03
 -1      3541 1.95747E+00 2.48388E-02-1.17286E-03
 -1      3542 1.95646E+00 2.29569E-02-1.90464E-03
 -1      3543 1.95667E+00 2.34662E-02-1.75063E-03
 -1      3544 1.95678E+00 2.39414E-02-1.65948E-03
 -1      3545 1.95625E+00 2.18670E-02-2.07493E-03
 -1      3546 1.95632E+00 2.24135E-02-2.01485E-03
 -1      3547 1.95636E+00 2.28879E-02-1.97321E-03
 -1      3548 1.95634E+00 2.07621E-02-2.04855E-03
 -1      3549 1.95626E+00 2.13079E-02-2.08635E-03
 -1      3550 1.95624E+00 2.17768E-02-2.08786E-03
 -1      3551 1.95669E+00 1.97447E-02-1.83716E-03
 -1      3552 1.95648E+00 2.02539E-02-1.96751E-03
 -1      3553 1.95640E+00 2.07047E-02-2.00744E-03
 -1      3554 1.95730E+00 1.88269E-02-1.45244E-03
 -1      3555 1.95696E+00 1.92654E-02-1.66737E-03
 -1      3556 1.95682E+00 1.97134E-02-1.75107E-03
 -1      3557 1.95741E+00 1.88970E-02-1.37508E-03
 -1      3558 1.95723E+00 2.58233E-02-1.30544E-03
 -1      3559 1.95689E+00 2.53872E-02-1.54376E-03
 -1      3560 1.95806E+00 2.65490E-02-7.24805E-04
 -1      3561 1.95762E+00 2.62150E-02-1.02927E-03
 -1      3562 1.95743E+00 2.57863E-02-1.17313E-03
 -1      3563 1.95661E+00 2.48876E-02-1.75116E-03
 -1      3564 1.95640E+00 2.43781E-02-1.90526E-03
 -1      3565 1.95674E+00 2.48890E-02-1.65980E-03
 -1      3566 1.95626E+00 2.38347E-02-2.01553E-03
 -1      3567 1.95619E+00 2.32882E-02-2.07567E-03
 -1      3568 1.95632E+00 2.38354E-02-1.97362E-03
 -1      3569 1.95620E+00 2.27289E-02-2.08718E-03
 -1      3570 1.95628E+00 2.21830E-02-2.04954E-03
 -1      3571 1.95620E+00 2.27242E-02-2.08836E-03
 -1      3572 1.95642E+00 2.16746E-02-1.96866E-03
 -1      3573 1.95663E+00 2.11653E-02-1.83847E-03
 -1      3574 1.95636E+00 2.16519E-02-2.00816E-03
 -1      3575 1.95690E+00 2.07121E-02-1.66885E-03
 -1      3576 1.95724E+00 2.02735E-02-1.45378E-03
 -1      3577 1.95678E+00 2.06867E-02-1.75214E-03
 -1      3578 1.95737E+00 1.99385E-02-1.37572E-03
 -1      3579 1.96356E+00 2.02899E-02 2.82726E-03
 -1      3580 1.96388E+00 2.07224E-02 3.06393E-03
 -1      3581 1.96344E+00 1.99227E-02 2.73925E-03
 -1      3582 1.96412E+00 2.12341E-02 3.23900E-03
 -1      3583 1.96433E+00 2.17346E-02 3.39896E-03
 -1      3584 1.96402E+00 2.07227E-02 3.15381E-03
 -1      3585 1.96447E+00 2.21398E-02 3.50161E-03
 -1      3586 1.96455E+00 2.26781E-02 3.57528E-03
 -1      3587 1.96439E+00 2.16410E-02 3.43851E-03
 -1      3588 1.96457E+00 2.32530E-02 3.60028E-03
 -1      3589 1.96450E+00 2.37948E-02 3.56947E-03
 -1      3590 1.96458E+00 2.26219E-02 3.59305E-03
 -1      3591 1.96435E+00 2.44157E-02 3.48326E-03
 -1      3592 1.96414E+00 2.49203E-02 3.35433E-03
 -1      3593 1.96444E+00 2.38264E-02 3.53409E-03
 -1      3594 1.96387E+00 2.53899E-02 3.18720E-03
 -1      3595 1.96354E+00 2.58246E-02 2.97358E-03
 -1      3596 1.96402E+00 2.49208E-02 3.27445E-03
 -1      3597 1.96317E+00 2.61983E-02 2.73236E-03
 -1      3598 1.96273E+00 2.65345E-02 2.44834E-03
 -1      3599 1.96338E+00 2.57699E-02 2.86397E-03
 -1      3600 1.96228E+00 2.67917E-02 2.14646E-03
 -1      3601 1.96178E+00 2.70069E-02 1.81057E-03
 -1      3602 1.96255E+00 2.64100E-02 2.32032E-03
 -1      3603 1.96123E+00 2.71030E-02 1.44075E-03
 -1      3604 1.96068E+00 2.71773E-02 1.07443E-03
 -1      3605 1.96155E+00 2.67793E-02 1.64846E-03
 -1      3606 1.96010E+00 2.72342E-02 6.78878E-04
 -1      3607 1.95955E+00 2.71609E-02 3.08271E-04
 -1      3608 1.96040E+00 2.69395E-02 8.78710E-04
 -1      3609 1.95904E+00 2.70333E-02-4.50051E-05
 -1      3610 1.95853E+00 2.68236E-02-3.94535E-04
 -1      3611 1.95930E+00 2.68608E-02 1.25416E-04
 -1      3612 1.95830E+00 2.64569E-02-5.62744E-04
 -1      3613 1.95791E+00 1.88009E-02-1.04310E-03
 -1      3614 1.95790E+00 1.91164E-02-1.04138E-03
 -1      3615 1.95763E+00 1.89275E-02-1.23035E-03
 -1      3616 1.95761E+00 1.94694E-02-1.22992E-03
 -1      3617 1.96288E+00 1.87566E-02 2.32131E-03
 -1      3618 1.96287E+00 1.90716E-02 2.32314E-03
 -1      3619 1.96315E+00 1.93761E-02 2.52214E-03
 -1      3620 1.96423E+00 2.09430E-02 3.30664E-03
 -1      3621 1.96440E+00 2.13358E-02 3.43358E-03
 -1      3622 1.96402E+00 2.04197E-02 3.14585E-03
 -1      3623 1.96426E+00 2.03921E-02 3.31111E-03
 -1      3624 1.96408E+00 2.01243E-02 3.17856E-03
 -1      3625 1.96442E+00 2.08827E-02 3.43383E-03
 -1      3626 1.96280E+00 2.60262E-02 2.48154E-03
 -1      3627 1.96235E+00 2.62900E-02 2.18252E-03
 -1      3628 1.96222E+00 2.61360E-02 2.08759E-03
 -1      3629 1.96194E+00 2.64778E-02 1.90982E-03
 -1      3630 1.96237E+00 2.58370E-02 2.18290E-03
 -1      3631 1.96282E+00 2.55525E-02 2.48165E-03
 -1      3632 1.96196E+00 2.60248E-02 1.91021E-03
 -1      3633 1.96319E+00 2.57246E-02 2.73250E-03
 -1      3634 1.96301E+00 2.56409E-02 2.61283E-03
 -1      3635 1.96321E+00 2.52508E-02 2.73262E-03
 -1      3636 1.96415E+00 2.44467E-02 3.35451E-03
 -1      3637 1.96433E+00 2.40452E-02 3.46135E-03
 -1      3638 1.96424E+00 2.40604E-02 3.40145E-03
 -1      3639 1.96435E+00 2.35919E-02 3.46164E-03
 -1      3640 1.96417E+00 2.39934E-02 3.35483E-03
 -1      3641 1.96389E+00 2.49163E-02 3.18736E-03
 -1      3642 1.96374E+00 2.49055E-02 3.08396E-03
 -1      3643 1.96356E+00 2.53509E-02 2.97373E-03
 -1      3644 1.96391E+00 2.44425E-02 3.18751E-03
 -1      3645 1.96358E+00 2.48771E-02 2.97387E-03
 -1      3646 1.95855E+00 2.63494E-02-3.94881E-04
 -1      3647 1.95807E+00 2.60748E-02-7.25115E-04
 -1      3648 1.95764E+00 2.57382E-02-1.03148E-03
 -1      3649 1.95786E+00 2.56758E-02-8.82746E-04
 -1      3650 1.95881E+00 2.62258E-02-2.22110E-04
 -1      3651 1.95906E+00 2.65595E-02-4.49160E-05
 -1      3652 1.95908E+00 2.60857E-02-4.48250E-05
 -1      3653 1.95857E+00 2.58757E-02-3.94784E-04
 -1      3654 1.95809E+00 2.56010E-02-7.25001E-04
 -1      3655 1.95766E+00 2.52644E-02-1.03136E-03
 -1      3656 1.96059E+00 2.67098E-02 1.00039E-03
 -1      3657 1.96001E+00 2.67515E-02 6.04531E-04
 -1      3658 1.95957E+00 2.66871E-02 3.08356E-04
 -1      3659 1.95976E+00 2.64933E-02 4.29152E-04
 -1      3660 1.96003E+00 2.62987E-02 6.04933E-04
 -1      3661 1.96061E+00 2.63616E-02 1.00238E-03
 -1      3662 1.95959E+00 2.62344E-02 3.08755E-04
 -1      3663 1.96101E+00 2.64932E-02 1.27407E-03
 -1      3664 1.95665E+00 2.06891E-02-1.83706E-03
 -1      3665 1.95692E+00 2.02361E-02-1.66712E-03
 -1      3666 1.95631E+00 2.16482E-02-2.04188E-03
 -1      3667 1.95646E+00 2.11420E-02-1.95582E-03
 -1      3668 1.95656E+00 2.06709E-02-1.89936E-03
 -1      3669 1.95729E+00 1.97620E-02-1.43201E-03
 -1      3670 1.95712E+00 1.97323E-02-1.54984E-03
 -1      3671 1.95725E+00 2.53460E-02-1.30738E-03
 -1      3672 1.96455E+00 2.20181E-02 3.55561E-03
 -1      3673 1.96459E+00 2.25916E-02 3.59990E-03
 -1      3674 1.96457E+00 2.28451E-02 3.59278E-03
 -1      3675 1.96461E+00 2.22402E-02 3.60000E-03
 -1      3676 1.96450E+00 2.34284E-02 3.55771E-03
 -1      3677 1.96451E+00 2.30770E-02 3.55826E-03
 -1      3678 1.96382E+00 1.99256E-02 3.00121E-03
 -1      3679 1.96350E+00 1.96455E-02 2.76965E-03
 -1      3680 1.95648E+00 2.06685E-02-1.95541E-03
 -1      3681 1.95633E+00 2.11746E-02-2.04153E-03
 -1      3682 1.95628E+00 2.16221E-02-2.06429E-03
 -1      3683 1.95625E+00 2.16692E-02-2.08287E-03
 -1      3684 1.95623E+00 2.22281E-02-2.08154E-03
 -1      3685 1.95695E+00 1.97364E-02-1.66652E-03
 -1      3686 1.95667E+00 2.02156E-02-1.83656E-03
 -1      3687 1.95731E+00 1.92623E-02-1.43156E-03
 -1      3688 1.96140E+00 2.65946E-02 1.54477E-03
 -1      3689 1.96446E+00 2.12976E-02 3.47551E-03
 -1      3690 1.96457E+00 2.15650E-02 3.55583E-03
 -1      3691 1.95623E+00 2.27199E-02-2.06436E-03
 -1      3692 1.95629E+00 2.28247E-02-2.02444E-03
 -1      3693 1.95621E+00 2.27018E-02-2.08178E-03
 -1      3694 1.95627E+00 2.32984E-02-2.02466E-03
 -1      3695 1.95642E+00 2.33702E-02-1.91971E-03
 -1      3696 1.95651E+00 2.38817E-02-1.84651E-03
 -1      3697 1.95664E+00 2.39257E-02-1.75583E-03
 -1      3698 1.95640E+00 2.38439E-02-1.91990E-03
 -1      3699 1.95662E+00 2.43995E-02-1.75600E-03
 -1      3700 1.96142E+00 2.62458E-02 1.54669E-03
 -1      3701 1.95623E+00 2.21429E-02-2.08317E-03
 -1      3702 1.95691E+00 2.49002E-02-1.54986E-03
 -1      3703 1.95708E+00 2.48884E-02-1.43530E-03
 -1      3704 1.95727E+00 2.48722E-02-1.30723E-03
 -1      3705 1.95693E+00 2.44264E-02-1.54970E-03
 -1      3706 2.00000E+00 5.89816E-03 4.64904E-02
 -1      3707 2.00000E+00-8.35734E-03-4.02789E-02
 -1      3708 2.00000E+00 4.51997E-02 1.42792E-03
 -1      3709 2.00000E+00 1.72752E-02-3.54268E-02
 -1      3710 2.00000E+00-8.43719E-04 3.41646E-02
 -1      3711 2.00000E+00 4.64245E-02 1.59306E-03
 -1      3712 2.00000E+00 8.38533E-03-3.34135E-02
 -1      3713 2.00000E+00 1.03779E-03 1.96934E-02
 -1      3714 2.00000E+00 3.12317E-02 1.55744E-03
 -1      3715 2.00000E+00 3.04085E-02 3.14799E-04
 -1      3716 2.00000E+00 4.66207E-02-8.98199E-03
 -1      3717 2.00000E+00-7.82387E-03 4.51951E-04
 -1      3718 2.00000E+00-2.98318E-02 1.16513E-03
 -1      3719 2.00000E+00-2.29409E-02-7.54062E-03
 -1      3720 2.00000E+00-1.69920E-02 1.28412E-03
 -1      3721 2.00000E+00 2.19016E-02-5.92367E-04
 -1      3722 2.00000E+00 3.90968E-02-1.80218E-03
 -1      3723 2.00000E+00-1.80429E-02 1.68813E-04
 -1      3724 2.00000E+00 1.10767E-04-3.69813E-05
 -1      3725 2.00000E+00 1.26954E-03 5.92640E-05
 -1      3726 2.00000E+00 2.06965E-02-1.42984E-04
 -1      3727 2.00000E+00 4.17638E-02 2.14599E-03
 -1      3728 2.00000E+00 2.29230E-02 1.47068E-03
 -1      3729 2.00000E+00-4.23494E-03 1.62855E-03
 -1      3730 2.00000E+00-2.39277E-02 2.10789E-03
 -1      3731 2.00000E+00 2.11687E-02 1.67738E-03
 -1      3732 2.00000E+00-2.68818E-03 1.59399E-03
 -1      3733 2.00000E+00 3.89008E-02-2.33037E-02
 -1      3734 2.00000E+00 5.27130E-02-3.93004E-03
 -1      3735 2.00000E+00 4.75959E-02-2.09188E-03
 -1      3736 2.00000E+00 4.90678E-02 5.28528E-04
 -1      3737 2.00000E+00 3.93469E-02 1.15548E-03
 -1      3738 2.00000E+00 1.37730E-02-4.27864E-02
 -1      3739 2.00000E+00-6.20580E-03-7.82141E-02
 -1      3740 2.00000E+00 1.94553E-02-2.45291E-02
 -1      3741 2.00000E+00-4.81656E-03-9.42119E-02
 -1      3742 2.00000E+00 6.33007E-03-9.49869E-02
 -1      3743 2.00000E+00-5.61374E-03-4.07231E-02
 -1      3744 2.00000E+00 4.17102E-03-4.68445E-02
 -1      3745 2.00000E+00 1.79864E-02-8.17583E-02
 -1      3746 2.00000E+00 1.34430E-02-4.13790E-02
 -1      3747 2.00000E+00-2.99470E-02-1.90586E-03
 -1      3748 2.00000E+00-1.93544E-02-2.02660E-02
 -1      3749 2.00000E+00-5.65206E-03-2.03452E-02
 -1      3750 2.00000E+00-2.55721E-02 2.09525E-04
 -1      3751 2.00000E+00 3.84824E-02 1.81625E-02
 -1      3752 2.00000E+00 4.95744E-02 2.81719E-03
 -1      3753 2.00000E+00 4.28852E-02-1.18915E-03
 -1      3754 2.00000E+00-4.25459E-03 8.34104E-02
 -1      3755 2.00000E+00 6.70795E-03 4.91992E-02
 -1      3756 2.00000E+00 1.12260E-02 1.57188E-02
 -1      3757 2.00000E+00 9.90818E-03 9.55755E-02
 -1      3758 2.00000E+00 1.69031E-03 9.89404E-02
 -1      3759 2.00000E+00-7.08265E-03 4.77801E-02
 -1      3760 2.00000E+00 1.63918E-02 6.91279E-02
 -1      3761 2.00000E+00-7.21855E-03 3.42785E-02
 -1      3762 2.00000E+00 2.34237E-02 3.82590E-02
 -1      3763 2.00000E+00-2.75422E-02 1.26811E-02
 -1      3764 2.00000E+00-3.01322E-02 2.57945E-03
 -1      3765 2.00000E+00-1.75570E-02 8.90925E-03
 -1      3766 2.00000E+00-1.98382E-02 1.08418E-03
 -1      3767 2.00000E+00 1.93680E-03 7.85927E-04
 -1      3768 2.00000E+00 2.06142E-02 6.70468E-04
 -1      3769 2.00000E+00-1.13726E-02 1.01430E-03
 -1      3770 2.00000E+00 2.98924E-02 1.25027E-03
 -1      3771 2.00000E+00-1.00434E-02-1.21030E-03
 -1      3772 2.00000E+00 8.41697E-03-2.11432E-03
 -1      3773 2.00000E+00-7.16267E-04 2.29948E-03
 -1      3774 2.00000E+00 1.49575E-02 2.30437E-04
 -1      3775 2.00000E+00-2.25448E-02 3.12481E-04
 -1      3776 2.00000E+00 3.77120E-02 1.64487E-03
 -1      3777 2.00000E+00 4.64957E-02-8.50577E-04
 -1      3778 2.00000E+00 2.31849E-02-5.83605E-03
 -1      3779 2.00000E+00 4.16237E-02-3.77197E-03
 -1      3780 2.00000E+00 5.84771E-03-3.58332E-03
 -1      3781 2.00000E+00-4.24851E-03 3.79666E-03
 -1      3782 2.00000E+00-2.65340E-02-5.74125E-04
 -1      3783 0.00000E+00 0.00000E+00 0.00000E+00
 -1      3784 0.00000E+00 0.00000E+00 0.00000E+00
 -1      3785 0.00000E+00 0.00000E+00 0.00000E+00
 -1      3786 0.00000E+00 0.00000E+00 0.00000E+00
 -1      3787 0.00000E+00 0.00000E+00 0.00000E+00
 -1      3788 0.00000E+00 0.00000E+00 0.00000E+00
 -1      3789 0.00000E+00 0.00000E+00 0.00000E+00
 -1      3790 0.00000E+00 0.00000E+00 0.00000E+00
 -1      3791 0.00000E+00 0.00000E+00 0.00000E+00
 -1      3792 0.00000E+00 0.00000E+00 0.00000E+00
 -1      3793 0.00000E+00 0.00000E+00 0.00000E+00
 -1      3794 0.00000E+00 0.00000E+00 0.00000E+00
 -1      3795 0.00000E+00 0.00000E+00 0.00000E+00
 -1      3796 0.00000E+00 0.00000E+00 0.00000E+00
 -1      3797 0.00000E+00 0.00000E+00 0.00000E+00
 -1      3798 0.00000E+00 0.00000E+00 0.00000E+00
 -1      3799 0.00000E+00 0.00000E+00 0.00000E+00
 -1      3800 0.00000E+00 0.00000E+00 0.00000E+00
 -1      3801 0.00000E+00 0.00000E+00 0.00000E+00
 -1      3802 0.00000E+00 0.00000E+00 0.00000E+00
 -1      3803 0.00000E+00 0.00000E+00 0.00000E+00
 -1      3804 0.00000E+00 0.00000E+00 0.00000E+00
 -1      3805 0.00000E+00 0.00000E+00 0.00000E+00
 -1      3806 0.00000E+00 0.00000E+00 0.00000E+00
 -1      3807 0.00000E+00 0.00000E+00 0.00000E+00
 -1      3808 0.00000E+00 0.00000E+00 0.00000E+00
 -1      3809 0.00000E+00 0.00000E+00 0.00000E+00
 -1      3810 0.00000E+00 0.00000E+00 0.00000E+00
 -1      3811 0.00000E+00 0.00000E+00 0.00000E+00
 -1      3812 0.00000E+00 0.00000E+00 0.00000E+00
 -1      3813 0.00000E+00 0.00000E+00 0.00000E+00
 -1      3814 0.00000E+00 0.00000E+00 0.00000E+00
 -1      3815 0.00000E+00 0.00000E+00 0.00000E+00
 -1      3816 0.00000E+00 0.00000E+00 0.00000E+00
 -1      3817 0.00000E+00 0.00000E+00 0.00000E+00
 -1      3818 0.00000E+00 0.00000E+00 0.00000E+00
 -1      3819 0.00000E+00 0.00000E+00 0.00000E+00
 -1      3820 0.00000E+00 0.00000E+00 0.00000E+00
 -1      3821 0.00000E+00 0.00000E+00 0.00000E+00
 -1      3822 0.00000E+00 0.00000E+00 0.00000E+00
 -1      3823 0.00000E+00 0.00000E+00 0.00000E+00
 -1      3824 0.00000E+00 0.00000E+00 0.00000E+00
 -1      3825 0.00000E+00 0.00000E+00 0.00000E+00
 -1      3826 0.00000E+00 0.00000E+00 0.00000E+00
 -1      3827 0.00000E+00 0.00000E+00 0.00000E+00
 -1      3828 0.00000E+00 0.00000E+00 0.00000E+00
 -1      3829 0.00000E+00 0.00000E+00 0.00000E+00
 -1      3830 0.00000E+00 0.00000E+00 0.00000E+00
 -1      3831 0.00000E+00 0.00000E+00 0.00000E+00
 -1      3832 0.00000E+00 0.00000E+00 0.00000E+00
 -1      3833 0.00000E+00 0.00000E+00 0.00000E+00
 -1      3834 0.00000E+00 0.00000E+00 0.00000E+00
 -1      3835 0.00000E+00 0.00000E+00 0.00000E+00
 -1      3836 0.00000E+00 0.00000E+00 0.00000E+00
 -1      3837 0.00000E+00 0.00000E+00 0.00000E+00
 -1      3838 0.00000E+00 0.00000E+00 0.00000E+00
 -1      3839 0.00000E+00 0.00000E+00 0.00000E+00
 -1      3840 0.00000E+00 0.00000E+00 0.00000E+00
 -1      3841 0.00000E+00 0.00000E+00 0.00000E+00
 -1      3842 0.00000E+00 0.00000E+00 0.00000E+00
 -1      3843 0.00000E+00 0.00000E+00 0.00000E+00
 -1      3844 0.00000E+00 0.00000E+00 0.00000E+00
 -1      3845 0.00000E+00 0.00000E+00 0.00000E+00
 -1      3846 0.00000E+00 0.00000E+00 0.00000E+00
 -1      3847 0.00000E+00 0.00000E+00 0.00000E+00
 -1      3848 0.00000E+00 0.00000E+00 0.00000E+00
 -1      3849 0.00000E+00 0.00000E+00 0.00000E+00
 -1      3850 0.00000E+00 0.00000E+00 0.00000E+00
 -1      3851 0.00000E+00 0.00000E+00 0.00000E+00
 -1      3852 0.00000E+00 0.00000E+00 0.00000E+00
 -1      3853 0.00000E+00 0.00000E+00 0.00000E+00
 -1      3854 0.00000E+00 0.00000E+00 0.00000E+00
 -1      3855 0.00000E+00 0.00000E+00 0.00000E+00
 -1      3856 0.00000E+00 0.00000E+00 0.00000E+00
 -1      3857 0.00000E+00 0.00000E+00 0.00000E+00
 -1      3858 0.00000E+00 0.00000E+00 0.00000E+00
 -1      3859 0.00000E+00 0.00000E+00 0.00000E+00
 -1      3860 0.00000E+00 0.00000E+00 0.00000E+00
 -1      3861 0.00000E+00 0.00000E+00 0.00000E+00
 -1      3862 0.00000E+00 0.00000E+00 0.00000E+00
 -1      3863 0.00000E+00 0.00000E+00 0.00000E+00
 -1      3864 0.00000E+00 0.00000E+00 0.00000E+00
 -1      3865 0.00000E+00 0.00000E+00 0.00000E+00
 -1      3866 0.00000E+00 0.00000E+00 0.00000E+00
 -1      3867 0.00000E+00 0.00000E+00 0.00000E+00
 -1      3868 0.00000E+00 0.00000E+00 0.00000E+00
 -1      3869 0.00000E+00 0.00000E+00 0.00000E+00
 -1      3870 0.00000E+00 0.00000E+00 0.00000E+00
 -1      3871 0.00000E+00 0.00000E+00 0.00000E+00
 -1      3872 0.00000E+00 0.00000E+00 0.00000E+00
 -1      3873 0.00000E+00 0.00000E+00 0.00000E+00
 -1      3874 0.00000E+00 0.00000E+00 0.00000E+00
 -1      3875 0.00000E+00 0.00000E+00 0.00000E+00
 -1      3876 0.00000E+00 0.00000E+00 0.00000E+00
 -1      3877 0.00000E+00 0.00000E+00 0.00000E+00
 -1      3878 0.00000E+00 0.00000E+00 0.00000E+00
 -1      3879 0.00000E+00 0.00000E+00 0.00000E+00
 -1      3880 0.00000E+00 0.00000E+00 0.00000E+00
 -1      3881 0.00000E+00 0.00000E+00 0.00000E+00
 -1      3882 0.00000E+00 0.00000E+00 0.00000E+00
 -1      3883 0.00000E+00 0.00000E+00 0.00000E+00
 -1      3884 0.00000E+00 0.00000E+00 0.00000E+00
 -1      3885 0.00000E+00 0.00000E+00 0.00000E+00
 -1      3886 0.00000E+00 0.00000E+00 0.00000E+00
 -1      3887 0.00000E+00 0.00000E+00 0.00000E+00
 -1      3888 0.00000E+00 0.00000E+00 0.00000E+00
 -1      3889 0.00000E+00 0.00000E+00 0.00000E+00
 -1      3890 0.00000E+00 0.00000E+00 0.00000E+00
 -1      3891 0.00000E+00 0.00000E+00 0.00000E+00
 -1      3892 0.00000E+00 0.00000E+00 0.00000E+00
 -1      3893 0.00000E+00 0.00000E+00 0.00000E+00
 -1      3894 0.00000E+00 0.00000E+00 0.00000E+00
 -1      3895 0.00000E+00 0.00000E+00 0.00000E+00
 -1      3896 0.00000E+00 0.00000E+00 0.00000E+00
 -1      3897 0.00000E+00 0.00000E+00 0.00000E+00
 -1      3898 0.00000E+00 0.00000E+00 0.00000E+00
 -1      3899 0.00000E+00 0.00000E+00 0.00000E+00
 -1      3900 0.00000E+00 0.00000E+00 0.00000E+00
 -1      3901 0.00000E+00 0.00000E+00 0.00000E+00
 -1      3902 0.00000E+00 0.00000E+00 0.00000E+00
 -1      3903 0.00000E+00 0.00000E+00 0.00000E+00
 -1      3904 0.00000E+00 0.00000E+00 0.00000E+00
 -1      3905 0.00000E+00 0.00000E+00 0.00000E+00
 -1      3906 0.00000E+00 0.00000E+00 0.00000E+00
 -1      3907 0.00000E+00 0.00000E+00 0.00000E+00
 -1      3908 0.00000E+00 0.00000E+00 0.00000E+00
 -1      3909 0.00000E+00 0.00000E+00 0.00000E+00
 -1      3910 0.00000E+00 0.00000E+00 0.00000E+00
 -1      3911 0.00000E+00 0.00000E+00 0.00000E+00
 -1      3912 0.00000E+00 0.00000E+00 0.00000E+00
 -1      3913 0.00000E+00 0.00000E+00 0.00000E+00
 -1      3914 0.00000E+00 0.00000E+00 0.00000E+00
 -1      3915 0.00000E+00 0.00000E+00 0.00000E+00
 -1      3916 0.00000E+00 0.00000E+00 0.00000E+00
 -1      3917 0.00000E+00 0.00000E+00 0.00000E+00
 -1      3918 0.00000E+00 0.00000E+00 0.00000E+00
 -1      3919 0.00000E+00 0.00000E+00 0.00000E+00
 -1      3920 0.00000E+00 0.00000E+00 0.00000E+00
 -1      3921 0.00000E+00 0.00000E+00 0.00000E+00
 -1      3922 0.00000E+00 0.00000E+00 0.00000E+00
 -1      3923 0.00000E+00 0.00000E+00 0.00000E+00
 -1      3924 0.00000E+00 0.00000E+00 0.00000E+00
 -1      3925 0.00000E+00 0.00000E+00 0.00000E+00
 -1      3926 0.00000E+00 0.00000E+00 0.00000E+00
 -1      3927 0.00000E+00 0.00000E+00 0.00000E+00
 -1      3928 0.00000E+00 0.00000E+00 0.00000E+00
 -1      3929 0.00000E+00 0.00000E+00 0.00000E+00
 -1      3930 0.00000E+00 0.00000E+00 0.00000E+00
 -1      3931 0.00000E+00 0.00000E+00 0.00000E+00
 -1      3932 0.00000E+00 0.00000E+00 0.00000E+00
 -1      3933 0.00000E+00 0.00000E+00 0.00000E+00
 -1      3934 0.00000E+00 0.00000E+00 0.00000E+00
 -1      3935 0.00000E+00 0.00000E+00 0.00000E+00
 -1      3936 0.00000E+00 0.00000E+00 0.00000E+00
 -1      3937 0.00000E+00 0.00000E+00 0.00000E+00
 -1      3938 0.00000E+00 0.00000E+00 0.00000E+00
 -1      3939 0.00000E+00 0.00000E+00 0.00000E+00
 -1      3940 0.00000E+00 0.00000E+00 0.00000E+00
 -1      3941 0.00000E+00 0.00000E+00 0.00000E+00
 -1      3942 0.00000E+00 0.00000E+00 0.00000E+00
 -1      3943 0.00000E+00 0.00000E+00 0.00000E+00
 -1      3944 0.00000E+00 0.00000E+00 0.00000E+00
 -1      3945 0.00000E+00 0.00000E+00 0.00000E+00
 -1      3946 0.00000E+00 0.00000E+00 0.00000E+00
 -1      3947 0.00000E+00 0.00000E+00 0.00000E+00
 -1      3948 0.00000E+00 0.00000E+00 0.00000E+00
 -1      3949 0.00000E+00 0.00000E+00 0.00000E+00
 -1      3950 0.00000E+00 0.00000E+00 0.00000E+00
 -1      3951 0.00000E+00 0.00000E+00 0.00000E+00
 -1      3952 0.00000E+00 0.00000E+00 0.00000E+00
 -1      3953 0.00000E+00 0.00000E+00 0.00000E+00
 -1      3954 0.00000E+00 0.00000E+00 0.00000E+00
 -1      3955 0.00000E+00 0.00000E+00 0.00000E+00
 -1      3956 0.00000E+00 0.00000E+00 0.00000E+00
 -1      3957 0.00000E+00 0.00000E+00 0.00000E+00
 -1      3958 0.00000E+00 0.00000E+00 0.00000E+00
 -1      3959 0.00000E+00 0.00000E+00 0.00000E+00
 -1      3960 0.00000E+00 0.00000E+00 0.00000E+00
 -1      3961 0.00000E+00 0.00000E+00 0.00000E+00
 -1      3962 0.00000E+00 0.00000E+00 0.00000E+00
 -1      3963 0.00000E+00 0.00000E+00 0.00000E+00
 -1      3964 0.00000E+00 0.00000E+00 0.00000E+00
 -1      3965 0.00000E+00 0.00000E+00 0.00000E+00
 -1      3966 0.00000E+00 0.00000E+00 0.00000E+00
 -1      3967 0.00000E+00 0.00000E+00 0.00000E+00
 -1      3968 0.00000E+00 0.00000E+00 0.00000E+00
 -1      3969 0.00000E+00 0.00000E+00 0.00000E+00
 -1      3970 0.00000E+00 0.00000E+00 0.00000E+00
 -1      3971 0.00000E+00 0.00000E+00 0.00000E+00
 -1      3972 0.00000E+00 0.00000E+00 0.00000E+00
 -1      3973 0.00000E+00 0.00000E+00 0.00000E+00
 -1      3974 0.00000E+00 0.00000E+00 0.00000E+00
 -1      3975 0.00000E+00 0.00000E+00 0.00000E+00
 -1      3976 0.00000E+00 0.00000E+00 0.00000E+00
 -1      3977 0.00000E+00 0.00000E+00 0.00000E+00
 -1      3978 0.00000E+00 0.00000E+00 0.00000E+00
 -1      3979 0.00000E+00 0.00000E+00 0.00000E+00
 -1      3980 0.00000E+00 0.00000E+00 0.00000E+00
 -1      3981 0.00000E+00 0.00000E+00 0.00000E+00
 -1      3982 0.00000E+00 0.00000E+00 0.00000E+00
 -1      3983 0.00000E+00 0.00000E+00 0.00000E+00
 -1      3984 0.00000E+00 0.00000E+00 0.00000E+00
 -1      3985 0.00000E+00 0.00000E+00 0.00000E+00
 -1      3986 0.00000E+00 0.00000E+00 0.00000E+00
 -1      3987 0.00000E+00 0.00000E+00 0.00000E+00
 -1      3988 0.00000E+00 0.00000E+00 0.00000E+00
 -1      3989 0.00000E+00 0.00000E+00 0.00000E+00
 -1      3990 0.00000E+00 0.00000E+00 0.00000E+00
 -1      3991 0.00000E+00 0.00000E+00 0.00000E+00
 -1      3992 0.00000E+00 0.00000E+00 0.00000E+00
 -1      3993 0.00000E+00 0.00000E+00 0.00000E+00
 -1      3994 0.00000E+00 0.00000E+00 0.00000E+00
 -1      3995 0.00000E+00 0.00000E+00 0.00000E+00
 -1      3996 0.00000E+00 0.00000E+00 0.00000E+00
 -1      3997 0.00000E+00 0.00000E+00 0.00000E+00
 -1      3998 0.00000E+00 0.00000E+00 0.00000E+00
 -1      3999 0.00000E+00 0.00000E+00 0.00000E+00
 -1      4000 0.00000E+00 0.00000E+00 0.00000E+00
 -1      4001 0.00000E+00 0.00000E+00 0.00000E+00
 -1      4002 0.00000E+00 0.00000E+00 0.00000E+00
 -1      4003 0.00000E+00 0.00000E+00 0.00000E+00
 -1      4004 0.00000E+00 0.00000E+00 0.00000E+00
 -1      4005 0.00000E+00 0.00000E+00 0.00000E+00
 -1      4006 0.00000E+00 0.00000E+00 0.00000E+00
 -1      4007 0.00000E+00 0.00000E+00 0.00000E+00
 -1      4008 0.00000E+00 0.00000E+00 0.00000E+00
 -1      4009 0.00000E+00 0.00000E+00 0.00000E+00
 -1      4010 0.00000E+00 0.00000E+00 0.00000E+00
 -1      4011 0.00000E+00 0.00000E+00 0.00000E+00
 -1      4012 0.00000E+00 0.00000E+00 0.00000E+00
 -1      4013 0.00000E+00 0.00000E+00 0.00000E+00
 -1      4014 0.00000E+00 0.00000E+00 0.00000E+00
 -1      4015 0.00000E+00 0.00000E+00 0.00000E+00
 -1      4016 0.00000E+00 0.00000E+00 0.00000E+00
 -1      4017 0.00000E+00 0.00000E+00 0.00000E+00
 -1      4018 0.00000E+00 0.00000E+00 0.00000E+00
 -1      4019 0.00000E+00 0.00000E+00 0.00000E+00
 -1      4020 0.00000E+00 0.00000E+00 0.00000E+00
 -1      4021 0.00000E+00 0.00000E+00 0.00000E+00
 -1      4022 0.00000E+00 0.00000E+00 0.00000E+00
 -1      4023 0.00000E+00 0.00000E+00 0.00000E+00
 -1      4024 0.00000E+00 0.00000E+00 0.00000E+00
 -1      4025 0.00000E+00 0.00000E+00 0.00000E+00
 -1      4026 0.00000E+00 0.00000E+00 0.00000E+00
 -1      4027 0.00000E+00 0.00000E+00 0.00000E+00
 -1      4028 0.00000E+00 0.00000E+00 0.00000E+00
 -1      4029 0.00000E+00 0.00000E+00 0.00000E+00
 -1      4030 1.96102E+00 1.92819E-02 1.07368E-03
 -1      4031 1.95813E+00 2.36435E-02-7.59596E-04
 -1      4032 1.96202E+00 2.49017E-02 1.91383E-03
 -1      4033 1.95868E+00 2.48367E-02-3.49717E-04
 -1      4034 1.95832E+00 2.08014E-02-7.16911E-04
 -1      4035 1.96245E+00 2.03963E-02 2.07725E-03
 -1      4036 1.96279E+00 2.13446E-02 2.33254E-03
 -1      4037 1.96284E+00 2.39277E-02 2.44868E-03
 -1      4038 1.96301E+00 2.12368E-02 2.48364E-03
 -1      4039 1.95957E+00 2.51501E-02 2.63020E-04
 -1      4040 1.95911E+00 1.99177E-02-2.05366E-04
 -1      4041 1.95786E+00 2.11908E-02-1.01287E-03
 -1      4042 1.96315E+00 2.22976E-02 2.60863E-03
 -1      4043 1.96180E+00 1.95471E-02 1.60441E-03
 -1      4044 1.96169E+00 2.01492E-02 1.54568E-03
 -1      4045 1.95773E+00 2.32888E-02-1.03461E-03
 -1      4046 1.95772E+00 2.24657E-02-1.06702E-03
 -1      4047 1.95809E+00 2.43238E-02-7.67084E-04
 -1      4048 1.95881E+00 2.05942E-02-3.91681E-04
 -1      4049 1.96288E+00 2.04965E-02 2.37482E-03
 -1      4050 1.95844E+00 1.99621E-02-6.53759E-04
 -1      4051 1.95895E+00 2.42873E-02-1.85467E-04
 -1      4052 1.96072E+00 1.98750E-02 8.95031E-04
 -1      4053 1.95985E+00 1.99444E-02 3.05050E-04
 -1      4054 1.95761E+00 2.26341E-02-1.14020E-03
 -1      4055 1.96008E+00 1.93087E-02 4.36770E-04
 -1      4056 1.95764E+00 2.19088E-02-1.14068E-03
 -1      4057 1.95974E+00 2.45376E-02 3.58432E-04
 -1      4058 1.96180E+00 2.44546E-02 1.75339E-03
 -1      4059 1.96316E+00 2.32670E-02 2.64093E-03
 -1      4060 1.96107E+00 2.53756E-02 1.28354E-03
 -1      4061 1.96245E+00 2.40395E-02 2.18232E-03
 -1      4062 1.96321E+00 2.24041E-02 2.64986E-03
 -1      4063 1.96288E+00 2.32797E-02 2.45658E-03
 -1      4064 1.95991E+00 2.56908E-02 5.05686E-04
 -1      4065 1.96316E+00 2.11638E-02 2.57948E-03
 -1      4066 1.96107E+00 2.46272E-02 1.26340E-03
 -1      4067 1.96130E+00 2.43164E-02 1.41122E-03
 -1      4068 1.96076E+00 2.44318E-02 1.05137E-03
 -1      4069 1.95956E+00 2.42688E-02 2.30024E-04
 -1      4070 1.96009E+00 2.43910E-02 5.95680E-04
 -1      4071 1.96008E+00 2.47069E-02 5.95730E-04
 -1      4072 1.96075E+00 2.47477E-02 1.05143E-03
 -1      4073 1.95960E+00 2.58025E-02 3.02408E-04
 -1      4074 1.96014E+00 2.59036E-02 6.70408E-04
 -1      4075 1.96126E+00 2.56370E-02 1.42122E-03
 -1      4076 1.96072E+00 2.57554E-02 1.06185E-03
 -1      4077 1.96015E+00 2.55878E-02 6.70365E-04
 -1      4078 1.96074E+00 2.54395E-02 1.06181E-03
 -1      4079 1.96268E+00 2.33482E-02 2.32016E-03
 -1      4080 1.96296E+00 2.28811E-02 2.49934E-03
 -1      4081 1.96323E+00 2.19093E-02 2.65258E-03
 -1      4082 1.96315E+00 2.24488E-02 2.61346E-03
 -1      4083 1.96310E+00 2.28582E-02 2.59018E-03
 -1      4084 1.96213E+00 2.39396E-02 1.96406E-03
 -1      4085 1.96166E+00 2.42256E-02 1.65560E-03
 -1      4086 1.96244E+00 2.37115E-02 2.16732E-03
 -1      4087 1.96268E+00 2.36735E-02 2.33286E-03
 -1      4088 1.96214E+00 2.42713E-02 1.98137E-03
 -1      4089 1.96144E+00 2.45669E-02 1.51598E-03
 -1      4090 1.96262E+00 2.46187E-02 2.31544E-03
 -1      4091 1.96290E+00 2.41528E-02 2.49631E-03
 -1      4092 1.96304E+00 2.36115E-02 2.57322E-03
 -1      4093 1.96307E+00 2.38255E-02 2.60233E-03
 -1      4094 1.96219E+00 2.50977E-02 2.03795E-03
 -1      4095 1.96248E+00 2.44608E-02 2.21742E-03
 -1      4096 1.96286E+00 2.36037E-02 2.45265E-03
 -1      4097 1.96308E+00 2.31833E-02 2.58801E-03
 -1      4098 1.96318E+00 2.28357E-02 2.64618E-03
 -1      4099 1.96266E+00 2.39966E-02 2.32789E-03
 -1      4100 1.96224E+00 2.44806E-02 2.05422E-03
 -1      4101 1.95916E+00 2.41460E-02-4.34931E-05
 -1      4102 1.95870E+00 2.38476E-02-3.63737E-04
 -1      4103 1.95933E+00 2.44429E-02 7.84484E-05
 -1      4104 1.95829E+00 2.35194E-02-6.49625E-04
 -1      4105 1.95799E+00 2.30650E-02-8.71122E-04
 -1      4106 1.95850E+00 2.40070E-02-4.98338E-04
 -1      4107 1.95779E+00 2.24714E-02-1.02117E-03
 -1      4108 1.95767E+00 2.19344E-02-1.11648E-03
 -1      4109 1.95788E+00 2.30737E-02-9.41528E-04
 -1      4110 1.95771E+00 2.11066E-02-1.11205E-03
 -1      4111 1.95765E+00 2.16535E-02-1.14045E-03
 -1      4112 1.95765E+00 2.21900E-02-1.12198E-03
 -1      4113 1.95847E+00 1.96857E-02-6.46597E-04
 -1      4114 1.95812E+00 2.01148E-02-8.68980E-04
 -1      4115 1.95811E+00 2.05508E-02-8.60015E-04
 -1      4116 1.95787E+00 2.07567E-02-1.01912E-03
 -1      4117 1.95770E+00 2.15393E-02-1.10871E-03
 -1      4118 1.95889E+00 1.93319E-02-3.70718E-04
 -1      4119 1.95974E+00 1.90260E-02 1.88853E-04
 -1      4120 1.96027E+00 1.89549E-02 5.51066E-04
 -1      4121 1.95926E+00 1.93545E-02-1.25859E-04
 -1      4122 1.95959E+00 1.95649E-02 1.05636E-04
 -1      4123 1.95876E+00 1.99131E-02-4.43861E-04
 -1      4124 1.96129E+00 1.90584E-02 1.24137E-03
 -1      4125 1.96074E+00 1.89334E-02 8.70792E-04
 -1      4126 1.96055E+00 1.92568E-02 7.55751E-04
 -1      4127 1.96167E+00 1.91970E-02 1.50720E-03
 -1      4128 1.96214E+00 1.94778E-02 1.83381E-03
 -1      4129 1.96142E+00 1.93888E-02 1.34524E-03
 -1      4130 1.96268E+00 1.99581E-02 2.22215E-03
 -1      4131 1.96297E+00 2.04219E-02 2.42830E-03
 -1      4132 1.96245E+00 1.99239E-02 2.05962E-03
 -1      4133 1.96269E+00 2.04332E-02 2.23801E-03
 -1      4134 1.96215E+00 1.99459E-02 1.85429E-03
 -1      4135 1.96322E+00 2.12865E-02 2.62820E-03
 -1      4136 1.96311E+00 2.07548E-02 2.53326E-03
 -1      4137 1.96304E+00 2.08209E-02 2.49287E-03
 -1      4138 1.96322E+00 2.17810E-02 2.64108E-03
 -1      4139 1.95854E+00 2.50600E-02-4.40718E-04
 -1      4140 1.95898E+00 2.53818E-02-1.30748E-04
 -1      4141 1.95944E+00 2.55187E-02 1.83234E-04
 -1      4142 1.95974E+00 2.54262E-02 3.83561E-04
 -1      4143 1.95911E+00 2.50333E-02-5.64478E-05
 -1      4144 1.95823E+00 2.48077E-02-6.53511E-04
 -1      4145 1.95793E+00 2.43522E-02-8.73849E-04
 -1      4146 1.95836E+00 2.46032E-02-5.74374E-04
 -1      4147 1.95764E+00 2.35121E-02-1.09485E-03
 -1      4148 1.95759E+00 2.29636E-02-1.13954E-03
 -1      4149 1.95788E+00 2.38201E-02-9.19979E-04
 -1      4150 1.95776E+00 2.38288E-02-1.00131E-03
 -1      4151 1.95763E+00 2.29665E-02-1.11320E-03
 -1      4152 1.95766E+00 2.24165E-02-1.11143E-03
 -1      4153 1.95836E+00 2.10513E-02-6.79507E-04
 -1      4154 1.95802E+00 2.14891E-02-8.93309E-04
 -1      4155 1.95783E+00 2.17039E-02-1.01884E-03
 -1      4156 1.95769E+00 2.19019E-02-1.10871E-03
 -1      4157 1.95806E+00 2.09778E-02-8.84829E-04
 -1      4158 1.95861E+00 2.09404E-02-5.21306E-04
 -1      4159 1.95906E+00 2.06280E-02-2.22044E-04
 -1      4160 1.95855E+00 2.06829E-02-5.63863E-04
 -1      4161 1.95959E+00 2.03031E-02 1.31062E-04
 -1      4162 1.96012E+00 2.02097E-02 4.95622E-04
 -1      4163 1.95896E+00 2.02514E-02-3.00190E-04
 -1      4164 1.95922E+00 2.03009E-02-1.23925E-04
 -1      4165 1.95948E+00 1.99006E-02 4.17295E-05
 -1      4166 1.96110E+00 2.02887E-02 1.15929E-03
 -1      4167 1.96055E+00 2.01862E-02 7.92280E-04
 -1      4168 1.96029E+00 1.98746E-02 5.98395E-04
 -1      4169 1.96158E+00 2.04467E-02 1.47883E-03
 -1      4170 1.96205E+00 2.07197E-02 1.80551E-03
 -1      4171 1.96122E+00 1.99745E-02 1.22830E-03
 -1      4172 1.96288E+00 2.17910E-02 2.40993E-03
 -1      4173 1.96259E+00 2.13330E-02 2.19633E-03
 -1      4174 1.96209E+00 2.02407E-02 1.82667E-03
 -1      4175 1.96241E+00 2.08707E-02 2.05856E-03
 -1      4176 1.96263E+00 2.08610E-02 2.21287E-03
 -1      4177 1.96307E+00 2.22667E-02 2.55358E-03
 -1      4178 1.96317E+00 2.28020E-02 2.63757E-03
 -1      4179 1.96301E+00 2.18039E-02 2.50081E-03
 -1      4180 1.96317E+00 2.32883E-02 2.65224E-03
 -1      4181 1.96319E+00 2.27818E-02 2.65081E-03
 -1      4182 1.96174E+00 2.54073E-02 1.74048E-03
 -1      4183 1.96156E+00 2.51831E-02 1.61369E-03
 -1      4184 1.96075E+00 2.51236E-02 1.06176E-03
 -1      4185 1.96000E+00 2.50230E-02 5.46872E-04
 -1      4186 1.95998E+00 2.53389E-02 5.46930E-04
 -1      4187 1.95965E+00 2.48447E-02 3.10572E-04
 -1      4188 1.96107E+00 2.50015E-02 1.27348E-03
 -1      4189 1.95869E+00 2.03242E-02-4.80881E-04
 -1      4190 1.95773E+00 2.28775E-02-1.05152E-03
 -1      4191 1.95790E+00 2.34807E-02-9.17105E-04
 -1      4192 1.95765E+00 2.26038E-02-1.11361E-03
 -1      4193 1.95997E+00 1.96250E-02 3.70787E-04
 -1      4194 1.95838E+00 2.03809E-02-6.85806E-04
 -1      4195 1.96309E+00 2.11980E-02 2.53640E-03
 -1      4196 1.96319E+00 2.18086E-02 2.62071E-03
 -1      4197 1.96320E+00 2.23498E-02 2.64698E-03
 -1      4198 1.96310E+00 2.17630E-02 2.55587E-03
 -1      4199 1.95811E+00 2.39836E-02-7.63348E-04
 -1      4200 1.95838E+00 2.42621E-02-5.69867E-04
 -1      4201 1.95881E+00 2.45651E-02-2.68959E-04
 -1      4202 1.96295E+00 2.08645E-02 2.43239E-03
 -1      4203 1.96277E+00 2.07899E-02 2.30767E-03
 -1      4204 1.96291E+00 2.12866E-02 2.41370E-03
 -1      4205 1.95925E+00 2.47396E-02 3.28410E-05
 -1      4206 1.96040E+00 1.95720E-02 6.65311E-04
 -1      4207 1.96087E+00 1.95763E-02 9.84983E-04
 -1      4208 1.96144E+00 2.49391E-02 1.52557E-03
 -1      4209 1.95762E+00 2.22713E-02-1.14045E-03
 -1      4210 1.96191E+00 2.46813E-02 1.83503E-03
 -1      4211 1.96136E+00 1.96956E-02 1.31531E-03
 -1      4212 1.96174E+00 1.98475E-02 1.57494E-03
 -1      4213 3.14325E-01 7.86511E-02-8.37390E-05
 -1      4214 3.14325E-01-7.86670E-02-1.13219E-06
 -1      4215 4.43324E-01 1.81606E-02-2.35388E-04
 -1      4216 5.92323E-01-4.86555E-02 1.87435E-05
 -1      4217 6.86007E-01 4.78654E-02 1.63617E-04
 -1      4218 2.09375E-01-1.29300E-02-2.09813E-04
 -1      4219 8.61737E-01-9.30272E-02-2.16407E-03
 -1      4220 4.83747E-01-9.42333E-02-2.16000E-02
 -1      4221 5.14320E-01 8.14495E-02 1.55548E-02
 -1      4222 4.36533E-01-4.32651E-02-2.34268E-02
 -1      4223 2.23175E-03-2.95131E-03 9.24022E-07
 -1      4224 4.48077E-01-6.35711E-02 3.35089E-02
 -1      4225 1.00618E+00 3.45734E-02 2.37575E-03
 -1      4226 1.98414E-03 2.69773E-03-2.72356E-06
 -1      4227 5.34602E-02-4.13413E-02 8.71679E-06
 -1      4228 1.53747E-01-1.14711E-01-2.68833E-03
 -1      4229 4.28780E-01 8.60156E-02-3.65245E-02
 -1      4230 1.77550E-01 1.14085E-01 9.94982E-03
 -1      4231 1.21104E+00-3.01270E-02-2.82404E-03
 -1      4232 3.88742E-01 8.76436E-02 4.33624E-02
 -1      4233 1.96861E+00 1.37282E-02 3.19466E-04
 -1      4234 1.95972E+00 1.83101E-02 1.78716E-04
 -1      4235 5.09401E-02 3.16826E-02-4.03997E-05
 -1      4236 1.69920E-02 4.10498E-03 4.71995E-06
 -1      4237 2.44669E-01 1.10984E-01-3.69753E-02
 -1      4238 2.61627E-01-1.02601E-01 3.67383E-02
 -1      4239 1.28355E+00 6.53335E-02 2.65593E-04
 -1      4240 2.81601E-01-9.66917E-02-4.12981E-02
 -1      4241 1.90342E-01-7.77977E-02-3.05693E-02
 -1      4242 1.59815E-01 4.41857E-02 1.60540E-02
 -1      4243 1.96111E+00 1.78104E-02 1.11861E-03
 -1      4244 1.50717E-02-4.40426E-03 1.81726E-06
 -1      4245 2.67481E-02-1.25982E-03 5.32257E-06
 -1      4246 7.57653E-04 5.15730E-04-9.08585E-06
 -1      4247 1.44248E+00-1.00681E-01 8.29688E-05
 -1      4248 1.79487E-01-6.39135E-02 2.64403E-02
 -1      4249 2.84973E-01 3.45683E-02-3.02368E-02
 -1      4250 4.19149E-01-9.47633E-02 4.30863E-02
 -1      4251 4.62253E-03-4.23801E-03 5.20441E-06
 -1      4252 3.94747E-03 3.98140E-03 3.78234E-06
 -1      4253 3.64595E-02 9.60982E-03 5.40854E-10
 -1      4254 9.16131E-03 5.19014E-03-3.57162E-06
 -1      4255 1.65516E+00 6.93039E-03-1.72091E-03
 -1      4256 3.92926E-02-1.53496E-02-2.39212E-05
 -1      4257 6.00251E-01-1.04184E-01 2.95373E-02
 -1      4258 7.57596E-01-1.05832E-02 2.47575E-02
 -1      4259 3.55030E-01-2.46765E-02 3.38577E-02
 -1      4260 3.80336E-01 5.01012E-02 3.65209E-02
 -1      4261 1.05799E-03-1.28662E-03 3.71943E-05
 -1      4262 9.26834E-03-5.29069E-03 1.55929E-06
 -1      4263 2.41128E-02-6.79214E-04-4.94115E-07
 -1      4264 5.31699E-01 4.85947E-02-3.94988E-02
 -1      4265 1.95992E+00 1.58460E-02 5.37695E-05
 -1      4266 1.96084E+00 1.62277E-02 1.02418E-03
 -1      4267 1.95955E+00 1.68036E-02 7.81435E-05
 -1      4268 1.96115E+00 1.24111E-02 1.02328E-03
 -1      4269 6.13256E-01 3.09886E-03-3.46580E-02
 -1      4270 1.95950E+00 1.55765E-02 2.03794E-04
 -1      4271 6.87258E-02-7.56620E-02-6.20099E-05
 -1      4272 3.18407E-01-1.05803E-01-3.14690E-03
 -1      4273 5.58481E-01-5.78560E-03 3.51997E-02
 -1      4274 2.93138E-01-5.38252E-02-3.82138E-02
 -1      4275 8.32034E-01 1.07334E-01-1.92678E-02
 -1      4276 2.58418E-01 7.31710E-02 3.95933E-02
 -1      4277 1.57930E+00 1.19125E-01 2.33462E-03
 -1      4278 5.19636E-01 3.93816E-02 3.98433E-02
 -1      4279 3.01073E-01-1.13627E-01-5.21770E-02
 -1      4280 1.07291E+00 1.19339E-01-1.02163E-04
 -1      4281 2.02083E-01 6.80406E-02-2.75193E-02
 -1      4282 9.40682E-02 1.07515E-01 7.25316E-04
 -1      4283 6.30383E-02 6.41547E-02 1.02164E-04
 -1      4284 6.41689E-01 9.62859E-02-3.01808E-02
 -1      4285 7.15092E-01-6.94971E-02 4.91777E-02
 -1      4286 1.96260E+00-3.81569E-03 1.48235E-03
 -1      4287 3.26071E-01-6.18134E-02 4.47890E-02
 -1      4288 6.35679E-01-8.88927E-02-3.88485E-02
 -1      4289 3.24116E-01 7.26274E-02-5.40341E-02
 -1      4290 1.29810E-01 1.84523E-02-3.07623E-02
 -1      4291 4.13397E-01 5.22649E-02-2.09138E-02
 -1      4292 1.02317E-01-1.15004E-01-3.01531E-04
 -1      4293 3.07611E-01 1.97000E-02 3.33723E-02
 -1      4294 7.09007E-01 1.05666E-01 3.43687E-02
 -1      4295 2.76735E-01 1.12705E-01 4.63766E-02
 -1      4296 1.96329E+00 3.54411E-02-7.44559E-04
 -1      4297 3.20828E-01-8.71098E-03-4.08702E-02
 -1      4298 3.50125E-01 1.03603E-01-5.01129E-02
 -1      4299 3.38513E-01 1.02638E-01-6.47673E-04
 -1      4300 7.35160E-01-4.14034E-02-3.57186E-02
 -1      4301 1.04782E+00-1.13028E-01 1.81330E-02
 -1      4302 1.69712E+00-1.06653E-01-1.33499E-02
 -1      4303 1.96021E+00 2.25600E-02-7.93210E-04
 -1      4304 1.22104E+00-1.26552E-01-1.18191E-02
 -1      4305 3.06423E-01-1.12409E-01 5.23629E-02
 -1      4306 8.06007E-01 1.15286E-02-3.94215E-02
 -1      4307 1.96152E+00 1.88262E-02 1.39525E-03
 -1      4308 1.54216E-01 1.34394E-01-1.58631E-02
 -1      4309 8.37286E-01 6.51464E-02 3.45643E-02
 -1      4310 4.05178E-01-7.84236E-02-5.62821E-02
 -1      4311 4.66338E-01-4.20663E-03-4.55391E-02
 -1      4312 9.89916E-01-4.14983E-02 1.89761E-02
 -1      4313 2.91255E-03 3.60687E-03-3.46338E-04
 -1      4314 2.57281E-03 3.30429E-03-3.59286E-04
 -1      4315 2.10088E-03 2.88701E-03-2.94886E-04
 -1      4316 2.57266E-03 3.30373E-03 3.56213E-04
 -1      4317 2.91327E-03 3.60532E-03 3.43154E-04
 -1      4318 2.10100E-03 2.88771E-03 2.92287E-04
 -1      4319 1.38957E-01-1.38986E-01 2.58472E-02
 -1      4320 1.15657E-01-1.36909E-01 1.77322E-02
 -1      4321 1.05312E-01-1.23744E-01 1.21653E-02
 -1      4322 1.19748E-01-1.30827E-01 8.05231E-03
 -1      4323 1.20339E-01-1.29175E-01 1.53702E-02
 -1      4324 5.47678E-02-3.44389E-02-2.76292E-03
 -1      4325 5.32539E-02-3.77798E-02-2.79373E-03
 -1      4326 6.08121E-02-4.48207E-02-3.19666E-03
 -1      4327 4.73746E-01-3.92080E-02-5.99318E-02
 -1      4328 5.13741E-01-4.52930E-02-1.15199E-02
 -1      4329 5.51112E-01-4.16732E-02-4.81986E-02
 -1      4330 4.88805E-01-1.96360E-02-7.08153E-02
 -1      4331 5.29556E-01-2.56487E-02-2.26739E-02
 -1      4332 4.51552E-01-2.41067E-02-3.45513E-02
 -1      4333 5.51093E-01-4.16486E-02 4.83587E-02
 -1      4334 5.19313E-01-5.61948E-02 1.67132E-02
 -1      4335 4.79698E-01-4.98838E-02 6.50559E-02
 -1      4336 5.34441E-01-2.07727E-02 6.56602E-02
 -1      4337 5.03529E-01-3.59602E-02 3.43212E-02
 -1      4338 5.75827E-01-2.70757E-02 1.76464E-02
 -1      4339 4.42016E-01-5.33013E-02 5.19016E-03
 -1      4340 4.96903E-01-2.50410E-02 6.16848E-03
 -1      4341 1.85535E+00 4.30356E-02-2.42475E-02
 -1      4342 1.82655E+00 1.88117E-02 2.14594E-02
 -1      4343 1.77633E+00 9.46100E-02-1.68053E-02
 -1      4344 1.76912E+00 7.70925E-02 2.17334E-02
 -1      4345 1.62787E+00 6.76655E-02 1.29527E-03
 -1      4346 8.26054E-01-5.05028E-02-6.51140E-02
 -1      4347 7.98469E-01-6.65845E-02-1.89055E-02
 -1      4348 8.90074E-01-7.68246E-02-4.82950E-02
 -1      4349 8.62858E-01-2.32301E-02-6.70268E-02
 -1      4350 8.35618E-01-4.00569E-02-2.07777E-02
 -1      4351 7.70993E-01-1.55114E-02-3.75345E-02
 -1      4352 1.39154E+00 3.70270E-02-4.99708E-02
 -1      4353 1.37773E+00-1.43407E-02 2.07550E-04
 -1      4354 1.47893E+00-5.13037E-02-5.19183E-02
 -1      4355 1.57797E+00 5.19865E-03-5.64048E-02
 -1      4356 1.55101E+00-5.13831E-02-8.97726E-04
 -1      4357 1.46189E+00 3.95563E-02-7.33295E-04
 -1      4358 1.96284E+00 5.29143E-03 5.40162E-04
 -1      4359 1.96085E+00-1.55921E-03-1.01690E-03
 -1      4360 1.96097E+00-3.03457E-03-4.41553E-04
 -1      4361 1.96126E+00-3.50030E-03 4.82158E-04
 -1      4362 1.96258E+00 3.25425E-03 1.29120E-03
 -1      4363 1.47849E+00-5.10485E-02 5.19119E-02
 -1      4364 1.39138E+00 3.67523E-02 5.05276E-02
 -1      4365 1.57653E+00 5.42556E-03 5.45087E-02
 -1      4366 1.96025E+00 1.36003E-02 1.09703E-03
 -1      4367 1.96083E+00 1.49174E-02 1.00825E-03
 -1      4368 1.96026E+00 1.51192E-02 8.62943E-04
 -1      4369 1.95959E+00 1.48683E-02 5.26064E-04
 -1      4370 1.96007E+00 1.58033E-02 6.16014E-04
 -1      4371 1.96007E+00 1.45660E-02 6.06058E-04
 -1      4372 3.95528E-01-3.39147E-02 5.20290E-03
 -1      4373 4.02921E-01-4.44270E-02 3.35939E-02
 -1      4374 4.56369E-01-1.50247E-02 3.45361E-02
 -1      4375 6.45621E-01 3.99304E-02 4.80514E-02
 -1      4376 6.22440E-01 1.98965E-02 1.75876E-02
 -1      4377 5.82349E-01 1.30572E-02 6.55200E-02
 -1      4378 5.62551E-01 3.59137E-02 6.79019E-02
 -1      4379 5.39443E-01 1.71471E-02 3.74304E-02
 -1      4380 6.01995E-01 4.32811E-02 1.98564E-02
 -1      4381 7.24950E-02-5.26319E-02-5.06965E-03
 -1      4382 6.74542E-02-4.25631E-02-4.67501E-03
 -1      4383 6.68993E-02-5.15133E-02-1.29593E-03
 -1      4384 1.98918E-01-1.12122E-01 5.16928E-02
 -1      4385 2.02346E-01-1.12397E-01 1.38723E-02
 -1      4386 1.47501E-01-1.11271E-01 2.81776E-02
 -1      4387 1.62071E-01-8.93901E-02 4.82228E-02
 -1      4388 1.70771E-01-9.25760E-02 1.01127E-02
 -1      4389 2.26077E-01-8.46191E-02 3.22647E-02
 -1      4390 1.98641E+00 1.05163E-02 6.07315E-04
 -1      4391 1.99099E+00-2.94780E-04 6.04309E-04
 -1      4392 1.97010E+00-7.56969E-03 2.40549E-03
 -1      4393 1.97885E+00-3.07965E-03 1.14264E-03
 -1      4394 1.97110E+00 5.67417E-04 1.85312E-03
 -1      4395 1.76886E-01 8.29784E-02 1.40411E-02
 -1      4396 6.88144E-02 4.10911E-02 1.51981E-02
 -1      4397 9.82050E-02 7.74611E-02 1.43866E-02
 -1      4398 1.93229E-01 9.33682E-02-6.26978E-03
 -1      4399 8.95991E-02 5.62395E-02 3.24557E-03
 -1      4400 1.80453E-01 5.64528E-02-4.91330E-03
 -1      4401 1.92087E-01 1.15664E-01-5.01189E-02
 -1      4402 2.07927E-01 1.13534E-01-1.11752E-02
 -1      4403 1.57271E-01 1.11341E-01-2.62940E-02
 -1      4404 1.72731E-01 9.24759E-02-4.85333E-02
 -1      4405 2.30204E-01 9.08265E-02-3.31013E-02
 -1      4406 7.81312E-01-2.78554E-02-6.52227E-02
 -1      4407 8.16913E-01-8.98478E-04-6.71038E-02
 -1      4408 5.21238E-01 7.44120E-02 5.67087E-02
 -1      4409 5.81446E-01 7.42738E-02 5.62592E-02
 -1      4410 5.23943E-01 5.31398E-02 6.83185E-02
 -1      4411 5.83714E-01 5.13206E-02 6.79887E-02
 -1      4412 5.18270E-01 6.08677E-02 2.76921E-02
 -1      4413 6.03464E-01-2.30259E-02-1.73442E-02
 -1      4414 5.61668E-01-1.65950E-02-6.53083E-02
 -1      4415 5.39396E-01-6.50288E-04-4.00768E-02
 -1      4416 1.95919E+00 1.64149E-02-4.40445E-04
 -1      4417 1.95930E+00 1.64948E-02-5.19582E-04
 -1      4418 1.95939E+00 1.63086E-02-5.92505E-04
 -1      4419 1.95910E+00 1.59795E-02-2.89304E-04
 -1      4420 1.95915E+00 1.58857E-02-3.74067E-04
 -1      4421 1.95950E+00 1.52907E-02 1.24626E-04
 -1      4422 4.62822E-01-6.86714E-02-2.22358E-02
 -1      4423 3.74195E-01-6.10588E-02-1.16355E-02
 -1      4424 3.98268E-01-8.20324E-02-1.06021E-02
 -1      4425 4.66570E-01-7.84597E-02 6.18855E-03
 -1      4426 3.79849E-01-7.00839E-02 1.66465E-02
 -1      4427 2.42516E-01 1.00289E-01 6.39955E-03
 -1      4428 2.85970E-01 7.60820E-02 2.01190E-02
 -1      4429 2.17478E-01 9.70333E-02 2.42073E-02
 -1      4430 2.28344E-01 7.07710E-02 5.46131E-03
 -1      4431 2.58706E-01 7.47189E-02-1.42419E-02
 -1      4432 6.67319E-01 5.65209E-02 4.80271E-02
 -1      4433 5.66857E-01-5.90633E-02 4.84377E-02
 -1      4434 4.94815E-01-6.58445E-02 6.52705E-02
 -1      4435 1.71841E-01 1.33601E-01 1.73681E-02
 -1      4436 1.67698E-01 1.31539E-01 2.94984E-02
 -1      4437 1.36131E-01 1.38007E-01 2.52213E-02
 -1      4438 1.15245E-01 1.29828E-01 7.55131E-03
 -1      4439 1.16376E-01 1.26978E-01 1.59972E-02
 -1      4440 1.25212E-01 1.17595E-01 3.54144E-03
 -1      4441 1.21840E+00-1.37939E-02 4.68835E-02
 -1      4442 1.10847E+00 3.99960E-03-1.57187E-04
 -1      4443 1.11451E+00 1.96190E-02 4.90526E-02
 -1      4444 1.25626E+00 3.40768E-02 4.85022E-02
 -1      4445 1.14335E+00 4.87989E-02 1.26076E-03
 -1      4446 1.25146E+00 1.68005E-02-1.31146E-03
 -1      4447 6.45571E-01 3.99502E-02-4.78039E-02
 -1      4448 6.67245E-01 5.65390E-02-4.77979E-02
 -1      4449 5.68663E-01 4.07217E-02-6.75925E-02
 -1      4450 5.89649E-01 5.61898E-02-6.77119E-02
 -1      4451 6.08023E-01 4.81194E-02-1.95110E-02
 -1      4452 1.64295E+00 5.15456E-02 5.68659E-02
 -1      4453 1.79635E+00 6.39354E-02 8.34847E-02
 -1      4454 1.59891E+00 1.06422E-01 5.33710E-02
 -1      4455 4.63761E-01 3.78105E-02-6.80454E-02
 -1      4456 4.72263E-01 5.01092E-02-3.03311E-02
 -1      4457 4.05213E-01 4.07679E-02-5.89730E-02
 -1      4458 4.30874E-01 1.21638E-02-7.11731E-02
 -1      4459 4.40030E-01 2.49377E-02-3.33841E-02
 -1      4460 4.99747E-01 2.21866E-02-4.24551E-02
 -1      4461 2.10835E-01 5.96904E-02 2.82803E-02
 -1      4462 1.96261E+00 8.03999E-03 2.31301E-03
 -1      4463 1.96251E+00 1.01334E-02 1.65499E-03
 -1      4464 1.96147E+00 1.05075E-02 1.60350E-03
 -1      4465 1.96192E+00 3.30093E-03 2.45836E-03
 -1      4466 1.96201E+00 6.84306E-03 1.20907E-03
 -1      4467 1.96248E+00 2.24912E-03 2.10058E-03
 -1      4468 1.96083E+00 1.49370E-02 1.16985E-03
 -1      4469 1.96095E+00 1.28427E-02 1.38434E-03
 -1      4470 1.96272E+00 3.61083E-03 2.89089E-03
 -1      4471 1.96088E+00-2.88181E-03 4.44495E-03
 -1      4472 1.96126E+00-4.03291E-03 2.80404E-03
 -1      4473 1.96105E+00-4.01855E-03 3.55222E-03
 -1      4474 1.96098E+00-3.05449E-03 1.60251E-03
 -1      4475 1.97207E+00 1.22238E-02 1.23355E-03
 -1      4476 1.98051E+00 1.24487E-02 5.48668E-04
 -1      4477 1.96892E+00 4.41188E-03 9.98959E-04
 -1      4478 3.58815E-01-7.76745E-02-2.77821E-02
 -1      4479 4.43536E-01-8.45796E-02-3.93615E-02
 -1      4480 4.21485E-01-6.15126E-02-3.99717E-02
 -1      4481 3.19799E-01-7.03629E-02 2.24053E-02
 -1      4482 3.79296E-01-5.19412E-02 1.11737E-02
 -1      4483 3.86819E-01-6.17809E-02 3.93240E-02
 -1      4484 5.11757E-01-4.87167E-03-5.07704E-03
 -1      4485 1.36586E-03 1.94776E-03 2.78940E-04
 -1      4486 2.26761E-03 2.77418E-03 1.87042E-04
 -1      4487 1.66025E-03 1.93050E-03 5.57781E-04
 -1      4488 8.72191E-04 8.29625E-04 2.45424E-04
 -1      4489 1.50495E-03 1.54174E-03 1.61727E-04
 -1      4490 1.11992E-03 1.55503E-03-5.22575E-06
 -1      4491 1.96048E+00 1.73124E-02 7.01886E-04
 -1      4492 1.96039E+00 1.80487E-02 6.48110E-04
 -1      4493 1.95982E+00 1.75595E-02 2.26109E-04
 -1      4494 1.95972E+00 1.68024E-02 1.75835E-04
 -1      4495 1.95964E+00 1.75591E-02 1.27889E-04
 -1      4496 1.96027E+00 1.73201E-02 5.97591E-04
 -1      4497 3.50181E-01 4.35890E-02-2.56008E-02
 -1      4498 3.41646E-01 3.16522E-02-6.39126E-02
 -1      4499 3.75275E-01 1.49630E-02-3.83921E-02
 -1      4500 1.96076E+00 1.86876E-02 9.08708E-04
 -1      4501 1.96006E+00 1.89464E-02 4.36735E-04
 -1      4502 1.96096E+00 1.92088E-02 1.04688E-03
 -1      4503 1.96060E+00 1.85795E-02 7.86971E-04
 -1      4504 1.96132E+00 1.83160E-02 1.25666E-03
 -1      4505 1.96080E+00 1.77434E-02 8.94814E-04
 -1      4506 1.96010E+00 1.80014E-02 4.26559E-04
 -1      4507 1.96100E+00 1.82630E-02 1.03431E-03
 -1      4508 1.83095E-01-7.06997E-02-2.17979E-03
 -1      4509 2.47681E-01-7.31481E-02 1.42362E-02
 -1      4510 2.51201E-01-8.00472E-02-1.64053E-02
 -1      4511 2.39698E-01-6.72395E-02-3.51536E-02
 -1      4512 3.04173E-01-6.68189E-02-1.89534E-02
 -1      4513 2.32928E-01-5.94629E-02-3.89405E-03
 -1      4514 1.10299E+00-1.33913E-02-4.90614E-02
 -1      4515 1.00194E+00 1.79311E-02-4.62937E-02
 -1      4516 9.93826E-01-2.00972E-02-3.78976E-02
 -1      4517 9.99308E-01-3.67534E-03 1.06839E-02
 -1      4518 1.09900E+00-3.61037E-02 8.13645E-03
 -1      4519 2.43070E-02 3.93251E-03 3.13467E-06
 -1      4520 2.59296E-02 3.23313E-03 6.19626E-04
 -1      4521 2.96109E-02 1.02323E-03 3.87174E-06
 -1      4522 3.18681E-02-1.15400E-04 7.72896E-04
 -1      4523 2.08443E-02 2.03616E-03-1.36072E-06
 -1      4524 2.59316E-02 3.23257E-03-6.14082E-04
 -1      4525 3.18695E-02-1.24240E-04-7.60498E-04
 -1      4526 1.03284E+00 4.76005E-02 4.86768E-02
 -1      4527 1.17015E+00 6.29992E-02 4.79874E-02
 -1      4528 1.94846E-03 2.30004E-03-1.42409E-06
 -1      4529 1.37958E-03 1.09738E-03-5.29324E-06
 -1      4530 3.05274E-02 2.29498E-03-2.29038E-03
 -1      4531 2.10736E-02 3.69460E-03-9.75599E-04
 -1      4532 2.62121E-02 1.00721E-03-1.20951E-03
 -1      4533 3.05196E-02 2.30621E-03 2.29900E-03
 -1      4534 2.10770E-02 3.69308E-03 9.78097E-04
 -1      4535 2.62030E-02 1.01656E-03 1.21617E-03
 -1      4536 2.26733E-03 2.77453E-03-1.90032E-04
 -1      4537 1.36435E-03 1.94775E-03-2.80450E-04
 -1      4538 1.66092E-03 1.93088E-03-5.55444E-04
 -1      4539 1.50354E-03 1.54230E-03-1.71615E-04
 -1      4540 8.66900E-04 8.30494E-04-2.52199E-04
 -1      4541 2.16063E-01-1.32964E-01 4.19030E-02
 -1      4542 1.70198E-01-1.41254E-01 3.51331E-02
 -1      4543 1.74784E-01-1.23937E-01 2.84621E-02
 -1      4544 1.62307E-01-1.32844E-01 1.18642E-02
 -1      4545 2.03958E-01-1.29078E-01 9.20979E-03
 -1      4546 1.14136E-01 1.35946E-01 1.72898E-02
 -1      4547 1.02384E-01 1.21160E-01 1.27514E-02
 -1      4548 3.39570E-02-1.50773E-03 5.85040E-06
 -1      4549 4.78876E-02-2.16291E-02-2.18527E-03
 -1      4550 4.51066E-02-2.56466E-02 5.32283E-05
 -1      4551 5.98024E-02-3.48230E-02-1.02166E-03
 -1      4552 9.00692E-01 6.71357E-03-6.70808E-02
 -1      4553 1.16987E+00 6.31308E-02-4.74939E-02
 -1      4554 1.03278E+00 4.77178E-02-4.61665E-02
 -1      4555 1.04072E+00 7.69989E-02 1.08768E-03
 -1      4556 1.06651E+00 9.06636E-02-4.70625E-02
 -1      4557 1.17538E+00 9.39903E-02 6.44098E-05
 -1      4558 4.15614E-02-7.84676E-03-5.86248E-04
 -1      4559 4.08882E-02-7.08080E-03 7.77434E-04
 -1      4560 3.78746E-02-4.50293E-03-1.48010E-06
 -1      4561 4.85411E-01-2.80478E-03 6.60540E-02
 -1      4562 5.00873E-01 6.43514E-03 1.76295E-02
 -1      4563 4.28137E-01 9.16800E-03 4.88394E-02
 -1      4564 4.66748E-01 1.96696E-02 6.83754E-02
 -1      4565 4.81675E-01 2.85553E-02 1.99325E-02
 -1      4566 4.93710E-02-1.71170E-02-7.35081E-04
 -1      4567 4.84300E-02-1.60056E-02 9.48500E-04
 -1      4568 3.15030E-02-6.56496E-03 2.48530E-05
 -1      4569 4.76766E-01 7.92364E-02 5.69460E-02
 -1      4570 4.80357E-01 5.95028E-02 6.85354E-02
 -1      4571 1.58493E-02-4.42253E-03-7.49908E-04
 -1      4572 1.88985E-02-4.80711E-03-9.20698E-04
 -1      4573 1.99131E-02-3.98808E-03-9.42297E-04
 -1      4574 1.88982E-02-4.80366E-03 9.22517E-04
 -1      4575 1.58610E-02-4.41873E-03 7.56841E-04
 -1      4576 1.99074E-02-3.98467E-03 9.43459E-04
 -1      4577 5.10050E-01 3.97528E-02-6.78678E-02
 -1      4578 4.77559E-01 1.35327E-02-7.08309E-02
 -1      4579 1.14059E+00-4.34158E-02-4.89852E-02
 -1      4580 1.03069E+00-4.84326E-02-3.78919E-02
 -1      4581 6.65177E-02-6.52816E-02 1.82652E-02
 -1      4582 7.86166E-02-6.69505E-02 2.99174E-02
 -1      4583 8.68390E-02-7.50447E-02 9.07583E-03
 -1      4584 7.52635E-02-7.44548E-02 4.10063E-03
 -1      4585 1.95929E+00 1.60546E-02-3.08651E-04
 -1      4586 1.95923E+00 1.58631E-02-1.19467E-04
 -1      4587 4.54325E-01 3.28211E-02 6.84207E-02
 -1      4588 5.00835E-01 3.49146E-02 6.82443E-02
 -1      4589 1.39797E-01 6.16440E-02 4.53878E-02
 -1      4590 1.56527E-01 9.76087E-02 4.00383E-02
 -1      4591 1.89868E-01 7.94525E-02 5.91584E-02
 -1      4592 2.17125E-03 2.66144E-03-6.04790E-04
 -1      4593 1.94457E-03 2.66602E-03-3.21883E-04
 -1      4594 2.17057E-03 2.66135E-03 6.06755E-04
 -1      4595 1.94375E-03 2.66587E-03 3.19197E-04
 -1      4596 7.30617E-01-1.00647E-01 1.34221E-02
 -1      4597 6.73132E-01-1.38882E-01 3.24666E-02
 -1      4598 8.04262E-01-1.33807E-01 1.64349E-02
 -1      4599 7.88063E-01-8.11775E-02 2.33746E-02
 -1      4600 7.30782E-01-1.20493E-01 4.22803E-02
 -1      4601 6.58087E-01-8.76425E-02 3.94332E-02
 -1      4602 5.39601E-01-7.31614E-02-1.03980E-02
 -1      4603 9.65552E-01-7.53424E-02-4.82759E-02
 -1      4604 9.29082E-01-1.01215E-01-4.81413E-02
 -1      4605 1.96816E+00 1.82666E-02 1.07561E-03
 -1      4606 1.96459E+00 1.64702E-02 1.19695E-03
 -1      4607 1.96250E+00 2.29323E-02 7.90544E-04
 -1      4608 1.96088E+00 1.99947E-02 5.62545E-04
 -1      4609 1.96445E+00 1.98255E-02-1.99072E-04
 -1      4610 1.96028E+00 1.74815E-02-5.80978E-04
 -1      4611 1.96229E+00 1.63627E-02 2.16769E-04
 -1      4612 1.96462E+00 1.74584E-02-7.93090E-04
 -1      4613 1.96061E+00 2.10726E-02-1.27921E-03
 -1      4614 1.96018E+00 1.83621E-02-3.03017E-04
 -1      4615 3.84468E-01-1.24496E-02 6.57446E-02
 -1      4616 3.98506E-01-3.23430E-03 1.68917E-02
 -1      4617 1.95990E+00 1.88175E-02 3.07181E-04
 -1      4618 1.96029E+00 1.84987E-02 5.55182E-04
 -1      4619 1.96079E+00 1.90661E-02 9.16957E-04
 -1      4620 7.81003E-02-5.30595E-02 1.96870E-02
 -1      4621 6.28349E-01-4.07738E-02-4.78555E-02
 -1      4622 6.38917E-01-1.43478E-02-6.49834E-02
 -1      4623 9.85708E-02-1.32558E-01 1.14328E-02
 -1      4624 1.00245E-01-1.25182E-01 4.97669E-03
 -1      4625 1.96189E+00 1.76690E-02 1.59554E-03
 -1      4626 1.96191E+00 1.72678E-02 1.57808E-03
 -1      4627 1.96191E+00 1.65193E-02 1.52253E-03
 -1      4628 1.96100E+00 1.70458E-02 1.06926E-03
 -1      4629 1.96188E+00 1.69237E-02 1.54562E-03
 -1      4630 4.40069E-01-1.30190E-02-1.17768E-02
 -1      4631 5.70234E-01 9.22192E-02 5.69268E-02
 -1      4632 3.62055E-03-4.22962E-03 6.99014E-04
 -1      4633 2.89849E-03-3.58577E-03 6.40400E-04
 -1      4634 3.27036E-03-3.83650E-03 2.11417E-04
 -1      4635 2.04992E-03-2.81378E-03 3.18115E-04
 -1      4636 2.72952E-03-3.45231E-03 3.52850E-04
 -1      4637 5.13760E-01-8.22176E-02-5.96060E-02
 -1      4638 5.66836E-01-5.90934E-02-4.82212E-02
 -1      4639 6.14256E-01-6.82548E-02-1.94456E-02
 -1      4640 5.87818E-01-7.83374E-02-6.77132E-02
 -1      4641 5.59698E-01-9.28141E-02-3.03394E-02
 -1      4642 1.70987E+00 6.67573E-03 6.18438E-02
 -1      4643 1.88686E+00 1.57531E-02 9.39160E-02
 -1      4644 1.75245E+00-5.84432E-02 5.37394E-02
 -1      4645 1.88192E+00-3.69991E-02 1.39111E-02
 -1      4646 1.70281E+00-5.63154E-02-9.22339E-03
 -1      4647 2.68288E-02-4.03308E-03-2.03763E-03
 -1      4648 2.50735E-02-5.04391E-03-1.95508E-03
 -1      4649 2.16755E-02-4.83562E-03-5.35221E-04
 -1      4650 2.50702E-02-5.04126E-03 1.95373E-03
 -1      4651 2.68246E-02-4.03104E-03 2.03433E-03
 -1      4652 2.16744E-02-4.83629E-03 5.37476E-04
 -1      4653 3.75446E-01 1.87558E-02 1.66204E-02
 -1      4654 3.61351E-01 9.74086E-03 6.57115E-02
 -1      4655 3.30744E-01-2.75460E-03 3.36904E-02
 -1      4656 4.54680E-01 7.05583E-03-2.30301E-02
 -1      4657 6.49906E-01 2.49144E-02-1.72340E-02
 -1      4658 6.09574E-01 1.78504E-02-6.51163E-02
 -1      4659 5.72727E-01 2.65340E-02-3.70199E-02
 -1      4660 7.72142E-02-7.45786E-02-7.27128E-03
 -1      4661 7.23467E-02-7.75756E-02-4.58652E-03
 -1      4662 7.09017E-02-7.67424E-02 2.47904E-03
 -1      4663 1.23202E-01-1.18285E-01-1.14622E-03
 -1      4664 6.40874E-02-4.45287E-02 5.82014E-04
 -1      4665 5.75089E-02-2.98208E-02 4.58967E-04
 -1      4666 1.95932E+00 2.40353E-02 6.13671E-04
 -1      4667 2.15464E-03 2.39114E-03 8.33148E-05
 -1      4668 2.67152E-03 2.50827E-03 6.54690E-05
 -1      4669 2.20299E-03 2.40713E-03-3.13922E-05
 -1      4670 1.95125E-01 1.06329E-01 4.30835E-02
 -1      4671 2.35214E-01 8.50637E-02 6.23900E-02
 -1      4672 1.96022E+00 1.91013E-02 5.37752E-04
 -1      4673 1.96057E+00 1.97298E-02 7.96319E-04
 -1      4674 1.96112E+00 1.93483E-02 1.14557E-03
 -1      4675 1.86136E+00 7.46492E-02 7.74877E-02
 -1      4676 1.66151E+00 1.32788E-01 4.97240E-02
 -1      4677 5.63210E-01-1.29091E-01-1.07337E-02
 -1      4678 4.89331E-01-1.19888E-01-1.09444E-02
 -1      4679 6.23932E-01-1.34915E-01 1.47214E-02
 -1      4680 5.49836E-01-1.27577E-01 1.50323E-02
 -1      4681 5.41270E-01-9.92520E-02 4.30538E-03
 -1      4682 1.06662E+00 9.05121E-02 4.71952E-02
 -1      4683 1.95953E+00 1.44827E-02 6.89042E-04
 -1      4684 1.96044E+00 1.38350E-02 5.38885E-04
 -1      4685 1.38760E+00 1.70168E-01 4.43382E-02
 -1      4686 1.34354E+00 1.00164E-01 4.85502E-02
 -1      4687 1.33650E+00 1.39625E-01 7.09076E-05
 -1      4688 1.46880E+00 1.64774E-01 6.73656E-04
 -1      4689 1.43462E+00 9.31658E-02 1.27064E-03
 -1      4690 1.48631E+00 1.28497E-01 4.96528E-02
 -1      4691 6.26981E-01-6.94040E-02 7.28537E-02
 -1      4692 6.86457E-01-6.95765E-02 7.24297E-02
 -1      4693 6.89665E-01-5.06150E-02 7.22997E-02
 -1      4694 3.64406E-01-4.80134E-02-3.10174E-02
 -1      4695 3.51579E-01-6.66633E-02-4.69832E-02
 -1      4696 1.80439E+00 8.47358E-02-7.77175E-02
 -1      4697 1.64528E+00 5.08490E-02-5.91191E-02
 -1      4698 1.59858E+00 1.07666E-01-5.01839E-02
 -1      4699 4.50766E-01-9.44193E-02 1.08786E-02
 -1      4700 3.67781E-01-8.54911E-02 2.09859E-02
 -1      4701 4.35769E-01-7.99803E-02 3.81612E-02
 -1      4702 6.26407E-02-3.19176E-02-4.38383E-03
 -1      4703 5.52477E-02-2.57181E-02-1.14045E-03
 -1      4704 3.51705E-01 8.28422E-02 2.13928E-02
 -1      4705 4.07235E-01 8.67031E-02 3.65891E-03
 -1      4706 3.71351E-01 8.11451E-02-1.79192E-02
 -1      4707 3.31944E-01 9.22964E-02-2.83093E-04
 -1      4708 3.84875E-01 9.45362E-02-1.77889E-02
 -1      4709 3.64460E-01 9.51745E-02 2.08488E-02
 -1      4710 7.25838E-01 6.70876E-02-4.75465E-02
 -1      4711 6.45298E-01 8.05485E-02-6.30292E-02
 -1      4712 7.03561E-01 9.22539E-02-6.27190E-02
 -1      4713 6.64524E-01 7.22739E-02-1.49261E-02
 -1      4714 6.98924E-01 3.77939E-02 4.78641E-02
 -1      4715 6.34695E-01 1.00250E-02 6.53023E-02
 -1      4716 1.09241E+00-1.23892E-01 5.58048E-02
 -1      4717 1.13242E+00-9.77545E-02 5.62134E-02
 -1      4718 1.22078E+00-1.04324E-01 4.10676E-02
 -1      4719 1.13443E+00-1.19533E-01 3.07456E-03
 -1      4720 1.17873E+00-1.30794E-01 4.06760E-02
 -1      4721 1.95916E+00 1.61933E-02-5.16935E-04
 -1      4722 1.95916E+00 1.59095E-02-3.54295E-04
 -1      4723 1.06005E+00-8.48394E-02-3.80324E-02
 -1      4724 1.02219E+00-1.11226E-01-3.78668E-02
 -1      4725 9.54666E-01-1.02904E-01 8.01417E-03
 -1      4726 5.70766E-01-8.57953E-02 6.33187E-02
 -1      4727 5.97169E-01-7.60020E-02 1.47452E-02
 -1      4728 5.22886E-01-8.10799E-02 3.16551E-02
 -1      4729 3.77090E-01 7.86097E-02-4.55633E-02
 -1      4730 3.64304E-01 6.44303E-02-7.50491E-02
 -1      4731 4.18221E-01 7.16345E-02-6.64377E-02
 -1      4732 4.22819E-01 6.99216E-02-2.86310E-02
 -1      4733 4.08663E-01 5.39986E-02-5.89111E-02
 -1      4734 3.67714E-01 6.19951E-02-3.80656E-02
 -1      4735 7.32917E-02-5.50028E-02 5.21654E-03
 -1      4736 6.99210E-02-4.59792E-02 4.19604E-03
 -1      4737 6.07371E-02-4.47891E-02 3.20615E-03
 -1      4738 6.77585E-02-5.39868E-02 1.37430E-03
 -1      4739 1.96076E+00 1.84860E-02 8.73478E-04
 -1      4740 1.96127E+00 1.90502E-02 1.23392E-03
 -1      4741 2.43622E-01 7.24425E-02 6.47565E-02
 -1      4742 1.99116E+00 2.09396E-02-7.82841E-06
 -1      4743 1.97430E+00 1.91970E-02 1.01003E-03
 -1      4744 5.85584E-01-1.40068E-03 2.04321E-04
 -1      4745 1.26949E+00 1.08327E-01 4.74401E-02
 -1      4746 1.24805E+00 7.67634E-02 4.81574E-02
 -1      4747 1.16400E+00 1.33246E-01 4.67897E-02
 -1      4748 1.14176E+00 1.03962E-01 4.72748E-02
 -1      4749 1.94858E-01 5.74454E-02 5.35445E-02
 -1      4750 1.96586E+00 2.91608E-02 1.43729E-03
 -1      4751 1.96992E+00 2.37007E-02-1.90854E-04
 -1      4752 1.96147E+00 2.75879E-02-9.26051E-04
 -1      4753 6.87083E-02-7.15032E-02 1.61374E-02
 -1      4754 1.29439E-01-1.16652E-01 2.09133E-02
 -1      4755 1.06707E-01-1.15768E-01 1.51492E-02
 -1      4756 4.80531E-03 3.15203E-03 6.64704E-05
 -1      4757 3.68092E-03 2.90067E-03-3.95261E-05
 -1      4758 5.93328E-03 4.59894E-03-9.05029E-06
 -1      4759 6.98451E-02 3.06095E-02 7.93436E-05
 -1      4760 9.25356E-02 4.46581E-02-1.44132E-02
 -1      4761 5.14879E-01 1.98778E-02 6.80819E-02
 -1      4762 1.96021E+00 1.45537E-02 4.83971E-04
 -1      4763 1.95951E+00 1.54196E-02-8.90213E-05
 -1      4764 1.95954E+00 1.58127E-02 2.15186E-04
 -1      4765 3.56065E-03-4.04306E-03 1.48111E-06
 -1      4766 4.09174E-03-4.44363E-03 1.78919E-04
 -1      4767 4.26181E-03-4.54485E-03-1.32300E-04
 -1      4768 1.95607E+00 3.25187E-02 6.90345E-04
 -1      4769 1.95936E+00 3.08600E-02 1.59942E-03
 -1      4770 1.95666E+00 2.66065E-02 2.19731E-03
 -1      4771 1.95860E+00 2.46322E-02-1.57589E-04
 -1      4772 3.01843E-01 1.30050E-02-3.57369E-02
 -1      4773 3.59094E-01 1.00854E-02-6.90345E-02
 -1      4774 3.93923E-01-6.43122E-03-4.33204E-02
 -1      4775 1.96029E+00 1.64897E-02 7.12034E-04
 -1      4776 1.95932E+00 1.63945E-02 3.63915E-04
 -1      4777 1.95946E+00 1.90681E-02 2.09930E-04
 -1      4778 1.96256E+00 1.54454E-02 1.77117E-03
 -1      4779 1.96235E+00 1.65026E-02 1.82603E-03
 -1      4780 1.96196E+00 1.63095E-02 1.56411E-03
 -1      4781 1.96109E+00 1.64410E-02 1.14106E-03
 -1      4782 1.96209E+00 1.54337E-02 1.55168E-03
 -1      4783 6.13123E-02-5.07895E-02-3.51208E-03
 -1      4784 7.11040E-02-6.55810E-02-1.85326E-03
 -1      4785 7.68807E-02-7.45659E-02-6.10849E-03
 -1      4786 6.75595E-02-6.76479E-02-4.57036E-03
 -1      4787 7.59406E-02-8.33705E-02-2.14866E-03
 -1      4788 5.98743E-02-5.62922E-02 1.20924E-04
 -1      4789 1.91657E-01-6.42357E-03 4.72255E-02
 -1      4790 9.36535E-02-6.18953E-03 1.11333E-02
 -1      4791 8.03980E-02-1.93248E-04 4.35226E-02
 -1      4792 1.66930E-01 2.26977E-02 5.33883E-02
 -1      4793 6.96928E-02 1.65012E-02 1.44091E-02
 -1      4794 1.80385E-01 1.65672E-02 8.53220E-03
 -1      4795 3.52867E-04 8.37132E-04 1.04896E-04
 -1      4796 7.84027E-04 1.39746E-03 1.95079E-05
 -1      4797 1.36865E-03 2.12508E-03 2.33140E-04
 -1      4798 7.28869E-04 1.07702E-03 1.99972E-04
 -1      4799 3.46156E-04 6.17007E-04 2.58450E-05
 -1      4800 1.08731E+00 1.25378E-01 4.70032E-02
 -1      4801 8.99671E-02-4.41669E-02-2.06667E-02
 -1      4802 1.94888E-01-4.70414E-02-1.70681E-02
 -1      4803 9.14996E-02-1.88869E-02-1.01087E-02
 -1      4804 7.88852E-02-3.67620E-02-4.97332E-05
 -1      4805 1.90717E-01-3.90403E-02 1.38911E-02
 -1      4806 8.56466E-02 8.03093E-02 1.05838E-02
 -1      4807 9.51881E-02 7.90806E-02-1.58587E-03
 -1      4808 7.08242E-02 7.26317E-02-2.66984E-03
 -1      4809 6.61095E-02 6.95606E-02 4.43324E-03
 -1      4810 4.49181E-01-7.16116E-02 6.54342E-02
 -1      4811 4.83897E-01-8.15461E-02 6.58158E-02
 -1      4812 4.36103E-01-8.77478E-02 7.05579E-02
 -1      4813 4.68654E-01-9.86827E-02 7.13656E-02
 -1      4814 1.95903E+00 1.63316E-02-4.23224E-04
 -1      4815 1.95903E+00 1.64367E-02-3.91708E-04
 -1      4816 1.95955E+00 1.60976E-02 1.46642E-04
 -1      4817 1.95917E+00 1.57473E-02-3.40610E-04
 -1      4818 9.60770E-01-1.46117E-01-7.29603E-02
 -1      4819 8.94260E-01-1.37289E-01-2.74355E-02
 -1      4820 9.86341E-01-1.47611E-01-1.72598E-02
 -1      4821 1.96212E+00 1.64168E-02 1.61411E-03
 -1      4822 1.96126E+00 1.69293E-02 1.19227E-03
 -1      4823 1.96113E+00 1.61675E-02 1.15163E-03
 -1      4824 5.32380E-02-1.37605E-02 3.34348E-02
 -1      4825 1.62449E-01-2.71287E-02 4.50120E-02
 -1      4826 1.53208E-01-5.09825E-02 5.56736E-02
 -1      4827 7.60185E-02-2.51758E-02 1.83151E-02
 -1      4828 1.96500E+00-3.05003E-03 2.75134E-03
 -1      4829 1.95937E+00 1.61012E-02-4.22413E-04
 -1      4830 1.95919E+00 1.56400E-02-3.69871E-04
 -1      4831 2.48143E-03-3.06908E-03 1.79605E-04
 -1      4832 2.95290E-03-3.53285E-03 1.68347E-06
 -1      4833 1.90999E+00-2.70592E-02 9.03421E-02
 -1      4834 1.84044E+00-6.83349E-02 8.36330E-03
 -1      4835 1.49598E-01-1.32789E-01-1.08666E-03
 -1      4836 1.13556E-01-1.29525E-01-3.68887E-04
 -1      4837 6.98863E-01 3.78509E-02-4.75934E-02
 -1      4838 1.64001E-01-2.76095E-02-4.53871E-02
 -1      4839 5.40081E-02-2.29606E-02-3.15725E-02
 -1      4840 1.59795E-01-5.90381E-02-5.74947E-02
 -1      4841 2.35142E-01-5.12845E-02 6.14715E-02
 -1      4842 2.63872E-01-4.54768E-02 3.16202E-02
 -1      4843 3.22979E-01-3.04964E-02 6.57102E-02
 -1      4844 3.09956E-01-4.98529E-02 7.04223E-02
 -1      4845 3.40033E-01-4.38442E-02 3.95565E-02
 -1      4846 2.52874E-01-6.39074E-02 3.61599E-02
 -1      4847 4.07836E-01 9.16469E-02 7.11251E-02
 -1      4848 3.74692E-01 9.94598E-02 7.04576E-02
 -1      4849 3.74495E-01 9.27652E-02 6.97134E-02
 -1      4850 1.96647E+00 1.29226E-02-3.86618E-04
 -1      4851 1.96144E+00 1.57301E-02-4.42251E-04
 -1      4852 6.93074E-04-1.28074E-03 3.35454E-05
 -1      4853 9.64542E-04-1.61061E-03-4.68700E-05
 -1      4854 5.66068E-04-1.08082E-03-4.12735E-05
 -1      4855 1.47519E-03-2.10903E-03 1.71784E-05
 -1      4856 4.57114E-04-7.83977E-04 4.03779E-05
 -1      4857 3.27388E-01-1.12483E-01-7.41516E-02
 -1      4858 3.34025E-01-1.06947E-01-7.37328E-02
 -1      4859 3.65459E-01-1.03534E-01-7.75695E-02
 -1      4860 2.04971E-03-2.81594E-03-3.13643E-04
 -1      4861 2.47836E-03-3.06783E-03-1.79004E-04
 -1      4862 2.24850E-03-2.79084E-03-5.99863E-04
 -1      4863 1.43291E-03-1.91724E-03-2.78087E-04
 -1      4864 1.82317E-03-2.10991E-03-1.47306E-04
 -1      4865 1.57101E-01-1.33851E-01 3.06906E-02
 -1      4866 1.88599E-02 5.62424E-03-5.00804E-04
 -1      4867 1.67285E-02 5.09322E-03-8.57922E-04
 -1      4868 1.82348E-02 6.56704E-03-1.51686E-03
 -1      4869 1.44434E-02 6.36796E-03-3.99480E-04
 -1      4870 1.24482E-02 5.69204E-03-6.65460E-04
 -1      4871 1.22614E-02 4.87072E-03-2.05496E-05
 -1      4872 4.66562E-01 5.15980E-02-6.80841E-02
 -1      4873 5.33823E-01-2.81880E-03 6.57347E-02
 -1      4874 1.22496E+00-1.66978E-01 7.17340E-02
 -1      4875 1.12734E+00-1.62018E-01 6.15744E-02
 -1      4876 1.16873E+00-1.57745E-01 9.42924E-03
 -1      4877 1.26680E+00-1.61835E-01 2.02251E-02
 -1      4878 1.96190E+00 1.76084E-02 1.60831E-03
 -1      4879 1.96190E+00 1.68463E-02 1.56595E-03
 -1      4880 2.76594E-04 6.90576E-04-1.21970E-04
 -1      4881 1.37240E-03 2.11744E-03-2.39061E-04
 -1      4882 6.34981E-04 1.17299E-03-4.47630E-05
 -1      4883 3.03649E-04 4.38357E-04-3.66900E-05
 -1      4884 7.21004E-04 1.07814E-03-1.99802E-04
 -1      4885 4.82164E-02-1.15745E-02-3.10418E-03
 -1      4886 3.30689E-02-3.59758E-03-1.43666E-03
 -1      4887 3.95785E-02-1.06405E-02-1.79906E-03
 -1      4888 4.12269E-03-4.62795E-03 7.06133E-04
 -1      4889 3.10124E-03-3.75068E-03 3.49417E-04
 -1      4890 6.63303E-01-4.53027E-02-1.79448E-02
 -1      4891 6.74228E-01-1.82337E-02-3.51711E-02
 -1      4892 6.99432E-01-3.67949E-02-6.54671E-02
 -1      4893 7.59209E-02-8.34285E-02 2.19767E-03
 -1      4894 7.78276E-02-9.12742E-02 7.74991E-06
 -1      4895 8.01980E-02-9.87202E-02 2.89628E-03
 -1      4896 2.50091E-01-2.47937E-02 4.89836E-02
 -1      4897 2.82829E-01-1.93667E-02 1.70848E-02
 -1      4898 4.28393E-01 3.56059E-02-1.06086E-02
 -1      4899 3.63683E-01 2.61048E-02-1.53938E-02
 -1      4900 1.98632E+00 1.18081E-02 5.03872E-04
 -1      4901 1.99099E+00 2.24308E-02 6.89207E-04
 -1      4902 1.97207E+00 1.32828E-02-1.73412E-04
 -1      4903 1.97453E+00 2.01965E-02-4.95825E-04
 -1      4904 1.98028E+00 1.29931E-02 4.74286E-04
 -1      4905 2.50885E-01-3.40680E-02-1.93953E-02
 -1      4906 1.44858E+00-1.52784E-01 1.65650E-02
 -1      4907 1.48659E+00-1.32290E-01 4.70445E-02
 -1      4908 1.48499E+00-1.80448E-01 5.55896E-02
 -1      4909 1.55806E+00-1.54000E-01 1.06165E-02
 -1      4910 1.60413E+00-1.34527E-01 4.05763E-02
 -1      4911 1.57125E+00-1.06629E-01-6.65968E-03
 -1      4912 1.96646E+00 1.20029E-02 1.34624E-03
 -1      4913 1.96145E+00 1.47928E-02 1.10499E-03
 -1      4914 5.86533E-01 7.08031E-02-3.48698E-02
 -1      4915 4.80910E-01 6.88811E-02-3.80882E-02
 -1      4916 5.29818E-01 5.77894E-02-6.79423E-02
 -1      4917 4.78830E-01 7.72610E-02-6.68890E-02
 -1      4918 5.32683E-01 9.07621E-02-3.37353E-02
 -1      4919 5.83747E-01 8.05222E-02-6.36524E-02
 -1      4920 1.73821E-01-9.89750E-02-1.50350E-02
 -1      4921 8.63668E-02-5.95250E-02-1.65577E-02
 -1      4922 8.69265E-02-7.50251E-02-6.51704E-03
 -1      4923 7.71143E-02-5.26554E-02 4.03472E-04
 -1      4924 6.67602E-01 1.04871E-01 6.54159E-02
 -1      4925 6.10414E-01 9.36438E-02 2.49777E-02
 -1      4926 6.78488E-01 8.46962E-02 6.51610E-02
 -1      4927 7.22473E-01 1.93295E-02 1.24933E-02
 -1      4928 7.34797E-01 8.73021E-03 6.00252E-02
 -1      4929 6.57011E-01-8.01985E-03 2.98821E-02
 -1      4930 1.24120E+00 1.73532E-01 6.11062E-02
 -1      4931 1.30881E+00 1.67162E-01 6.07129E-02
 -1      4932 1.25495E+00 1.35191E-01 1.57966E-02
 -1      4933 2.06070E-02 5.16810E-03 1.84183E-06
 -1      4934 1.57220E-02 6.13465E-03-1.08967E-05
 -1      4935 5.77384E-02-4.77704E-02 2.85784E-02
 -1      4936 1.50943E-01-7.17380E-02 5.10821E-02
 -1      4937 8.62968E-02 6.03657E-02-1.45975E-02
 -1      4938 1.12833E+00-7.37042E-02 7.75017E-03
 -1      4939 1.21620E+00-5.56806E-02 4.64987E-02
 -1      4940 1.21821E+00-7.97146E-02-7.40166E-03
 -1      4941 2.59589E-03 3.14353E-03-1.47640E-06
 -1      4942 2.47225E-02 5.12042E-03-1.92201E-03
 -1      4943 2.15046E-02 5.80344E-03-1.70333E-03
 -1      4944 2.24687E-02 4.65237E-03-5.87933E-04
 -1      4945 1.99311E-02 4.58070E-03-9.77092E-04
 -1      4946 2.47250E-02 5.12009E-03 1.92113E-03
 -1      4947 2.15100E-02 5.80070E-03 1.69784E-03
 -1      4948 1.99383E-02 4.57852E-03 9.76246E-04
 -1      4949 1.67382E-02 5.09644E-03 8.53784E-04
 -1      4950 2.24701E-02 4.65073E-03 5.91160E-04
 -1      4951 1.96829E+00 1.92048E-02-6.97785E-04
 -1      4952 3.08555E-02 1.76088E-02-7.66894E-04
 -1      4953 3.08314E-02 1.73570E-02 4.42126E-04
 -1      4954 3.41350E-02 2.53590E-02 6.92573E-05
 -1      4955 5.56685E-02 4.47080E-02-4.99783E-06
 -1      4956 3.40347E-02 2.55668E-02-1.13446E-03
 -1      4957 1.98951E+00-8.93028E-03 1.09649E-03
 -1      4958 1.97608E+00-9.50709E-03 1.53053E-03
 -1      4959 1.56109E+00 1.42758E-01 4.86715E-02
 -1      4960 1.33126E+00 6.62583E-02 4.93236E-02
 -1      4961 1.48368E+00 9.55911E-02 5.18946E-02
 -1      4962 1.95935E+00 1.67178E-02-4.53512E-05
 -1      4963 1.95902E+00 1.63926E-02-4.32200E-04
 -1      4964 1.95929E+00 1.61328E-02-3.24330E-05
 -1      4965 1.95817E+00 1.99414E-02-8.41146E-04
 -1      4966 1.95825E+00 2.01262E-02-7.78747E-04
 -1      4967 1.95856E+00 1.97974E-02-5.77913E-04
 -1      4968 3.46486E-01 4.56883E-02-6.34599E-02
 -1      4969 3.05466E-01 5.43485E-02-4.25011E-02
 -1      4970 4.58849E-01 4.68666E-02 6.84034E-02
 -1      4971 9.17915E-03 2.82718E-03 6.01410E-05
 -1      4972 1.07742E-02 2.07504E-03-1.17530E-04
 -1      4973 9.37857E-03 2.80706E-03-2.24885E-04
 -1      4974 2.20639E-03-2.98625E-03 2.89915E-04
 -1      4975 2.72318E-03-3.44976E-03-3.55492E-04
 -1      4976 2.20843E-03-2.99103E-03-2.91375E-04
 -1      4977 1.28544E+00-1.31434E-01 4.06180E-02
 -1      4978 2.31874E-01-1.21735E-01 5.24130E-02
 -1      4979 1.95921E+00 1.70438E-02-7.67277E-04
 -1      4980 1.95935E+00 1.73396E-02-6.42342E-04
 -1      4981 2.25093E-03-2.79473E-03 6.02934E-04
 -1      4982 1.81883E-03-2.11304E-03 1.95851E-04
 -1      4983 1.42218E-03-1.92214E-03 3.17163E-04
 -1      4984 1.29417E-03 7.25159E-04-1.77641E-04
 -1      4985 5.36461E-02 3.01333E-02-2.68097E-03
 -1      4986 5.96113E-02 3.23438E-02-1.50393E-03
 -1      4987 6.18027E-02 3.00119E-02-4.65824E-03
 -1      4988 4.57150E-02 1.74938E-02-2.05778E-03
 -1      4989 5.20870E-02 1.96386E-02-1.20896E-03
 -1      4990 4.24078E-02 1.79489E-02-1.93508E-05
 -1      4991 5.96231E-02 3.23363E-02 1.49076E-03
 -1      4992 5.36812E-02 3.01108E-02 2.65014E-03
 -1      4993 6.18375E-02 3.00134E-02 4.65128E-03
 -1      4994 5.20861E-02 1.96268E-02 1.18471E-03
 -1      4995 4.57022E-02 1.74535E-02 2.03346E-03
 -1      4996 6.49573E-02 4.36196E-02-1.66251E-03
 -1      4997 6.67363E-02 4.85376E-02 5.14489E-06
 -1      4998 6.89779E-02 5.56086E-02-1.70458E-03
 -1      4999 4.04602E-01-1.09418E-01-6.73238E-02
 -1      5000 3.32506E-01-1.11192E-01-4.48679E-02
 -1      5001 3.99485E-01-1.00584E-01-4.49540E-02
 -1      5002 3.59308E-01-9.59499E-02-5.65118E-02
 -1      5003 4.14773E-01-8.66882E-02-7.69683E-02
 -1      5004 5.14266E-03-5.23364E-03 7.26793E-04
 -1      5005 5.60054E-03-5.20813E-03 2.04552E-04
 -1      5006 3.17179E-03-3.58137E-03 1.51408E-06
 -1      5007 4.38918E-03-4.46987E-03 3.93081E-04
 -1      5008 1.95888E+00 1.93593E-02-3.75396E-04
 -1      5009 1.95909E+00 1.94685E-02-2.30244E-04
 -1      5010 1.95964E+00 1.98436E-02 1.58415E-04
 -1      5011 1.95957E+00 1.90224E-02 9.68001E-05
 -1      5012 1.95979E+00 1.91352E-02 2.42346E-04
 -1      5013 1.95903E+00 1.86431E-02-2.92429E-04
 -1      5014 5.09482E-01 9.14381E-02 5.73904E-02
 -1      5015 4.45662E-01 9.25839E-02 7.16153E-02
 -1      5016 4.15469E-01 8.31680E-02 7.06463E-02
 -1      5017 4.50256E-01 8.41590E-02 2.98460E-02
 -1      5018 7.07521E-02 6.50918E-02 1.91010E-05
 -1      5019 7.35594E-02 7.45270E-02-2.04584E-03
 -1      5020 1.96046E+00 1.60971E-02 8.00905E-04
 -1      5021 1.96064E+00 1.68717E-02 8.28448E-04
 -1      5022 1.95984E+00 1.63446E-02 3.18489E-04
 -1      5023 1.96010E+00 1.65262E-02 5.46251E-04
 -1      5024 8.03195E-02-9.83075E-02-2.70022E-03
 -1      5025 6.31899E-03 1.73608E-03-3.89417E-04
 -1      5026 7.44199E-03 1.19427E-03-3.53333E-04
 -1      5027 1.53904E-02 3.29792E-03-7.08026E-04
 -1      5028 1.63500E-02-1.18822E-03 9.25697E-05
 -1      5029 1.67734E-02-1.83150E-03-2.37249E-04
 -1      5030 2.17839E-02-6.66138E-03-3.59196E-04
 -1      5031 2.04016E-02-5.48880E-03 1.88329E-04
 -1      5032 2.81262E-03 3.48342E-03-6.35290E-04
 -1      5033 3.51412E-03 4.12558E-03-6.88922E-04
 -1      5034 2.99334E-03 3.57099E-03-2.08431E-04
 -1      5035 3.51272E-03 4.12568E-03 6.91133E-04
 -1      5036 2.81115E-03 3.48363E-03 6.37204E-04
 -1      5037 2.99330E-03 3.57056E-03 2.05265E-04
 -1      5038 3.65178E-02-3.29508E-03 8.90045E-04
 -1      5039 3.27584E-03-3.83680E-03-2.06898E-04
 -1      5040 1.96208E+00 1.76979E-02 1.74015E-03
 -1      5041 1.96121E+00 1.78733E-02 1.20637E-03
 -1      5042 1.96109E+00 1.71082E-02 1.15581E-03
 -1      5043 6.53365E-01-5.86885E-02 2.47550E-02
 -1      5044 4.06533E-01-7.21172E-02 6.50482E-02
 -1      5045 3.94241E-01-8.79992E-02 6.93824E-02
 -1      5046 6.89971E-02 5.56552E-02 1.75138E-03
 -1      5047 7.35574E-02 7.45818E-02 2.15598E-03
 -1      5048 1.08361E+00-1.50921E-01 2.43837E-02
 -1      5049 2.76464E-01-9.86833E-02 6.21835E-02
 -1      5050 2.48835E-01-8.83257E-02 6.22031E-02
 -1      5051 3.07991E-01-7.75962E-02 6.78959E-02
 -1      5052 2.76256E-01-6.68021E-02 6.80958E-02
 -1      5053 2.95505E-01-8.25159E-02 4.16866E-02
 -1      5054 6.49821E-02 4.36408E-02 1.66194E-03
 -1      5055 7.46553E-01-2.60853E-02-5.45962E-03
 -1      5056 8.10469E-01-5.07363E-02 1.12721E-02
 -1      5057 7.81846E-01 3.11593E-04-7.35377E-03
 -1      5058 1.95893E+00 1.80975E-02-3.90716E-04
 -1      5059 1.95979E+00 1.85790E-02 2.14307E-04
 -1      5060 1.95922E+00 1.88333E-02-1.67490E-04
 -1      5061 1.95905E+00 1.83276E-02-2.97430E-04
 -1      5062 1.95961E+00 1.80767E-02 8.39795E-05
 -1      5063 5.13491E-01-1.23077E-01-3.36485E-02
 -1      5064 2.21776E-01 4.19452E-02 5.65515E-02
 -1      5065 2.70906E-01 5.67233E-02 6.74739E-02
 -1      5066 7.42499E-03 2.99689E-03-1.37013E-04
 -1      5067 6.41228E-01-1.26721E-01-1.95483E-02
 -1      5068 6.17850E-01-9.67514E-02-4.87137E-03
 -1      5069 1.72080E-01 1.27587E-01-5.84614E-03
 -1      5070 1.40400E-01 1.28795E-01 3.43040E-03
 -1      5071 1.18371E-01 1.24810E-01-5.58808E-03
 -1      5072 4.87821E-01 3.30453E-02-1.99482E-02
 -1      5073 2.64375E-02 4.15357E-03 1.99860E-03
 -1      5074 2.64375E-02 4.15142E-03-1.99563E-03
 -1      5075 2.18035E-02-5.74716E-03-1.71330E-03
 -1      5076 1.58486E-02-5.22726E-03-8.15873E-04
 -1      5077 2.18018E-02-5.74318E-03 1.71270E-03
 -1      5078 1.58528E-02-5.22214E-03 8.18698E-04
 -1      5079 5.18807E-02-5.33621E-02 1.32242E-03
 -1      5080 5.20628E-02-5.42624E-02-2.40497E-03
 -1      5081 8.15162E-02-9.62021E-02 9.17476E-05
 -1      5082 5.18789E-02 3.28122E-02 2.49510E-03
 -1      5083 5.96324E-02 4.46735E-02 3.04670E-03
 -1      5084 5.95119E-02 3.94064E-02 3.05385E-03
 -1      5085 5.18719E-02 3.28135E-02-2.53970E-03
 -1      5086 5.94591E-02 3.93625E-02-3.05499E-03
 -1      5087 5.95497E-02 4.45692E-02-3.02548E-03
 -1      5088 3.62434E-03-4.23080E-03-6.93043E-04
 -1      5089 4.12333E-03-4.62753E-03-7.03343E-04
 -1      5090 3.10047E-03-3.74855E-03-3.48948E-04
 -1      5091 6.62246E-01 1.49266E-02-6.49111E-02
 -1      5092 7.63969E-02 7.12646E-02-6.05059E-03
 -1      5093 6.55692E-02 6.20397E-02-4.20985E-03
 -1      5094 1.95629E+00 3.22355E-02-7.64487E-04
 -1      5095 1.95828E+00 2.48963E-02-1.02722E-03
 -1      5096 1.64508E+00-4.00823E-02 5.65325E-02
 -1      5097 1.66112E+00-9.78534E-02 4.68165E-02
 -1      5098 2.40393E-02-1.44765E-03-1.05624E-03
 -1      5099 1.18981E-02-1.37736E-03-5.33330E-04
 -1      5100 2.87589E-02-6.53082E-03-1.10276E-03
 -1      5101 7.64711E-02 7.13046E-02 6.19153E-03
 -1      5102 6.55478E-02 6.21939E-02 4.31748E-03
 -1      5103 4.20177E-01 9.89448E-02 7.24735E-02
 -1      5104 4.01760E-03 3.83619E-03-2.82839E-04
 -1      5105 1.88762E-03 1.92149E-03-1.63659E-04
 -1      5106 6.38676E-03 4.45600E-03-3.90334E-04
 -1      5107 1.32724E+00-1.68813E-01 7.04055E-02
 -1      5108 1.66284E-02 1.49527E-03 1.60139E-04
 -1      5109 1.78251E-02 2.10721E-03-2.03794E-04
 -1      5110 1.34742E-02-9.58754E-04 1.60629E-04
 -1      5111 1.41344E-02-5.63110E-04-2.78998E-04
 -1      5112 2.90914E-02 3.10791E-03-1.94140E-05
 -1      5113 1.68675E-02 4.23892E-03 8.04380E-04
 -1      5114 1.68539E-02 4.24175E-03-8.09581E-04
 -1      5115 6.17967E-02 3.67207E-02-8.03574E-06
 -1      5116 5.38426E-02 2.26646E-02-1.28510E-05
 -1      5117 1.15390E+00 1.58710E-01 1.56638E-02
 -1      5118 3.20628E-01-9.31033E-02-1.59991E-03
 -1      5119 3.68502E-01-9.82044E-02 1.92405E-02
 -1      5120 4.00169E-01-9.61986E-02-1.24799E-02
 -1      5121 5.84920E-02 4.67398E-02 2.84913E-02
 -1      5122 5.27875E-01 1.07808E-02-1.76021E-02
 -1      5123 5.25227E-01 4.38653E-02 1.09571E-04
 -1      5124 5.66286E-01 2.17596E-02 2.39779E-03
 -1      5125 6.97886E-01 7.62605E-02 1.72890E-02
 -1      5126 7.41873E-01 6.53936E-02 6.50662E-02
 -1      5127 7.73140E-01 8.61396E-02 3.42887E-02
 -1      5128 7.61131E-01 5.63017E-02 1.73998E-02
 -1      5129 3.74246E-01 6.64181E-02 6.63028E-02
 -1      5130 3.49053E-01 5.88778E-02 6.61429E-02
 -1      5131 2.89653E-01 7.12660E-02 6.67186E-02
 -1      5132 3.18121E-01 6.15536E-02 3.87933E-02
 -1      5133 3.14467E-01 7.83385E-02 6.69273E-02
 -1      5134 1.43695E-02 3.49994E-04-1.59541E-04
 -1      5135 1.93846E-02 1.22691E-03-7.76007E-04
 -1      5136 5.50194E-01 1.75218E-02-6.53743E-02
 -1      5137 3.86790E-01 7.01460E-02 3.99321E-02
 -1      5138 3.78420E-01 8.47899E-02 6.94622E-02
 -1      5139 3.25526E-01 8.10385E-02 4.14383E-02
 -1      5140 4.08970E-02 3.43250E-02-1.62638E-03
 -1      5141 3.33796E-02-5.73310E-03 1.43180E-03
 -1      5142 2.40052E-02-1.40662E-03 1.00867E-03
 -1      5143 4.08870E-02-1.42504E-02 1.82291E-03
 -1      5144 2.87515E-02-6.55985E-03 1.08132E-03
 -1      5145 1.96016E+00 1.85097E-02 5.13241E-04
 -1      5146 1.96086E+00 1.82722E-02 9.82038E-04
 -1      5147 1.36055E-03 1.08805E-03-5.35800E-04
 -1      5148 3.46828E-01 6.46972E-02 1.81758E-02
 -1      5149 4.01804E-01 7.10352E-02 1.13798E-02
 -1      5150 3.63126E-01 6.54608E-02-1.03994E-02
 -1      5151 3.96208E-01 5.10126E-02 7.91064E-03
 -1      5152 2.94385E-01 2.87606E-02 6.51691E-02
 -1      5153 2.81792E-01 4.74525E-02 3.73244E-02
 -1      5154 2.32506E-01 3.31495E-02 2.55414E-02
 -1      5155 9.47121E-01 6.33265E-02 6.46564E-02
 -1      5156 9.21192E-01 5.05483E-02 1.84273E-02
 -1      5157 9.55219E-01 9.16083E-02 1.71289E-02
 -1      5158 8.44792E-03-2.80828E-03-1.15961E-04
 -1      5159 8.51954E-03-2.76995E-03 1.75479E-04
 -1      5160 1.09061E-02-1.98647E-03-8.42600E-05
 -1      5161 1.10306E-02-1.89942E-03 1.77776E-04
 -1      5162 1.87374E-02-3.08757E-03-5.02907E-06
 -1      5163 1.14826E+00-9.13747E-02-5.31228E-02
 -1      5164 1.10886E+00-1.17952E-01-5.27724E-02
 -1      5165 1.96012E+00 1.46089E-02 8.37728E-04
 -1      5166 1.96059E+00 1.24422E-02 1.30364E-03
 -1      5167 1.96009E+00 1.55444E-02-2.96603E-04
 -1      5168 1.96055E+00 1.33792E-02 1.86783E-04
 -1      5169 3.11127E-01-1.01196E-01 6.41744E-02
 -1      5170 2.81788E-01-1.07272E-01 6.09462E-02
 -1      5171 5.08194E-01-1.00218E-01 3.68453E-02
 -1      5172 1.95939E+00 1.57716E-02-3.00818E-05
 -1      5173 1.95903E+00 1.53413E-02-5.92479E-04
 -1      5174 1.95934E+00 1.51965E-02 1.04127E-04
 -1      5175 3.81737E-01 4.88754E-03-2.05236E-02
 -1      5176 3.12424E-01 5.38490E-03-3.69478E-03
 -1      5177 3.36657E-01-1.66905E-02-3.43767E-03
 -1      5178 3.47906E-01-7.22824E-02 6.95499E-02
 -1      5179 3.76819E-01-7.89364E-02 4.35429E-02
 -1      5180 1.95968E+00 1.77473E-02 1.87172E-04
 -1      5181 1.95980E+00 1.72880E-02 2.99974E-04
 -1      5182 1.96005E+00 1.77705E-02 4.54331E-04
 -1      5183 2.49676E-02 1.00599E-02 2.74158E-04
 -1      5184 2.65807E-02 1.16236E-02-3.17379E-04
 -1      5185 2.08269E-02 4.57975E-03 2.86217E-04
 -1      5186 2.16639E-02 5.52109E-03-4.44532E-04
 -1      5187 5.36091E-03-5.32268E-03-6.77392E-04
 -1      5188 4.38636E-03-4.47402E-03-3.86704E-04
 -1      5189 5.84111E-03-5.30075E-03-1.49719E-04
 -1      5190 1.95927E+00 1.86642E-02-1.11415E-03
 -1      5191 1.95947E+00 1.77677E-02-6.13414E-04
 -1      5192 1.84932E-02-6.53904E-03-1.52065E-03
 -1      5193 1.82203E-02-5.75215E-03-4.72094E-04
 -1      5194 1.46157E-02-6.38580E-03-3.90486E-04
 -1      5195 1.16274E-02-5.02562E-03 9.06188E-06
 -1      5196 1.24946E-02-5.73821E-03-6.66372E-04
 -1      5197 1.97138E+00 3.33868E-02 9.70515E-04
 -1      5198 6.98642E-02-6.12102E-02-2.59971E-05
 -1      5199 4.68993E-02 3.22095E-02-2.41361E-03
 -1      5200 2.24651E-02 1.36276E-02-1.99542E-03
 -1      5201 5.32891E-02 4.72790E-02-3.38580E-03
 -1      5202 1.96248E+00 1.58643E-02 1.84141E-03
 -1      5203 1.26929E+00 1.08565E-01-4.68505E-02
 -1      5204 1.26164E+00 1.35653E-01-1.72785E-02
 -1      5205 1.24732E+00 1.74088E-01-6.24533E-02
 -1      5206 1.16381E+00 1.33434E-01-4.66271E-02
 -1      5207 1.16047E+00 1.59121E-01-1.74013E-02
 -1      5208 7.74116E-01 4.57202E-02 6.49353E-02
 -1      5209 5.53080E-02 6.17611E-03-1.67743E-03
 -1      5210 1.66725E-01 4.08286E-03-1.75146E-02
 -1      5211 1.43394E-01 3.08962E-02-7.79278E-03
 -1      5212 1.96014E+00 1.97622E-02 5.00679E-04
 -1      5213 6.06949E-03 5.09120E-03-4.34401E-04
 -1      5214 9.03061E-03 5.71314E-03-5.75368E-04
 -1      5215 5.23504E-03 3.18062E-03-1.13300E-04
 -1      5216 5.99686E-03 2.99725E-03 5.26244E-05
 -1      5217 1.84563E+00 8.37194E-02-6.46167E-02
 -1      5218 1.65838E+00 1.33364E-01-4.68078E-02
 -1      5219 1.96197E+00 1.62352E-02 1.54062E-03
 -1      5220 1.66457E-02-5.98274E-03 1.16803E-06
 -1      5221 1.82212E-02-5.75106E-03 4.73844E-04
 -1      5222 1.34658E-02-6.45785E-03 7.07367E-06
 -1      5223 1.46176E-02-6.39030E-03 4.11446E-04
 -1      5224 1.32396E-03-2.10612E-03-2.06812E-04
 -1      5225 3.53043E-04-8.18410E-04-1.07164E-04
 -1      5226 8.77670E-04-1.37404E-03-2.01915E-04
 -1      5227 1.97215E+00 3.45168E-02-1.20262E-03
 -1      5228 1.98348E+00 2.79337E-02-3.13717E-05
 -1      5229 8.26478E-02-1.04735E-01 3.65432E-05
 -1      5230 8.65297E-02-1.11238E-01 3.68457E-03
 -1      5231 9.28366E-02-1.19692E-01-2.22163E-04
 -1      5232 9.01904E-01-1.37508E-01-2.17956E-03
 -1      5233 9.94022E-01-1.47771E-01 7.90599E-03
 -1      5234 6.06502E-03 5.09051E-03 4.37090E-04
 -1      5235 4.03417E-03 3.82685E-03 3.16431E-04
 -1      5236 6.35716E-03 4.46366E-03 3.64059E-04
 -1      5237 9.02583E-03 5.71831E-03 5.65457E-04
 -1      5238 1.45768E+00 1.84463E-01 4.26079E-02
 -1      5239 1.62196E-01-1.33159E-01-1.45281E-02
 -1      5240 1.55659E-01-1.30230E-01-2.53182E-02
 -1      5241 1.38496E-01-1.38279E-01-2.57860E-02
 -1      5242 1.20268E-01-1.30979E-01-8.55715E-03
 -1      5243 1.20374E-01-1.29370E-01-1.59840E-02
 -1      5244 7.13024E-02-7.31994E-02-1.88214E-02
 -1      5245 1.30095E-01-1.17224E-01-2.31908E-02
 -1      5246 1.06756E-01-1.15852E-01-1.55128E-02
 -1      5247 3.23530E-02 6.55797E-04 2.36452E-03
 -1      5248 3.69028E-02-2.34151E-03 2.66139E-03
 -1      5249 2.75752E-02-7.69008E-04 1.22748E-03
 -1      5250 3.71992E-02 2.40751E-03 2.84678E-03
 -1      5251 4.28294E-02 5.93461E-03 3.33893E-03
 -1      5252 3.12736E-02 2.18560E-03 1.38171E-03
 -1      5253 3.49162E-02 1.97191E-03 9.57180E-04
 -1      5254 2.61590E-02-2.88477E-04 1.15932E-03
 -1      5255 4.28305E-02 5.93516E-03-3.34854E-03
 -1      5256 3.72041E-02 2.40849E-03-2.85539E-03
 -1      5257 2.61624E-02-2.99586E-04-1.17235E-03
 -1      5258 3.49211E-02 1.97038E-03-9.72040E-04
 -1      5259 3.12841E-02 2.18124E-03-1.40051E-03
 -1      5260 2.82535E-02 4.81104E-03 1.19617E-03
 -1      5261 9.82239E-03-3.09617E-04 4.81501E-04
 -1      5262 2.25508E-02 3.05782E-04 8.93624E-04
 -1      5263 8.53919E-02 1.09477E-01-3.05231E-03
 -1      5264 8.88358E-02 1.15126E-01 2.74080E-04
 -1      5265 7.95530E-02 9.59723E-02 3.83925E-05
 -1      5266 7.41976E-02 8.44645E-02 2.81494E-04
 -1      5267 7.79549E-02 9.02196E-02-2.39354E-03
 -1      5268 2.41080E-04-6.34840E-04 9.20393E-05
 -1      5269 1.34086E-03-2.10289E-03 2.21924E-04
 -1      5270 8.53776E-04-1.38023E-03 2.16316E-04
 -1      5271 1.54162E-02 3.29824E-03 7.14163E-04
 -1      5272 1.93933E-02 1.22879E-03 7.77826E-04
 -1      5273 6.22472E-03-1.75333E-03 3.70678E-04
 -1      5274 1.42785E-02-3.48293E-03 6.31606E-04
 -1      5275 1.85031E-02-1.88024E-03 7.99602E-04
 -1      5276 5.60965E-01 1.57439E-03-6.53001E-02
 -1      5277 4.88010E-01-1.97943E-03-7.07315E-02
 -1      5278 1.95895E+00 1.68039E-02-4.12556E-04
 -1      5279 1.95900E+00 1.69112E-02-3.86850E-04
 -1      5280 1.42758E-03-1.99602E-03-5.11030E-05
 -1      5281 1.12375E-03-1.77216E-03 4.57488E-05
 -1      5282 2.20477E-03-2.39823E-03-5.22604E-05
 -1      5283 1.66989E-03-2.08203E-03 4.03146E-05
 -1      5284 1.96123E+00 1.88071E-02 1.21911E-03
 -1      5285 1.96143E+00 1.93167E-02 1.35504E-03
 -1      5286 1.96127E+00 1.78619E-02 1.20254E-03
 -1      5287 1.96147E+00 1.83707E-02 1.34331E-03
 -1      5288 1.96223E+00 1.70971E-02 1.80622E-03
 -1      5289 1.95903E+00 1.77804E-02-3.31797E-04
 -1      5290 1.95903E+00 1.81969E-02-3.10094E-04
 -1      5291 1.95904E+00 1.78493E-02-3.23689E-04
 -1      5292 1.95902E+00 1.82739E-02-3.10595E-04
 -1      5293 7.42368E-03 6.09262E-03-8.55270E-04
 -1      5294 9.22061E-03 6.63508E-03-9.93636E-04
 -1      5295 4.59949E-03 4.45412E-03-3.74199E-04
 -1      5296 6.70620E-03 5.62025E-03-2.48864E-04
 -1      5297 1.95858E+00 2.16633E-02 5.75829E-04
 -1      5298 1.95947E+00 2.09661E-02-4.54970E-04
 -1      5299 1.96186E+00 1.81341E-02 1.60175E-03
 -1      5300 2.32507E-04-1.50351E-05-3.30299E-05
 -1      5301 2.31041E-04-1.46340E-04 3.03661E-05
 -1      5302 7.62678E-04-3.62331E-04 8.67107E-06
 -1      5303 3.86765E-04-6.30682E-04-4.78517E-05
 -1      5304 1.96619E+00 3.05108E-02-1.93835E-03
 -1      5305 5.02620E-02-1.54812E-02-3.17905E-03
 -1      5306 4.08997E-02-1.43390E-02-1.82760E-03
 -1      5307 6.20685E-02 6.64159E-02-1.91403E-03
 -1      5308 4.27635E-01 9.10582E-02-6.76708E-02
 -1      5309 4.35369E-01 8.23070E-02-6.69834E-02
 -1      5310 3.97792E-01 8.32658E-02-6.63890E-02
 -1      5311 2.21061E-04 5.82557E-04 1.15868E-04
 -1      5312 2.48661E-04 3.14670E-04 4.50337E-05
 -1      5313 3.82533E-03 2.15484E-03-2.82130E-04
 -1      5314 4.62566E-03 2.03526E-03-3.01247E-04
 -1      5315 1.20913E-02 4.19151E-03-5.61574E-04
 -1      5316 9.65958E-02 1.30653E-01 1.05095E-02
 -1      5317 9.59024E-02 1.22219E-01 4.92566E-03
 -1      5318 3.79313E-01-2.63820E-02-3.20506E-02
 -1      5319 5.36625E-04 3.25259E-04 1.89165E-04
 -1      5320 1.00775E-04-1.57640E-04 9.44628E-05
 -1      5321 5.79339E-04-4.80869E-04 2.13509E-04
 -1      5322 1.40081E-01 1.19772E-01 2.77071E-02
 -1      5323 1.02009E-01 1.11829E-01 1.51426E-02
 -1      5324 2.76552E-01 7.25602E-02-7.21501E-02
 -1      5325 3.22364E-01 7.07722E-02-7.37698E-02
 -1      5326 3.06931E-01 5.63799E-02-7.46753E-02
 -1      5327 2.48600E-01 1.06868E-01 6.35750E-02
 -1      5328 2.23860E-01 1.15932E-01 2.59508E-02
 -1      5329 2.72991E-01 9.39802E-02 4.39567E-02
 -1      5330 1.80235E+00-7.70790E-02 7.81971E-02
 -1      5331 7.92518E-01-1.20491E-02 5.98970E-02
 -1      5332 8.80758E-01 1.04052E-02 1.35162E-02
 -1      5333 9.16596E-01 9.29200E-03 4.86472E-02
 -1      5334 9.08390E-01-2.70892E-02 5.69168E-02
 -1      5335 8.72736E-01-2.52407E-02 2.18134E-02
 -1      5336 9.21967E-03 6.63256E-03 9.88042E-04
 -1      5337 7.42090E-03 6.08961E-03 8.53708E-04
 -1      5338 4.60338E-03 4.45269E-03 3.83588E-04
 -1      5339 6.70233E-03 5.62191E-03 2.55058E-04
 -1      5340 2.57411E-01 1.22359E-01-3.01136E-02
 -1      5341 2.59722E-01 1.20357E-01-5.74210E-02
 -1      5342 2.53905E-01 1.25980E-01-4.93951E-02
 -1      5343 3.04939E-01 1.13766E-01-3.87473E-02
 -1      5344 3.10151E-01 1.14122E-01-6.71080E-02
 -1      5345 2.96301E-01 1.08064E-01-4.31436E-02
 -1      5346 1.98932E+00 3.22163E-02 2.55427E-04
 -1      5347 1.97927E+00 3.62706E-02-7.37938E-04
 -1      5348 2.79702E-01 9.50381E-02-2.08943E-02
 -1      5349 7.59544E-02-8.13565E-02 6.79710E-03
 -1      5350 8.00290E-02-9.74713E-02 7.94448E-03
 -1      5351 6.86515E-02-7.33883E-02 5.53959E-03
 -1      5352 3.47078E-01-4.18359E-02-6.77919E-02
 -1      5353 4.18304E-01-3.65465E-02-6.02613E-02
 -1      5354 3.61377E-01-1.92482E-02-6.90008E-02
 -1      5355 3.06007E-01-3.16825E-02-3.97901E-02
 -1      5356 3.29083E-02-3.72222E-04 2.38536E-03
 -1      5357 3.09362E-02-6.37336E-04 7.54960E-04
 -1      5358 3.29123E-02-3.69525E-04-2.39058E-03
 -1      5359 3.09371E-02-6.38853E-04-7.65025E-04
 -1      5360 1.16669E+00 1.65097E-01 6.18900E-02
 -1      5361 9.18911E-01 7.24198E-02-8.48607E-03
 -1      5362 8.57569E-01 7.56438E-02-5.68892E-02
 -1      5363 9.43919E-01 3.89710E-02-4.62138E-02
 -1      5364 9.05238E-01 2.24240E-02-1.85099E-02
 -1      5365 8.44205E-01 2.70121E-02-6.70970E-02
 -1      5366 8.20188E-01 5.90173E-02-2.93627E-02
 -1      5367 3.23630E-02 6.38282E-04-2.35514E-03
 -1      5368 2.76016E-02-7.91423E-04-1.21925E-03
 -1      5369 1.41143E+00-8.18611E-02-4.95259E-02
 -1      5370 1.32790E+00-6.31014E-02-1.35517E-03
 -1      5371 1.29420E+00-4.50073E-02-4.99148E-02
 -1      5372 1.29698E+00-9.67594E-02-5.37141E-02
 -1      5373 1.32855E+00-1.14030E-01-5.97380E-03
 -1      5374 8.46859E-02 1.11082E-01-8.26358E-03
 -1      5375 9.05107E-02 1.09024E-01-9.71711E-03
 -1      5376 7.47469E-02 8.62162E-02-6.47825E-03
 -1      5377 1.97491E+00 4.26922E-02 1.82914E-03
 -1      5378 1.93762E+00 4.97538E-02 6.71117E-03
 -1      5379 1.95639E+00 5.20611E-02 3.90708E-04
 -1      5380 1.97683E+00 3.61531E-02-3.17457E-04
 -1      5381 1.94663E+00 4.68716E-02-7.30639E-04
 -1      5382 1.96081E+00 3.98875E-02 2.21580E-03
 -1      5383 1.95977E+00 1.59008E-02 3.50570E-04
 -1      5384 1.96039E+00 1.56325E-02 8.48456E-04
 -1      5385 1.95971E+00 1.52367E-02 4.81357E-04
 -1      5386 5.85538E-03 5.53770E-03-7.71295E-04
 -1      5387 5.26866E-03 5.06731E-03-2.35701E-04
 -1      5388 5.25412E-01 1.27160E-01 7.34208E-02
 -1      5389 5.29459E-01 1.16217E-01 3.06266E-02
 -1      5390 4.60758E-01 1.14229E-01 4.59500E-02
 -1      5391 6.74715E-01-3.08069E-02 1.24866E-02
 -1      5392 7.36992E-01-4.03822E-02 3.69720E-02
 -1      5393 6.36962E-01-3.58329E-02 4.21874E-02
 -1      5394 9.30608E-02-1.25443E-01 1.09627E-02
 -1      5395 9.34290E-02-1.13105E-01 1.02875E-02
 -1      5396 1.95897E+00 1.58567E-02-5.68855E-04
 -1      5397 1.95894E+00 1.61068E-02-5.38694E-04
 -1      5398 1.95901E+00 1.65811E-02-4.10478E-04
 -1      5399 1.95947E+00 1.63425E-02-1.26464E-05
 -1      5400 1.15338E-02-9.87573E-04 5.25169E-04
 -1      5401 1.95068E-01-6.75649E-03-4.72246E-02
 -1      5402 1.23959E-01-9.66289E-03-5.68236E-02
 -1      5403 1.57204E-01 1.00068E-02-6.16424E-02
 -1      5404 7.29941E-02-5.93706E-02-5.10395E-03
 -1      5405 1.24790E+00 7.69961E-02-4.76617E-02
 -1      5406 1.14161E+00 1.04135E-01-4.71184E-02
 -1      5407 1.21710E-03-1.72909E-04-1.22208E-04
 -1      5408 8.81901E-04 2.85702E-04-2.79130E-04
 -1      5409 1.37307E-03-4.88316E-04-5.09107E-04
 -1      5410 1.45065E-03-1.21059E-03-1.01802E-04
 -1      5411 9.81287E-04-6.84312E-04-2.64455E-04
 -1      5412 5.90718E-03 5.30301E-03 3.22441E-06
 -1      5413 3.65180E-02-3.31825E-03-8.80032E-04
 -1      5414 1.25638E+00 3.42519E-02-4.79860E-02
 -1      5415 1.33127E+00 6.64755E-02-4.87466E-02
 -1      5416 6.83842E-02-7.41670E-02-7.40726E-03
 -1      5417 4.23909E-02-4.30458E-02-9.14560E-03
 -1      5418 8.54930E-02-9.66542E-02-1.16700E-02
 -1      5419 7.41649E-03 5.78798E-03 1.14192E-06
 -1      5420 2.94836E-01 2.70742E-02 1.47084E-03
 -1      5421 5.85367E-03 5.53662E-03 7.72715E-04
 -1      5422 5.26727E-03 5.06778E-03 2.41507E-04
 -1      5423 1.97872E+00-2.69059E-03 9.15020E-04
 -1      5424 3.19645E-01 1.05491E-01 6.96900E-02
 -1      5425 2.89557E-01 1.12314E-01 6.60497E-02
 -1      5426 2.86391E-01 1.04263E-01 6.73161E-02
 -1      5427 1.52763E+00-9.32927E-02 5.06272E-02
 -1      5428 7.90117E-02 8.68751E-02 6.65098E-03
 -1      5429 7.80133E-02 9.04451E-02 2.52934E-03
 -1      5430 4.66365E-01 9.27438E-02-6.79247E-02
 -1      5431 5.72381E-01 9.94839E-02-6.42407E-02
 -1      5432 7.89152E-02 8.66456E-02-6.51381E-03
 -1      5433 6.12676E-02-5.07275E-02 3.43884E-03
 -1      5434 5.32692E-02-3.76201E-02 2.69676E-03
 -1      5435 1.75486E-02-7.79086E-03-8.94741E-04
 -1      5436 4.12464E-02-2.37730E-02-1.82693E-03
 -1      5437 3.24560E-02-2.10331E-02-6.60093E-04
 -1      5438 2.48371E-02-1.10280E-02-3.68107E-04
 -1      5439 3.52163E-02-1.38795E-02-1.61983E-03
 -1      5440 1.82651E+00-1.46310E-03-1.92229E-02
 -1      5441 1.85713E+00-5.60002E-02-2.52261E-02
 -1      5442 1.96113E+00 1.55078E-02 1.19935E-03
 -1      5443 7.10963E-02-6.55812E-02 1.82818E-03
 -1      5444 4.25311E-01-5.92497E-02 6.51016E-02
 -1      5445 1.95929E+00 1.49189E-02 2.59589E-04
 -1      5446 1.95918E+00 1.50303E-02-6.77150E-05
 -1      5447 7.18445E-02 7.30630E-02 1.94890E-02
 -1      5448 7.98683E-01 9.72905E-02-5.70019E-02
 -1      5449 7.58804E-01 7.66288E-02-9.63029E-03
 -1      5450 7.86640E-01 4.97042E-02-6.71257E-02
 -1      5451 7.45993E-01 3.04560E-02-1.96964E-02
 -1      5452 4.48135E-01 6.43207E-02 2.60788E-02
 -1      5453 4.64492E-01 6.59892E-02-2.78201E-03
 -1      5454 1.05759E+00-1.49461E-01-6.55338E-02
 -1      5455 1.08304E+00-1.50785E-01-1.00147E-02
 -1      5456 1.53586E+00 1.85957E-01 5.53577E-02
 -1      5457 1.55507E+00 1.64456E-01 1.71158E-02
 -1      5458 5.83751E-01-2.83709E-03 6.54641E-02
 -1      5459 1.96274E+00 2.46063E-02 2.39499E-03
 -1      5460 1.96291E+00 2.46783E-02 2.51647E-03
 -1      5461 1.96253E+00 2.49797E-02 2.26619E-03
 -1      5462 8.83974E-01-1.48620E-01-7.30476E-02
 -1      5463 8.51784E-01-1.04222E-01-4.82423E-02
 -1      5464 1.39489E+00-1.19196E-01 4.74391E-02
 -1      5465 1.36860E+00-1.50721E-01 2.62352E-02
 -1      5466 6.91232E-02-6.71215E-02-2.13014E-02
 -1      5467 1.48202E-01-1.11356E-01-3.08848E-02
 -1      5468 8.51749E-01-1.04309E-01 4.61335E-02
 -1      5469 7.94190E-01-1.44886E-01 6.44903E-02
 -1      5470 7.78114E-01-9.20686E-02 7.18775E-02
 -1      5471 1.95956E+00 1.52129E-02-8.65870E-04
 -1      5472 1.95929E+00 1.47789E-02-9.65390E-04
 -1      5473 1.95919E+00 1.54062E-02-3.43341E-04
 -1      5474 1.00101E-02-6.33527E-03-2.67976E-04
 -1      5475 1.13989E-02-6.45291E-03 8.69296E-06
 -1      5476 1.22209E-02-6.50257E-03-3.47763E-04
 -1      5477 1.36845E+00-1.49921E-01-3.88591E-05
 -1      5478 1.26663E+00-1.61396E-01-5.78261E-03
 -1      5479 1.48226E+00-1.80363E-01-5.55963E-02
 -1      5480 1.48637E+00-1.32115E-01-4.69741E-02
 -1      5481 1.44521E+00-1.52567E-01-1.61956E-02
 -1      5482 1.55504E+00-1.54545E-01-2.15910E-02
 -1      5483 1.60348E+00-1.35828E-01-5.29255E-02
 -1      5484 4.06150E-02 2.07861E-02 1.87613E-03
 -1      5485 1.45940E-02 3.93760E-03 7.41227E-04
 -1      5486 3.35267E-02 1.06890E-02 1.33311E-03
 -1      5487 5.51620E-02 2.16518E-02 3.99102E-03
 -1      5488 3.92963E-02 1.12194E-02 1.73148E-03
 -1      5489 5.51487E-02 2.16723E-02-4.00493E-03
 -1      5490 3.93110E-02 1.12236E-02-1.75617E-03
 -1      5491 4.54494E-03 2.00188E-03 2.20569E-04
 -1      5492 1.20959E-02 4.20627E-03 5.41634E-04
 -1      5493 8.68805E-03 4.53128E-03 4.76221E-04
 -1      5494 5.92184E-01-1.22684E-01-4.19901E-02
 -1      5495 1.95946E+00 1.77343E-02-2.15882E-04
 -1      5496 2.04736E-01-1.27735E-01 4.02310E-02
 -1      5497 6.69336E-02 4.05003E-02 5.08271E-03
 -1      5498 7.20321E-02 5.02184E-02 5.47442E-03
 -1      5499 7.19732E-02 5.01778E-02-5.43862E-03
 -1      5500 6.68774E-02 4.04749E-02-5.07348E-03
 -1      5501 3.58458E-02-2.65035E-02 3.38087E-04
 -1      5502 3.68161E-02-2.94444E-02-8.50104E-04
 -1      5503 4.43325E-02-4.10287E-02 1.33213E-03
 -1      5504 4.73291E-02-4.57153E-02-1.61377E-03
 -1      5505 2.41946E-01-8.68192E-02-5.93483E-02
 -1      5506 2.38140E-01-8.87933E-02-3.59984E-02
 -1      5507 2.86312E-01-9.55601E-02-6.47713E-02
 -1      5508 2.92453E-01-7.38999E-02-6.51151E-02
 -1      5509 2.89558E-01-7.63200E-02-4.04489E-02
 -1      5510 4.90576E-02-3.76688E-02-3.04518E-03
 -1      5511 2.66183E-02-2.08213E-02-2.58354E-03
 -1      5512 5.64705E-02-5.29492E-02-4.05019E-03
 -1      5513 2.96735E-01 9.51389E-02 2.55299E-02
 -1      5514 5.40597E-04 3.34845E-04-2.00468E-04
 -1      5515 1.01101E-04-6.13379E-05-1.08119E-04
 -1      5516 5.81987E-04-4.75741E-04-1.80614E-04
 -1      5517 4.89842E-02 1.56324E-02-8.40422E-06
 -1      5518 8.55366E-02 1.09806E-01 3.55472E-03
 -1      5519 3.22792E-01-6.50651E-02 6.95499E-02
 -1      5520 1.95910E+00 1.48851E-02-6.45452E-04
 -1      5521 3.03846E-02-1.83821E-02 4.59107E-04
 -1      5522 2.41964E-02-9.55037E-03 1.36696E-04
 -1      5523 5.88936E-01 1.30529E-01 7.14798E-02
 -1      5524 6.30489E-01 1.32925E-01 3.94865E-02
 -1      5525 4.56938E-04 1.00785E-03-1.18465E-04
 -1      5526 9.90352E-04 1.64593E-03-5.54346E-05
 -1      5527 1.95931E+00 1.51155E-02 3.10389E-04
 -1      5528 1.94939E+00-2.23491E-02-5.84841E-03
 -1      5529 1.93130E+00-3.22899E-02-1.05782E-02
 -1      5530 1.97515E+00-3.58180E-02-3.54452E-03
 -1      5531 1.95415E+00-2.66911E-02-2.26802E-03
 -1      5532 1.97477E+00-2.37357E-02-1.88066E-03
 -1      5533 3.15366E-01 1.11399E-01 6.88273E-02
 -1      5534 3.32745E-01 9.78138E-02 4.65982E-02
 -1      5535 8.65662E-03 4.55192E-03-4.40127E-04
 -1      5536 1.60322E-01 1.27239E-01-3.62530E-02
 -1      5537 2.02165E-01 1.28194E-01-2.66632E-02
 -1      5538 1.88444E+00-2.14700E-03-8.84490E-02
 -1      5539 1.71130E+00 5.25862E-03-6.37162E-02
 -1      5540 1.75231E+00-5.77238E-02-6.96792E-02
 -1      5541 2.00759E-02-5.25962E-03 1.11491E-06
 -1      5542 1.95945E+00 1.77231E-02-3.04791E-04
 -1      5543 7.68515E-02-6.59979E-02-2.58476E-02
 -1      5544 1.17893E+00 1.70491E-01-7.19645E-02
 -1      5545 1.10386E+00 1.62340E-01-7.27872E-02
 -1      5546 1.08727E+00 1.25523E-01-4.68379E-02
 -1      5547 1.09060E+00 1.56071E-01-2.66241E-02
 -1      5548 3.22702E-01 9.97368E-02-6.95267E-02
 -1      5549 3.25718E-01 1.06741E-01-6.94419E-02
 -1      5550 3.56461E-01 1.01631E-01-7.24887E-02
 -1      5551 2.59552E-01-1.07874E-01-6.02810E-02
 -1      5552 2.11549E-01-1.10659E-01-1.89601E-02
 -1      5553 1.90815E-01-1.17149E-01-3.52834E-02
 -1      5554 2.70950E-01-1.19096E-01-6.43095E-02
 -1      5555 2.19840E-01-1.21154E-01-2.27847E-02
 -1      5556 2.95463E-01-1.06377E-01-4.69274E-02
 -1      5557 1.95923E+00 1.54608E-02-5.98645E-05
 -1      5558 1.95973E+00 1.68434E-02 2.97650E-04
 -1      5559 1.96036E+00 1.65760E-02 7.47566E-04
 -1      5560 1.95966E+00 1.61812E-02 2.97723E-04
 -1      5561 1.95871E+00 1.94597E-02-4.85620E-04
 -1      5562 1.95942E+00 1.91186E-02-1.33508E-05
 -1      5563 3.07452E-01 8.33012E-02-7.19137E-02
 -1      5564 3.45424E-01 8.67735E-02-7.33909E-02
 -1      5565 3.46734E-01 7.77141E-02-7.38817E-02
 -1      5566 1.92258E-03 2.71888E-03-2.36106E-04
 -1      5567 7.36603E-04 1.28361E-03-1.26319E-04
 -1      5568 1.41808E-03 1.93957E-03-4.47831E-05
 -1      5569 2.80316E-03 3.26699E-03-2.67261E-04
 -1      5570 2.74365E-03 3.34128E-03 1.23389E-06
 -1      5571 2.46778E-01 1.20209E-01-5.00269E-02
 -1      5572 3.21954E-01 1.14801E-01-6.96653E-02
 -1      5573 7.36498E-01 1.02481E-01-2.45807E-02
 -1      5574 1.84928E-02-6.53503E-03 1.52029E-03
 -1      5575 2.73185E-01 1.11762E-01-6.05997E-02
 -1      5576 7.83200E-02-9.29945E-02 7.49490E-03
 -1      5577 3.90732E-01 5.26185E-02 6.66006E-02
 -1      5578 4.70666E-02 3.21647E-02 2.24089E-03
 -1      5579 7.37821E-02-6.19893E-02 5.28164E-03
 -1      5580 4.70041E-01-1.05983E-01-6.09873E-02
 -1      5581 4.52205E-01-9.46819E-02-6.02632E-02
 -1      5582 5.01058E-01-9.85824E-02-6.01789E-02
 -1      5583 5.61223E-02 2.48060E-02 3.79703E-02
 -1      5584 5.26025E-02 1.36030E-02 3.36888E-02
 -1      5585 7.11075E-02 2.94118E-02 2.00199E-02
 -1      5586 1.42401E-01 4.13917E-02 4.96742E-02
 -1      5587 8.06588E-01-1.33921E-01-1.90057E-02
 -1      5588 3.64765E-01-5.86488E-02 7.04957E-02
 -1      5589 7.83444E-02 6.56074E-02 3.05014E-02
 -1      5590 6.93785E-02 6.70182E-02 2.15436E-02
 -1      5591 1.60681E-01 1.12431E-01 3.65576E-02
 -1      5592 4.08672E-04-9.04217E-04 9.17169E-05
 -1      5593 1.97913E+00-2.02543E-02 3.13242E-03
 -1      5594 1.96215E+00-1.34439E-02 4.10881E-03
 -1      5595 1.95668E+00-1.18480E-02 6.75620E-03
 -1      5596 1.94860E+00-2.40728E-02 1.05648E-02
 -1      5597 1.95827E+00-1.38263E-02 2.64612E-03
 -1      5598 2.58246E-02 1.89126E-02-2.39010E-03
 -1      5599 2.09068E-03-2.84122E-03 2.31403E-04
 -1      5600 8.12892E-04-1.31825E-03 1.21514E-04
 -1      5601 3.10853E-03-3.40088E-03 2.72667E-04
 -1      5602 6.75354E-03-3.00804E-03 7.99383E-05
 -1      5603 6.10232E-03-2.97966E-03-8.96048E-05
 -1      5604 5.29338E-03-3.24749E-03 1.26528E-04
 -1      5605 4.92225E-03-3.19364E-03-7.39100E-05
 -1      5606 3.69162E-02-2.36309E-03-2.65118E-03
 -1      5607 8.06309E-02 9.05002E-02-1.01854E-02
 -1      5608 4.01435E-02 4.06541E-02-6.90270E-03
 -1      5609 4.56714E-02 4.47857E-02-1.04535E-03
 -1      5610 6.39026E-02 6.72923E-02-6.41384E-03
 -1      5611 7.58535E-01 1.98190E-02-6.72060E-02
 -1      5612 7.08650E-01 7.04580E-03-3.69989E-02
 -1      5613 1.96192E+00-1.24362E-02-1.41861E-03
 -1      5614 1.97378E+00-1.28462E-02 1.07898E-03
 -1      5615 1.95882E+00-1.36064E-02 9.10279E-04
 -1      5616 2.16024E-01 6.92445E-02-5.87613E-02
 -1      5617 2.44467E-01 5.40489E-02-6.18388E-02
 -1      5618 2.63679E-01 7.13453E-02-4.08888E-02
 -1      5619 1.90094E+00-3.50188E-02-2.04858E-02
 -1      5620 1.94838E+00-3.56607E-02-5.11165E-03
 -1      5621 4.21324E-01-9.54059E-02 7.11455E-02
 -1      5622 2.96100E-03-2.62098E-03-6.87202E-05
 -1      5623 2.45321E-03-2.51851E-03 7.55709E-05
 -1      5624 3.80836E-03-3.01011E-03 9.98458E-05
 -1      5625 6.52097E-03-4.78848E-03 1.79036E-05
 -1      5626 5.42522E-02-2.08284E-02 3.45497E-03
 -1      5627 4.93850E-02-1.42942E-02 3.40011E-03
 -1      5628 5.35709E-02-2.29378E-02 8.01525E-04
 -1      5629 7.98294E-01 2.63968E-02 2.96761E-02
 -1      5630 1.96205E+00 2.57716E-02 1.96101E-03
 -1      5631 1.96191E+00 2.56047E-02 1.86177E-03
 -1      5632 1.96232E+00 2.54110E-02 2.13188E-03
 -1      5633 1.71858E-03-2.04543E-03-5.44637E-04
 -1      5634 1.39101E-03-1.12966E-03-4.84487E-04
 -1      5635 1.03771E-03-1.22890E-03-2.49915E-04
 -1      5636 1.95873E+00 1.91441E-02-4.87393E-04
 -1      5637 1.51815E-02 6.68046E-03 1.28475E-03
 -1      5638 1.25120E-02 6.80098E-03 1.13857E-03
 -1      5639 9.89783E-03 5.47392E-03 5.66949E-04
 -1      5640 1.18930E-02 6.45664E-03 3.57494E-04
 -1      5641 1.44426E-02 6.36547E-03 3.86617E-04
 -1      5642 1.51768E-02 6.68855E-03-1.28920E-03
 -1      5643 1.25092E-02 6.80297E-03-1.14283E-03
 -1      5644 1.18913E-02 6.45790E-03-3.68571E-04
 -1      5645 9.88499E-03 5.48404E-03-5.69052E-04
 -1      5646 5.23602E-01 6.54190E-02-1.22892E-02
 -1      5647 6.00175E-01 6.65086E-02 7.66455E-03
 -1      5648 1.96090E+00 1.73287E-02 9.73221E-04
 -1      5649 1.55896E+00-1.71959E-01 3.91048E-02
 -1      5650 1.63431E+00-1.41723E-01-5.89855E-03
 -1      5651 2.10848E-03-2.83512E-03-2.53978E-04
 -1      5652 1.06614E-03-1.48505E-03-1.31374E-04
 -1      5653 3.08072E-03-3.40918E-03-2.48971E-04
 -1      5654 5.58751E-01-1.03600E-01 6.40239E-02
 -1      5655 1.34340E+00 1.00312E-01-4.79819E-02
 -1      5656 9.17369E-02-6.26245E-03-1.07334E-02
 -1      5657 5.56764E-02 5.38252E-03-1.71147E-02
 -1      5658 3.32204E-01 4.24127E-02 3.12425E-03
 -1      5659 3.00830E-01 5.80080E-02-1.49339E-02
 -1      5660 2.92155E-01-1.04169E-01-6.37380E-02
 -1      5661 3.03117E-01-1.13614E-01-6.93108E-02
 -1      5662 1.28548E-02-6.81187E-03 1.14604E-03
 -1      5663 1.53972E-02-6.67141E-03 1.29787E-03
 -1      5664 9.94673E-03-5.54221E-03 5.79557E-04
 -1      5665 1.22150E-02-6.50930E-03 3.65805E-04
 -1      5666 2.57858E-01 3.33401E-03 1.66719E-02
 -1      5667 2.65039E-01-1.10759E-02-2.05858E-02
 -1      5668 5.59727E-02-2.33437E-02-3.85778E-03
 -1      5669 1.96595E+00 5.84904E-02-7.41937E-03
 -1      5670 1.97104E+00 5.15070E-02-3.54143E-03
 -1      5671 1.93918E+00 5.41256E-02-3.22870E-03
 -1      5672 1.93729E+00 5.15221E-02-9.20581E-03
 -1      5673 1.91116E+00 5.39909E-02-1.28927E-02
 -1      5674 1.96180E+00 2.53812E-02 1.78162E-03
 -1      5675 1.96221E+00 2.51875E-02 2.05173E-03
 -1      5676 1.96023E+00 1.60715E-02 7.01887E-04
 -1      5677 1.96287E+00 2.51372E-02 2.50053E-03
 -1      5678 1.96250E+00 2.55113E-02 2.26067E-03
 -1      5679 1.96270E+00 2.51095E-02 2.38215E-03
 -1      5680 1.96188E+00 1.77082E-02 1.58714E-03
 -1      5681 1.96186E+00 1.80373E-02 1.59508E-03
 -1      5682 1.96204E+00 1.85344E-02 1.73449E-03
 -1      5683 1.96205E+00 1.82014E-02 1.72948E-03
 -1      5684 1.96203E+00 1.86262E-02 1.73876E-03
 -1      5685 1.17698E-02 1.13240E-03 4.49423E-04
 -1      5686 5.83100E-03-5.51570E-03 7.31063E-04
 -1      5687 4.98243E-03-4.59989E-03 3.96037E-04
 -1      5688 6.84885E-01-3.43737E-03-4.82626E-03
 -1      5689 1.21632E+00-5.56875E-02-4.91589E-02
 -1      5690 1.22079E+00-1.04634E-01-5.30057E-02
 -1      5691 1.77738E+00 1.00995E-01-1.35052E-02
 -1      5692 1.77610E+00 1.02582E-01-3.58048E-02
 -1      5693 1.85687E+00 4.57459E-02-1.80188E-02
 -1      5694 1.95978E+00 1.85035E-02 2.38004E-04
 -1      5695 3.79502E-01-4.04016E-02 6.53561E-02
 -1      5696 3.31472E-01 4.42366E-02 6.66349E-02
 -1      5697 8.33555E-01 2.57241E-02 6.48046E-02
 -1      5698 1.94734E+00 4.27568E-02 6.32607E-03
 -1      5699 1.95333E+00 3.89436E-02 3.73811E-04
 -1      5700 1.53948E-02-6.67413E-03-1.29733E-03
 -1      5701 1.28571E-02-6.81286E-03-1.14272E-03
 -1      5702 9.94792E-03-5.53734E-03-5.65554E-04
 -1      5703 1.71600E-03-1.87400E-03 2.36159E-05
 -1      5704 1.31865E-02 6.40079E-03-5.10380E-06
 -1      5705 3.06642E-01-6.10188E-02-6.65797E-02
 -1      5706 2.59399E-01-6.23424E-02-6.55854E-02
 -1      5707 1.96175E+00 1.16064E-02 6.62601E-05
 -1      5708 1.96136E+00 1.15154E-02 7.38381E-04
 -1      5709 1.96178E+00 1.07440E-02 1.47433E-03
 -1      5710 1.74693E-02 7.41215E-03 6.05183E-04
 -1      5711 1.08519E-04 1.66937E-04 9.75987E-05
 -1      5712 5.23716E-04 1.06787E-03 1.03304E-04
 -1      5713 1.11554E-03 1.76061E-03 5.02385E-05
 -1      5714 4.40601E-03-3.97022E-03 3.04056E-04
 -1      5715 1.91952E-03-1.95496E-03 1.87255E-04
 -1      5716 6.47087E-03-4.52922E-03 4.08938E-04
 -1      5717 1.05519E-02 4.67646E-05-5.34986E-04
 -1      5718 2.82951E-02 4.79401E-03-1.18232E-03
 -1      5719 2.25374E-02 2.96735E-04-9.17170E-04
 -1      5720 8.92990E-01-1.37239E-01 2.46007E-02
 -1      5721 1.96241E+00 2.48140E-02 2.18054E-03
 -1      5722 9.91001E-03 2.04534E-04-4.11514E-04
 -1      5723 1.95988E+00 2.58447E-02 4.94689E-04
 -1      5724 1.96030E+00 2.60013E-02 7.81018E-04
 -1      5725 1.96031E+00 2.56854E-02 7.81022E-04
 -1      5726 7.96591E-01-1.44934E-01-6.49422E-02
 -1      5727 6.92874E-01-1.30514E-01-3.76304E-02
 -1      5728 7.38041E-01-1.02518E-01-6.65988E-02
 -1      5729 7.48001E-01-9.19344E-02-2.02488E-02
 -1      5730 9.61733E-03-6.70118E-03-9.59288E-04
 -1      5731 7.49503E-03-5.83671E-03-2.30508E-04
 -1      5732 6.57969E-03-5.23187E-03-4.57693E-04
 -1      5733 9.08356E-03-5.76849E-03-5.69254E-04
 -1      5734 9.33464E-03-6.61816E-03 8.57897E-04
 -1      5735 6.56679E-03-5.23708E-03 4.63064E-04
 -1      5736 7.27074E-03-5.76942E-03 1.59605E-04
 -1      5737 9.69117E-03-6.28372E-03 1.96916E-04
 -1      5738 9.07924E-03-5.77068E-03 5.82454E-04
 -1      5739 1.92463E-03 2.71337E-03 2.37670E-04
 -1      5740 6.38636E-01-1.06589E-01 6.29079E-02
 -1      5741 7.11499E-01-1.41054E-01 6.52241E-02
 -1      5742 6.95906E-01-8.92143E-02 7.22865E-02
 -1      5743 3.42341E-01 8.96582E-02-5.21720E-02
 -1      5744 2.31316E-02-1.44121E-02-1.59430E-03
 -1      5745 3.44824E-01 3.54288E-02 3.49846E-02
 -1      5746 3.36049E-01-1.06243E-01 7.36992E-02
 -1      5747 2.86730E-01-1.08477E-01 4.43646E-02
 -1      5748 3.05217E-01-1.12677E-01 6.94295E-02
 -1      5749 1.24547E-02 5.68041E-03 6.54504E-04
 -1      5750 1.60146E-03 2.07431E-03 4.03543E-05
 -1      5751 6.67818E-04-1.18527E-03-1.07492E-04
 -1      5752 1.97513E+00-2.00649E-02 2.56625E-03
 -1      5753 1.95988E+00 2.56169E-02 4.85580E-04
 -1      5754 1.96014E+00 2.54412E-02 6.59662E-04
 -1      5755 1.95980E+00 2.52942E-02 4.21108E-04
 -1      5756 1.95953E+00 2.54699E-02 2.47025E-04
 -1      5757 1.97562E+00 4.38374E-02-1.50744E-03
 -1      5758 8.59817E-01 5.42613E-02 6.47607E-02
 -1      5759 1.64606E+00-4.05901E-02-5.91066E-02
 -1      5760 1.52756E+00-9.36897E-02-5.09211E-02
 -1      5761 1.66069E+00-9.89032E-02-6.05243E-02
 -1      5762 3.18459E-01 7.55512E-02-2.71317E-02
 -1      5763 2.86615E-01 9.24051E-02-4.64640E-02
 -1      5764 3.35335E-01 9.19895E-02-2.51475E-02
 -1      5765 1.56111E-02 4.87010E-03-8.56566E-04
 -1      5766 1.75053E-02 7.22673E-03-9.31738E-04
 -1      5767 4.07434E-02 2.08712E-02-1.84772E-03
 -1      5768 1.95890E+00 1.73826E-02-4.17068E-04
 -1      5769 1.95942E+00 1.72804E-02 1.42041E-06
 -1      5770 1.96217E+00 1.72643E-02 1.73817E-03
 -1      5771 1.96222E+00 1.68370E-02 1.71478E-03
 -1      5772 1.96141E+00 1.73704E-02 1.27951E-03
 -1      5773 2.04436E-01-6.67228E-02 5.83410E-02
 -1      5774 2.41763E-01 5.22356E-02-2.93911E-02
 -1      5775 2.86063E-01 3.61119E-02-6.37577E-02
 -1      5776 6.11224E-01-1.86309E-02 6.53945E-02
 -1      5777 7.10712E-01-2.19072E-02 6.00448E-02
 -1      5778 3.82738E-02 8.09817E-03-1.76859E-03
 -1      5779 3.82704E-02 8.10156E-03 1.75575E-03
 -1      5780 1.95879E+00 1.65480E-02-6.05585E-04
 -1      5781 1.95938E+00 1.67549E-02-1.01155E-04
 -1      5782 3.35120E-02 1.07301E-02-1.37210E-03
 -1      5783 2.19422E-01-9.81260E-02-5.51908E-02
 -1      5784 2.37821E-01-1.00523E-01 5.88763E-02
 -1      5785 7.48086E-02 8.03796E-02 8.47257E-05
 -1      5786 1.00184E+00 1.78903E-02 4.87315E-02
 -1      5787 9.93903E-01-2.02448E-02 5.70001E-02
 -1      5788 3.70240E-02-3.51117E-02-5.52802E-03
 -1      5789 1.96143E+00 2.58419E-02 1.54662E-03
 -1      5790 1.96104E+00 2.57601E-02 1.27973E-03
 -1      5791 1.96144E+00 2.54677E-02 1.53663E-03
 -1      5792 1.96105E+00 2.53859E-02 1.26974E-03
 -1      5793 1.96311E+00 2.42322E-02 2.63483E-03
 -1      5794 1.96324E+00 2.42450E-02 2.72998E-03
 -1      5795 1.94885E+00-3.34053E-02-8.52194E-04
 -1      5796 1.96014E+00 2.65917E-02 6.90440E-04
 -1      5797 1.95986E+00 2.63236E-02 4.94288E-04
 -1      5798 1.96039E+00 2.64779E-02 8.55477E-04
 -1      5799 1.96011E+00 2.62098E-02 6.59326E-04
 -1      5800 1.96204E+00 1.56338E-02 1.52939E-03
 -1      5801 5.49602E-02 5.73299E-02 2.70274E-03
 -1      5802 4.30568E-02 3.91159E-02 1.14651E-03
 -1      5803 4.83175E-01 1.15763E-01-4.17391E-02
 -1      5804 5.25424E-01 1.27152E-01-7.28842E-02
 -1      5805 5.96422E-01 1.27173E-01-3.75064E-02
 -1      5806 1.82404E-02 6.56036E-03 1.50804E-03
 -1      5807 1.95970E+00 2.60533E-02 3.73000E-04
 -1      5808 1.96369E+00 1.29059E-02 1.95015E-03
 -1      5809 1.96261E+00 9.81352E-03 1.12745E-03
 -1      5810 1.96247E+00 1.08146E-02 1.37171E-03
 -1      5811 1.96150E+00 1.35404E-02 1.09111E-03
 -1      5812 3.34638E-02 3.00344E-02-5.03323E-03
 -1      5813 1.13647E-02-4.24332E-03 5.53744E-04
 -1      5814 3.78989E-03-2.13964E-03 2.49763E-04
 -1      5815 8.73946E-03-4.61800E-03 4.58259E-04
 -1      5816 1.95941E+00 1.84690E-02-2.74470E-05
 -1      5817 1.95935E+00 1.76985E-02-7.34752E-05
 -1      5818 1.95944E+00 1.75242E-02-4.64941E-05
 -1      5819 4.89581E-02-3.76353E-02 2.90321E-03
 -1      5820 2.57580E-02-1.88193E-02 2.24389E-03
 -1      5821 5.64769E-02-5.26135E-02 3.83473E-03
 -1      5822 3.30371E-02-3.59209E-03 1.46446E-03
 -1      5823 1.95945E+00 2.57762E-02 1.99249E-04
 -1      5824 9.84973E-01-1.47700E-01 3.45857E-02
 -1      5825 7.52621E-03-6.08392E-03 7.44117E-04
 -1      5826 2.74548E-01 1.20670E-01 6.26033E-02
 -1      5827 3.68175E-01-4.26470E-03-6.89948E-02
 -1      5828 4.39915E-01-1.99800E-03-7.10966E-02
 -1      5829 4.70557E-01 8.36290E-02-1.05245E-02
 -1      5830 5.77168E-01 8.87021E-02-7.54944E-03
 -1      5831 8.82701E-01-1.48653E-01 7.24134E-02
 -1      5832 1.13341E-02-4.23624E-03-5.60559E-04
 -1      5833 3.38431E-03-2.10784E-03-2.22873E-04
 -1      5834 8.73815E-03-4.61250E-03-4.45992E-04
 -1      5835 1.95778E+00 2.44774E-02-9.66796E-04
 -1      5836 1.95800E+00 2.44241E-02-8.20164E-04
 -1      5837 1.95761E+00 2.40326E-02-1.09550E-03
 -1      5838 5.16236E-03 5.25757E-03-7.71048E-04
 -1      5839 4.07727E-03 4.32298E-03-3.76168E-04
 -1      5840 1.96210E+00 1.96128E-02 1.81115E-03
 -1      5841 1.96245E+00 1.96205E-02 2.05057E-03
 -1      5842 1.96211E+00 1.92974E-02 1.80952E-03
 -1      5843 7.68471E-02-7.45753E-02 6.09843E-03
 -1      5844 2.22954E-02 1.36175E-02 1.47835E-03
 -1      5845 5.34995E-02 4.78960E-02 3.59532E-03
 -1      5846 2.05114E-01-1.28368E-01-4.09089E-02
 -1      5847 1.57659E-01-1.34930E-01-3.15310E-02
 -1      5848 2.04560E-01-1.29613E-01-1.21631E-02
 -1      5849 1.85452E-01-1.31341E-01-3.02548E-02
 -1      5850 1.95713E+00 2.11625E-02-1.50654E-03
 -1      5851 1.95722E+00 2.06994E-02-1.45739E-03
 -1      5852 1.95707E+00 2.12054E-02-1.54147E-03
 -1      5853 2.54838E-03-2.03496E-03 1.75103E-04
 -1      5854 1.00415E+00 1.07291E-01 4.71049E-02
 -1      5855 8.86195E-01 8.00237E-02 6.46605E-02
 -1      5856 2.52407E-03 2.03887E-03-1.80485E-04
 -1      5857 1.07468E-01 1.26657E-01-1.32772E-03
 -1      5858 1.28361E-01 1.30736E-01-7.65757E-03
 -1      5859 7.45005E-03-1.28015E-03 3.21118E-04
 -1      5860 7.95154E-02 9.47481E-02 7.83160E-03
 -1      5861 6.55190E-02 6.72251E-02 4.93414E-03
 -1      5862 1.96203E+00 1.86422E-02 1.73309E-03
 -1      5863 4.41019E-01 9.96492E-02-6.88096E-02
 -1      5864 3.89386E-01 9.91675E-02-7.51660E-02
 -1      5865 4.00065E-01 1.06366E-01-7.75753E-02
 -1      5866 3.90367E-01 9.42101E-02-4.43165E-02
 -1      5867 4.65853E-01 4.56005E-02 9.68365E-03
 -1      5868 1.78502E+00 8.95447E-02 1.14784E-02
 -1      5869 1.85590E+00 2.95141E-02 1.27962E-03
 -1      5870 2.03742E-01 1.35702E-01-4.04422E-02
 -1      5871 1.84579E-01 1.29807E-01-1.87568E-02
 -1      5872 5.16138E-03 5.25694E-03 7.73100E-04
 -1      5873 4.07466E-03 4.32400E-03 3.81714E-04
 -1      5874 1.17872E+00-1.31034E-01-5.24420E-02
 -1      5875 1.48568E+00 1.28976E-01-4.67213E-02
 -1      5876 1.48350E+00 9.58950E-02-4.90939E-02
 -1      5877 7.75832E-03-6.17065E-03-8.30471E-04
 -1      5878 6.08476E-03-5.59897E-03-6.80972E-04
 -1      5879 4.99560E-03-4.60360E-03-3.92073E-04
 -1      5880 1.29402E+00-4.50187E-02 4.72089E-02
 -1      5881 1.21839E+00-1.37301E-02-4.94507E-02
 -1      5882 1.85196E-04-5.17776E-04-9.31248E-05
 -1      5883 2.41787E-01 1.15050E-01-5.67190E-02
 -1      5884 1.06933E-01 1.31657E-01-1.11436E-02
 -1      5885 9.54068E-02 1.30245E-01-1.02004E-02
 -1      5886 1.01836E-01 1.20887E-01-1.16698E-02
 -1      5887 9.46797E-02 1.20775E-01-4.38916E-03
 -1      5888 7.37281E-01 9.65348E-02 6.47835E-02
 -1      5889 8.01373E-01 7.64048E-02 6.48657E-02
 -1      5890 1.96327E+00 2.07849E-02 2.64779E-03
 -1      5891 1.96294E+00 2.05000E-02 2.41040E-03
 -1      5892 1.96277E+00 2.00262E-02 2.28295E-03
 -1      5893 1.96311E+00 2.03108E-02 2.52022E-03
 -1      5894 3.45993E-03 3.97091E-03-1.76061E-06
 -1      5895 7.93232E-02 9.45346E-02-7.68370E-03
 -1      5896 6.54425E-02 6.73298E-02-4.95736E-03
 -1      5897 1.96239E+00 1.99028E-02 2.01757E-03
 -1      5898 1.42651E-02-3.51262E-03-6.15845E-04
 -1      5899 6.18259E-03-1.72196E-03-3.19396E-04
 -1      5900 1.85547E-02-1.86179E-03-8.16220E-04
 -1      5901 6.48356E-02-3.67607E-02 3.76803E-03
 -1      5902 6.07585E-02-2.88208E-02 3.90605E-03
 -1      5903 4.78759E-02-2.15857E-02 2.21509E-03
 -1      5904 1.02185E+00 1.58532E-01-6.90389E-02
 -1      5905 1.00810E+00 1.52563E-01-2.24843E-02
 -1      5906 4.32803E-01-1.67394E-02-7.11254E-02
 -1      5907 4.49418E-01 4.41610E-02 3.83669E-02
 -1      5908 1.80588E+00-6.10932E-02-3.08611E-03
 -1      5909 1.80663E+00-6.94289E-02 2.40391E-02
 -1      5910 1.84395E+00-6.90541E-02-2.67387E-02
 -1      5911 1.70086E+00-1.20682E-01 8.34428E-03
 -1      5912 2.49654E-01-1.10728E-01 5.73816E-02
 -1      5913 3.52836E-01 1.07298E-01-7.32999E-02
 -1      5914 4.08588E-01 1.04659E-01-3.53953E-02
 -1      5915 4.58589E-01 1.11738E-01-1.90710E-02
 -1      5916 3.55251E-01 1.10130E-01-1.71065E-02
 -1      5917 4.07674E-01 1.18812E-01-3.55563E-04
 -1      5918 1.96122E+00 1.85951E-02 1.18312E-03
 -1      5919 2.27575E-01-1.03399E-01-1.84386E-03
 -1      5920 2.97251E-01-8.73646E-02-2.17451E-02
 -1      5921 3.00777E-01-1.01815E-01-2.25738E-02
 -1      5922 2.26990E-01-1.17317E-01-3.10350E-03
 -1      5923 3.46188E-02 1.87232E-03-6.82909E-06
 -1      5924 1.64466E+00-1.47639E-01 3.80597E-02
 -1      5925 1.71187E+00-1.15229E-01 4.19097E-02
 -1      5926 5.00454E-01 1.37546E-01 7.45051E-02
 -1      5927 8.54982E-04 1.37038E-03 1.22567E-04
 -1      5928 2.79669E-03 3.27242E-03 2.59833E-04
 -1      5929 2.21252E-01 1.28024E-01-5.80963E-03
 -1      5930 2.51582E-01 1.14529E-01 5.83200E-03
 -1      5931 2.96112E-01 1.12974E-01-1.39596E-02
 -1      5932 2.90292E-01 1.08975E-01-2.05500E-02
 -1      5933 1.96332E+00 2.38521E-02 2.77200E-03
 -1      5934 1.96346E+00 2.38650E-02 2.86715E-03
 -1      5935 1.71949E-03-2.04901E-03 5.46428E-04
 -1      5936 1.39123E-03-1.13814E-03 4.92269E-04
 -1      5937 1.44806E-03-1.21797E-03 1.55232E-04
 -1      5938 1.02596E-03-1.23128E-03 2.86238E-04
 -1      5939 4.11151E-01 3.42327E-02 1.83463E-02
 -1      5940 2.45644E-01 1.08412E-02-1.53394E-02
 -1      5941 1.80461E+00-6.17264E-02-2.56405E-02
 -1      5942 1.84796E+00-2.31911E-02-1.18197E-02
 -1      5943 1.62690E+00 1.55591E-01 1.34694E-03
 -1      5944 1.55030E+00 1.63781E-01-1.49324E-02
 -1      5945 6.11115E-01 1.70594E-03-6.50680E-02
 -1      5946 9.70873E-01 6.55493E-02-4.60358E-02
 -1      5947 8.83339E-01 1.01568E-01-5.67649E-02
 -1      5948 8.81464E-02-1.14953E-01-3.50871E-03
 -1      5949 1.96103E+00 2.61086E-02 1.27781E-03
 -1      5950 1.96220E+00 2.42385E-02-1.74276E-03
 -1      5951 1.25540E-01 1.36004E-01-2.05452E-02
 -1      5952 4.65672E-02 1.25593E-02 1.12159E-03
 -1      5953 4.65664E-02 1.25582E-02-1.14020E-03
 -1      5954 1.96377E+00 1.13574E-02 1.79164E-03
 -1      5955 1.96159E+00 1.26141E-02 1.53003E-03
 -1      5956 3.41801E-03 2.09375E-03 2.01179E-04
 -1      5957 1.96872E+00 6.91884E-03-3.48984E-04
 -1      5958 4.21139E-01 1.23490E-01-6.91520E-02
 -1      5959 3.61701E-01 1.08315E-01-4.20447E-02
 -1      5960 5.80566E-02 3.69160E-02 3.58012E-02
 -1      5961 2.45023E-01-1.29918E-01-5.78461E-02
 -1      5962 2.84788E-01-1.21608E-01-6.53706E-02
 -1      5963 5.32271E-02-2.73099E-02 3.05084E-02
 -1      5964 7.95134E-02-4.17415E-02 1.80677E-02
 -1      5965 1.96310E+00 2.39041E-02 2.61984E-03
 -1      5966 1.96273E+00 2.42781E-02 2.38001E-03
 -1      5967 1.98912E+00 3.08038E-02 8.40212E-05
 -1      5968 1.96304E+00 2.53253E-02 2.61985E-03
 -1      5969 1.96267E+00 2.56994E-02 2.38000E-03
 -1      5970 5.79009E-01 1.22133E-01 7.85927E-03
 -1      5971 6.45665E-01 1.31393E-01-1.52082E-02
 -1      5972 6.80003E-01 1.36893E-01 1.73752E-02
 -1      5973 6.75189E-01 1.01112E-01 2.25570E-03
 -1      5974 5.24895E-02 2.45215E-02-2.69647E-02
 -1      5975 1.65680E-01 5.41454E-02-5.70740E-02
 -1      5976 5.51039E-02 1.90208E-02-1.30500E-02
 -1      5977 1.64065E-01 4.32640E-02-2.98814E-02
 -1      5978 1.29432E-01 2.85938E-02-5.63217E-02
 -1      5979 2.06236E-01 1.27519E-01-4.09656E-02
 -1      5980 1.96359E+00 2.34044E-02 2.93933E-03
 -1      5981 1.96364E+00 2.34658E-02 2.97661E-03
 -1      5982 1.96157E+00 2.60088E-02 1.64586E-03
 -1      5983 4.04842E-01-6.71889E-02-7.60000E-02
 -1      5984 4.72787E-01-7.31960E-02-7.67027E-02
 -1      5985 4.27822E-01-7.86767E-02-7.66635E-02
 -1      5986 1.98938E+00-1.24811E-02 6.72235E-04
 -1      5987 1.99094E+00 1.14762E-03 1.03511E-03
 -1      5988 1.96958E+00-6.89938E-03-2.68603E-04
 -1      5989 1.95798E+00 1.96253E-02-9.72637E-04
 -1      5990 1.95839E+00 1.91658E-02-7.11636E-04
 -1      5991 1.95809E+00 1.92685E-02-9.10825E-04
 -1      5992 4.19218E-01-4.92244E-02-6.01381E-02
 -1      5993 3.49025E-01-5.45230E-02-6.73388E-02
 -1      5994 1.67166E-01-9.58745E-02-4.90355E-02
 -1      5995 2.09608E-01-7.43662E-02-5.98070E-02
 -1      5996 1.95731E+00 2.52746E-02-1.26533E-03
 -1      5997 1.95770E+00 2.56660E-02-9.89964E-04
 -1      5998 1.95812E+00 2.50082E-02-7.24223E-04
 -1      5999 1.95826E+00 2.54943E-02-6.15334E-04
 -1      6000 1.95787E+00 2.51029E-02-8.90663E-04
 -1      6001 9.03518E-01 1.38811E-01 5.38216E-02
 -1      6002 8.61389E-01 1.59487E-01 5.37341E-02
 -1      6003 9.32741E-01 1.62678E-01 6.68495E-02
 -1      6004 9.75241E-01 1.41842E-01 6.69308E-02
 -1      6005 1.95832E+00 1.96029E-02-7.48275E-04
 -1      6006 1.96070E+00 2.61527E-02 1.05389E-03
 -1      6007 1.94497E+00-3.20197E-02 5.74746E-03
 -1      6008 1.97124E+00-3.07746E-02 4.67195E-03
 -1      6009 1.92947E+00-3.33156E-02 1.48431E-02
 -1      6010 1.96261E+00-3.93450E-02 9.69810E-03
 -1      6011 1.06056E-02 6.33964E-03-4.39783E-06
 -1      6012 1.96355E+00 2.41817E-02 2.93511E-03
 -1      6013 1.96370E+00 2.38511E-02 3.03110E-03
 -1      6014 1.96378E+00 2.34593E-02 3.06850E-03
 -1      6015 1.96362E+00 2.37897E-02 2.97252E-03
 -1      6016 2.69079E-01 1.03417E-01-6.19299E-02
 -1      6017 1.95782E+00 2.47518E-02-9.32924E-04
 -1      6018 1.95757E+00 2.48466E-02-1.09939E-03
 -1      6019 2.87386E-01-9.04141E-02 1.98827E-02
 -1      6020 4.93462E-02 1.39690E-02-3.56556E-03
 -1      6021 4.93496E-02 1.39594E-02 3.55655E-03
 -1      6022 1.92384E+00 5.28614E-02 3.14063E-03
 -1      6023 1.96103E+00 1.98396E-02 1.10493E-03
 -1      6024 3.51773E-02-1.38268E-02 1.53163E-03
 -1      6025 1.17710E-04 2.49370E-04-9.24638E-05
 -1      6026 1.40542E+00-1.71358E-01 5.96718E-02
 -1      6027 2.31526E-01 1.05085E-01-5.83653E-02
 -1      6028 1.95750E+00 2.09628E-02-1.26334E-03
 -1      6029 1.95671E+00 2.09770E-02-1.79170E-03
 -1      6030 1.95686E+00 2.04714E-02-1.70762E-03
 -1      6031 2.47143E-01-1.29084E-01 5.82789E-02
 -1      6032 2.75128E-01-1.17407E-01 3.84166E-02
 -1      6033 2.53216E-01-1.30630E-01 5.84145E-02
 -1      6034 3.87959E-01-1.01989E-01 7.10395E-02
 -1      6035 3.89149E-01-9.53748E-02 7.00375E-02
 -1      6036 1.96073E+00 2.54883E-02 1.05581E-03
 -1      6037 1.95869E+00 2.04816E-02-4.79395E-04
 -1      6038 1.95813E+00 2.00123E-02-8.66665E-04
 -1      6039 1.95844E+00 1.96821E-02-6.64836E-04
 -1      6040 1.05747E+00 1.59863E-01 6.66552E-02
 -1      6041 1.04370E+00 1.53926E-01 1.98158E-02
 -1      6042 1.96199E+00 1.81891E-02 1.68147E-03
 -1      6043 1.96217E+00 1.89962E-02 1.83768E-03
 -1      6044 1.96161E+00 1.87286E-02 1.44896E-03
 -1      6045 1.96166E+00 1.91827E-02 1.49848E-03
 -1      6046 3.39068E-01-9.60291E-02 4.06251E-02
 -1      6047 1.14061E+00-4.34469E-02 4.63678E-02
 -1      6048 1.05988E+00-8.51479E-02 5.62865E-02
 -1      6049 1.87064E+00 1.39099E-02 1.87279E-03
 -1      6050 1.86917E+00 1.31653E-02-1.07952E-02
 -1      6051 9.15461E-02 1.23679E-01 1.03129E-02
 -1      6052 8.48523E-02 1.11339E-01 8.50887E-03
 -1      6053 9.07468E-02 1.09076E-01 1.04532E-02
 -1      6054 8.22055E-01 3.81059E-02-2.41968E-03
 -1      6055 1.36849E+00-1.50679E-01-2.62846E-02
 -1      6056 1.26672E+00-1.62101E-01-3.17947E-02
 -1      6057 3.10313E-02-2.06886E-03-2.30831E-03
 -1      6058 2.49984E-02-1.86541E-03-1.18460E-03
 -1      6059 3.10274E-02-2.07082E-03 2.30344E-03
 -1      6060 2.49923E-02-1.87166E-03 1.17477E-03
 -1      6061 1.95874E+00 2.57685E-02-2.85806E-04
 -1      6062 1.95850E+00 2.54099E-02-4.56371E-04
 -1      6063 1.96351E+00 2.12958E-02 2.82289E-03
 -1      6064 1.96369E+00 2.17719E-02 2.96098E-03
 -1      6065 1.96342E+00 2.24435E-02 2.79685E-03
 -1      6066 1.96396E+00 2.19181E-02 3.14898E-03
 -1      6067 1.96324E+00 2.19668E-02 2.65887E-03
 -1      6068 1.89250E-01 1.24744E-01 3.67181E-02
 -1      6069 3.42778E-01-8.63803E-02-4.94426E-02
 -1      6070 1.96196E+00 2.50951E-02 1.88116E-03
 -1      6071 1.96345E+00 1.35504E-02 1.70747E-03
 -1      6072 1.96244E+00 1.30664E-02 1.55798E-03
 -1      6073 4.44616E-03-3.95923E-03-3.28832E-04
 -1      6074 2.38657E-03-2.04167E-03-1.75865E-04
 -1      6075 6.47742E-03-4.53583E-03-3.88035E-04
 -1      6076 1.92778E+00-3.34301E-02 9.90639E-03
 -1      6077 1.89991E+00-3.48265E-02 2.29492E-02
 -1      6078 1.96386E+00 2.32317E-02 3.11662E-03
 -1      6079 1.52812E-02-4.51288E-03-7.45167E-04
 -1      6080 4.54074E-02-2.30658E-02 2.06317E-03
 -1      6081 1.69854E+00-1.22756E-01-2.05002E-02
 -1      6082 2.20691E-01 4.01497E-02-5.71607E-03
 -1      6083 1.13305E-02 6.91644E-03 1.10332E-03
 -1      6084 1.13288E-02 6.91716E-03-1.10920E-03
 -1      6085 4.65734E-03 4.73831E-03 3.22308E-06
 -1      6086 1.40234E+00-1.71163E-01-5.92944E-02
 -1      6087 1.39494E+00-1.19243E-01-4.73859E-02
 -1      6088 1.96380E+00 2.30277E-02 3.07315E-03
 -1      6089 5.05591E-01 1.13691E-01 7.92434E-03
 -1      6090 1.91500E+00-2.90842E-02-1.10397E-02
 -1      6091 1.91615E+00-2.95072E-02-3.90020E-03
 -1      6092 1.95818E+00 2.42924E-02-7.04253E-04
 -1      6093 1.95779E+00 2.39010E-02-9.79600E-04
 -1      6094 2.75480E-01 8.39452E-02 6.45858E-02
 -1      6095 1.95713E+00 2.33556E-02-1.43852E-03
 -1      6096 1.95733E+00 2.35328E-02-1.30093E-03
 -1      6097 1.95713E+00 2.29441E-02-1.45453E-03
 -1      6098 3.32629E-01-6.86384E-02-6.64362E-02
 -1      6099 3.25028E-01-8.96168E-02-6.78451E-02
 -1      6100 3.86140E-01-7.97425E-02-7.58273E-02
 -1      6101 1.96042E+00 1.70392E-02 7.58972E-04
 -1      6102 3.18407E-01-4.40702E-03-6.93958E-02
 -1      6103 2.52765E-01-4.57280E-03-6.86566E-02
 -1      6104 3.02721E-01 1.41540E-02-6.92315E-02
 -1      6105 1.95928E+00 2.51449E-02 6.83839E-05
 -1      6106 1.96362E+00 2.12419E-02 2.89858E-03
 -1      6107 4.58271E-03-2.06543E-03 2.73401E-04
 -1      6108 1.96388E+00 2.28002E-02 3.12128E-03
 -1      6109 1.95819E+00 2.61543E-02-6.43808E-04
 -1      6110 1.95867E+00 2.64285E-02-3.14279E-04
 -1      6111 1.95861E+00 2.54969E-02-3.78114E-04
 -1      6112 1.14403E-03 1.54970E-03-1.11674E-04
 -1      6113 1.00623E-01-1.25437E-01-5.66308E-03
 -1      6114 1.95947E+00 2.05699E-02-1.12010E-03
 -1      6115 1.95901E+00 1.70086E-02-3.85090E-04
 -1      6116 1.95841E+00 2.47457E-02-5.33099E-04
 -1      6117 1.96242E+00 1.84939E-02 1.99163E-03
 -1      6118 1.96205E+00 1.90414E-02 1.75919E-03
 -1      6119 1.32728E+00-1.68782E-01-7.04035E-02
 -1      6120 1.28547E+00-1.32000E-01-5.23921E-02
 -1      6121 8.83273E-04 2.84013E-04 2.70603E-04
 -1      6122 9.72296E-04-6.88556E-04 3.01002E-04
 -1      6123 1.95761E+00 2.00963E-02-1.20803E-03
 -1      6124 1.95778E+00 1.96080E-02-1.10697E-03
 -1      6125 1.96091E+00 1.37653E-02 7.74729E-04
 -1      6126 1.96344E+00 2.41890E-02 2.86307E-03
 -1      6127 1.96202E+00 1.89577E-02 1.73684E-03
 -1      6128 3.43221E-01 1.03561E-01-2.53532E-02
 -1      6129 1.29508E-03 7.24768E-04 1.66877E-04
 -1      6130 1.27022E-03 4.70688E-04-5.32895E-06
 -1      6131 1.83556E+00-1.41755E-02 1.43396E-02
 -1      6132 1.89197E+00 3.27902E-02 9.62404E-03
 -1      6133 1.16353E-02-6.94509E-03-1.10202E-03
 -1      6134 1.95918E+00 2.59249E-02 2.05988E-05
 -1      6135 1.95894E+00 2.55664E-02-1.49962E-04
 -1      6136 5.57916E-02 4.79508E-02-2.19589E-02
 -1      6137 5.47642E-02 3.65408E-02-2.64359E-02
 -1      6138 1.62580E-01 7.50849E-02-5.20723E-02
 -1      6139 1.97626E-01-7.92644E-02 5.53083E-02
 -1      6140 2.93396E-01-4.52602E-02-6.76165E-02
 -1      6141 3.06246E-01-2.23860E-02-6.91872E-02
 -1      6142 4.36760E-01-1.04570E-01 7.22428E-02
 -1      6143 9.29040E-01-1.01279E-01 4.60899E-02
 -1      6144 8.90088E-01-7.68609E-02 4.62432E-02
 -1      6145 1.96346E+00 2.09295E-02 2.78209E-03
 -1      6146 1.96349E+00 2.15495E-02 2.81723E-03
 -1      6147 1.96385E+00 2.11541E-02 3.05445E-03
 -1      6148 1.96388E+00 2.17740E-02 3.08958E-03
 -1      6149 1.96416E+00 2.09201E-02 3.25720E-03
 -1      6150 4.58779E-03-2.04123E-03-2.13323E-04
 -1      6151 5.88598E-01 1.30360E-01-7.11502E-02
 -1      6152 6.39386E-01 1.47994E-01-7.01208E-02
 -1      6153 6.83551E-01 1.15645E-01-6.28544E-02
 -1      6154 6.34333E-01 9.99863E-02-6.34299E-02
 -1      6155 1.00413E+00 1.07339E-01-4.70109E-02
 -1      6156 9.52073E-01 1.13447E-01-9.61653E-03
 -1      6157 1.96159E+00 2.51816E-02 1.63617E-03
 -1      6158 1.39092E-02-3.51691E-03 5.17972E-04
 -1      6159 1.95854E+00 1.92186E-02-6.11601E-04
 -1      6160 1.95849E+00 1.84199E-02-6.71894E-04
 -1      6161 1.95819E+00 1.85237E-02-8.69710E-04
 -1      6162 2.89831E-01-1.04752E-01 1.76684E-02
 -1      6163 8.52303E-01 1.44342E-01-2.88534E-03
 -1      6164 8.88468E-01 1.45971E-01-3.20878E-02
 -1      6165 9.71895E-01 1.51023E-01 6.63855E-03
 -1      6166 1.96272E+00 2.05009E-02 2.26472E-03
 -1      6167 1.96265E+00 2.00435E-02 2.20353E-03
 -1      6168 1.96195E+00 2.02890E-02 1.73191E-03
 -1      6169 5.31797E-01-1.28028E-01 7.26317E-02
 -1      6170 5.01003E-01-1.37588E-01 7.38101E-02
 -1      6171 4.78159E-01-1.22079E-01 4.49221E-02
 -1      6172 3.62499E-01 1.14884E-01 6.67453E-02
 -1      6173 3.87701E-01 1.04506E-01 3.85403E-02
 -1      6174 3.21755E-01 1.10188E-01 4.05906E-02
 -1      6175 1.37218E-03-4.96583E-04 5.17141E-04
 -1      6176 1.95693E+00 2.24007E-02-1.60537E-03
 -1      6177 1.95691E+00 2.23772E-02-1.61444E-03
 -1      6178 1.95700E+00 2.18845E-02-1.57043E-03
 -1      6179 4.20148E-01 1.24051E-01 7.00789E-02
 -1      6180 1.84350E+00-7.30046E-02 6.29844E-02
 -1      6181 1.95698E+00 2.26104E-02-1.56173E-03
 -1      6182 1.95695E+00 2.21222E-02-1.59814E-03
 -1      6183 1.95703E+00 2.28887E-02-1.52486E-03
 -1      6184 1.95699E+00 2.24006E-02-1.56128E-03
 -1      6185 1.89915E+00-1.72917E-02 1.23082E-02
 -1      6186 1.85707E+00-9.77615E-03 2.74812E-02
 -1      6187 2.35433E-02-4.09540E-03-3.90801E-07
 -1      6188 5.31865E-01-1.27977E-01-7.25815E-02
 -1      6189 5.76465E-01-9.65691E-02-6.82560E-02
 -1      6190 1.95911E+00 2.01421E-02-1.18717E-03
 -1      6191 1.95725E+00 2.38549E-02-1.34604E-03
 -1      6192 1.95745E+00 2.40320E-02-1.20845E-03
 -1      6193 5.74078E-01-1.30401E-01 3.71553E-02
 -1      6194 1.95389E+00-3.58444E-02-9.31198E-03
 -1      6195 1.96358E+00 2.03209E-02 2.84829E-03
 -1      6196 1.96365E+00 2.06910E-02 2.90265E-03
 -1      6197 1.96372E+00 2.06543E-02 2.95075E-03
 -1      6198 3.63419E-01-1.00658E-01 5.03446E-02
 -1      6199 5.61470E-02-4.68118E-02-2.37962E-02
 -1      6200 1.57943E-01-7.87405E-02-5.22184E-02
 -1      6201 9.04454E-02 1.22606E-01-9.96257E-03
 -1      6202 1.85441E+00 2.98569E-02 2.08276E-02
 -1      6203 1.78471E+00 9.08351E-02 3.06178E-02
 -1      6204 1.70256E+00-1.22912E-01 4.60049E-02
 -1      6205 1.95972E+00 2.61617E-02 3.91860E-04
 -1      6206 1.95968E+00 2.67945E-02 3.80445E-04
 -1      6207 1.95955E+00 2.58914E-02 2.70549E-04
 -1      6208 1.95906E+00 2.56535E-02-7.17295E-05
 -1      6209 8.34816E-01 8.62667E-02 7.61984E-03
 -1      6210 2.87613E-01-1.20896E-01 6.58878E-02
 -1      6211 2.96005E-01-1.21393E-01 6.86904E-02
 -1      6212 1.95743E+00 2.43722E-02-1.21234E-03
 -1      6213 1.95729E+00 2.43468E-02-1.30481E-03
 -1      6214 1.95711E+00 2.38293E-02-1.43851E-03
 -1      6215 9.92331E-03 2.66523E-04 4.64141E-04
 -1      6216 1.43651E-02 3.25295E-04 2.14542E-04
 -1      6217 8.54382E-02-1.13508E-01-8.52147E-03
 -1      6218 7.80873E-02-9.28761E-02-7.31452E-03
 -1      6219 9.35445E-02-1.13061E-01-1.05661E-02
 -1      6220 1.19636E-02 1.49879E-03-4.91551E-04
 -1      6221 1.41123E+00-8.17073E-02 4.95347E-02
 -1      6222 2.06847E-01 2.76596E-02-3.27057E-02
 -1      6223 1.96136E+00 1.83155E-02 1.30009E-03
 -1      6224 1.96378E+00 2.11907E-02 3.00637E-03
 -1      6225 2.46440E-01 1.31627E-01 5.60287E-02
 -1      6226 2.36518E-01 1.27696E-01 5.59144E-02
 -1      6227 1.95674E+00 2.80900E-02-3.80412E-03
 -1      6228 1.95892E+00 3.22553E-02-2.87110E-03
 -1      6229 1.95597E+00 3.30403E-02-2.33155E-03
 -1      6230 1.95811E+00 2.54575E-02-1.95624E-03
 -1      6231 1.95893E+00 2.52162E-02-2.06305E-03
 -1      6232 1.96160E+00 1.94835E-02 1.47132E-03
 -1      6233 1.15795E-01-1.36566E-01-1.80691E-02
 -1      6234 1.05411E-01-1.23970E-01-1.25760E-02
 -1      6235 2.68473E-02 2.04736E-02 2.54517E-03
 -1      6236 1.96104E+00 2.67296E-02 1.30633E-03
 -1      6237 1.96075E+00 2.60406E-02 1.08818E-03
 -1      6238 1.95806E+00 2.50738E-02-7.61971E-04
 -1      6239 4.13792E-02-4.20958E-02 7.76089E-03
 -1      6240 3.37273E-02-3.03301E-02 4.35820E-03
 -1      6241 6.83731E-02-7.42780E-02 7.50970E-03
 -1      6242 1.97706E+00 4.44471E-02-2.12812E-03
 -1      6243 1.96007E+00 4.12771E-02-3.43976E-03
 -1      6244 1.95703E+00 2.33002E-02-1.50886E-03
 -1      6245 1.12847E-03 1.55080E-03 1.43132E-04
 -1      6246 1.95379E+00 3.42710E-02-5.08940E-03
 -1      6247 1.95305E+00 3.98685E-02-2.63374E-03
 -1      6248 1.95693E+00 2.20145E-02-1.61445E-03
 -1      6249 1.84318E-03 1.91267E-03 1.83213E-04
 -1      6250 1.95788E+00 2.34641E-02-9.29331E-04
 -1      6251 1.95737E+00 2.38532E-02-1.26512E-03
 -1      6252 1.95703E+00 2.47748E-02-1.47074E-03
 -1      6253 7.65731E-03-1.11161E-03-3.45840E-04
 -1      6254 4.26869E-02 4.35165E-02 9.63634E-03
 -1      6255 3.69349E-02 3.50510E-02 6.27893E-03
 -1      6256 8.10624E-02 9.05071E-02 1.08265E-02
 -1      6257 1.15054E-03-1.54605E-03 1.37517E-04
 -1      6258 1.94664E+00 4.51431E-02-8.23102E-03
 -1      6259 2.72554E-01-1.18182E-01 6.45521E-02
 -1      6260 2.19599E-01 1.28525E-01 1.65089E-02
 -1      6261 1.84203E-01 1.28309E-01 1.59406E-05
 -1      6262 1.03070E+00-4.86361E-02 5.69319E-02
 -1      6263 1.01986E+00-7.72940E-02 1.85379E-02
 -1      6264 1.75214E-01-1.24230E-01-3.12800E-02
 -1      6265 5.50845E-02-3.52439E-02-3.12481E-02
 -1      6266 1.36009E-03 1.08775E-03 5.37749E-04
 -1      6267 1.35169E-03 4.43356E-04 5.59866E-04
 -1      6268 1.95825E+00 2.47330E-02-6.43645E-04
 -1      6269 1.95878E+00 2.42746E-02-2.96066E-04
 -1      6270 2.34225E-01 1.81757E-02-6.32920E-02
 -1      6271 4.24623E-02-5.79763E-03 3.08292E-03
 -1      6272 1.96306E+00 2.14527E-02 2.52070E-03
 -1      6273 1.96378E+00 2.14041E-02 3.01086E-03
 -1      6274 1.96328E+00 2.46499E-02 2.76791E-03
 -1      6275 1.96418E+00 2.15942E-02 3.28902E-03
 -1      6276 1.96390E+00 2.24487E-02 3.12146E-03
 -1      6277 3.21768E-01-1.26991E-02 6.62215E-02
 -1      6278 2.98430E-01 9.96992E-03 6.58192E-02
 -1      6279 7.25310E-01-5.54661E-02 6.71434E-03
 -1      6280 9.39586E-01 1.40566E-01-6.93754E-02
 -1      6281 1.95863E+00 2.51352E-02-3.74144E-04
 -1      6282 1.95889E+00 2.50199E-02-2.03574E-04
 -1      6283 1.90983E+00 5.17638E-02 1.03467E-02
 -1      6284 1.83916E+00-6.73519E-02-6.81659E-02
 -1      6285 2.40824E-03 2.01636E-03 1.71402E-04
 -1      6286 1.95403E+00 5.83782E-02-1.24954E-02
 -1      6287 1.87776E+00 4.45528E-02-2.36559E-02
 -1      6288 1.89003E+00 3.56249E-02-1.68285E-02
 -1      6289 1.92281E+00 5.04332E-02-9.00355E-03
 -1      6290 7.55158E-01-5.27461E-02-6.52865E-02
 -1      6291 1.08665E+00 1.55695E-01-1.33753E-03
 -1      6292 5.00954E-01-1.37512E-01-7.42106E-02
 -1      6293 6.46998E-01-7.92420E-02-6.72534E-02
 -1      6294 7.05242E-01-7.74426E-02-6.68564E-02
 -1      6295 6.85873E-01-6.59391E-02-3.71963E-02
 -1      6296 6.96750E-01-5.58528E-02-6.55400E-02
 -1      6297 7.42257E-01 1.55751E-01-6.78352E-02
 -1      6298 6.99460E-01 1.35490E-01-3.58660E-02
 -1      6299 1.95792E+00 2.00447E-02-1.00395E-03
 -1      6300 1.55976E+00 1.42913E-01-4.54460E-02
 -1      6301 5.00474E-01 1.37500E-01-7.41878E-02
 -1      6302 3.21563E-01-9.82327E-02-6.67404E-02
 -1      6303 2.57686E-01 1.16656E-01 6.17033E-02
 -1      6304 1.95812E+00 2.57137E-02-7.04258E-04
 -1      6305 1.95755E+00 2.05159E-02-1.23949E-03
 -1      6306 1.35190E-03 4.43823E-04-5.58334E-04
 -1      6307 1.95677E+00 2.42556E-02-1.66093E-03
 -1      6308 1.95756E+00 2.42327E-02-1.12305E-03
 -1      6309 7.45425E-03 1.26525E-03 3.75788E-04
 -1      6310 1.01660E-01 1.11872E-01-1.40547E-02
 -1      6311 1.34739E-01 1.30196E-01-2.67234E-02
 -1      6312 1.95743E+00 2.09782E-02-1.30950E-03
 -1      6313 1.95720E+00 2.11730E-02-1.45760E-03
 -1      6314 1.95732E+00 2.07109E-02-1.38756E-03
 -1      6315 1.69802E-03-1.83968E-03-1.48043E-04
 -1      6316 1.95698E+00 2.32859E-02-1.54527E-03
 -1      6317 2.10029E-02-1.20430E-02 1.15852E-03
 -1      6318 1.96386E+00 2.32876E-02 3.11962E-03
 -1      6319 1.96412E+00 2.35812E-02 3.30927E-03
 -1      6320 1.96342E+00 2.36164E-02 2.83364E-03
 -1      6321 1.81367E+00 7.99384E-02-4.64177E-02
 -1      6322 1.85405E+00 2.00725E-02-2.73922E-02
 -1      6323 1.71289E+00-1.15702E-01-5.49051E-02
 -1      6324 1.62019E+00-1.49384E-01-4.73184E-02
 -1      6325 1.96283E+00 1.97436E-02 2.31655E-03
 -1      6326 1.95709E+00 2.33535E-02-1.47054E-03
 -1      6327 6.54434E-02 6.84655E-02-1.36653E-02
 -1      6328 7.78930E-01 1.21865E-01-5.69606E-02
 -1      6329 1.95739E+00 2.37150E-02-1.25680E-03
 -1      6330 1.96397E+00 2.42008E-02 3.22378E-03
 -1      6331 1.96403E+00 2.04203E-02 3.15344E-03
 -1      6332 1.95770E+00 2.05274E-02-1.13867E-03
 -1      6333 1.95916E+00 2.66662E-02 2.80408E-05
 -1      6334 1.96236E+00 1.97555E-02 1.99858E-03
 -1      6335 1.87494E+00 4.96177E-04-1.12043E-02
 -1      6336 1.93009E+00-3.35491E-02 2.97794E-03
 -1      6337 9.30325E-02-1.25887E-01-1.11496E-02
 -1      6338 1.96387E+00 2.21419E-02 3.09227E-03
 -1      6339 1.96387E+00 2.26264E-02 3.10847E-03
 -1      6340 1.96389E+00 2.21950E-02 3.11313E-03
 -1      6341 1.81116E+00-4.52909E-02-3.93825E-02
 -1      6342 1.83304E+00-2.01330E-02-2.40036E-02
 -1      6343 1.95696E+00 2.15644E-02-1.60534E-03
 -1      6344 1.95739E+00 2.13218E-02-1.32729E-03
 -1      6345 3.83375E-01-8.81280E-02-7.61837E-02
 -1      6346 8.52182E-02-1.13378E-01 8.26508E-03
 -1      6347 1.95873E+00 2.50071E-02-3.14132E-04
 -1      6348 7.78202E-01 1.55491E-01 7.29595E-02
 -1      6349 7.16157E-01 1.54054E-01 7.35170E-02
 -1      6350 7.07650E-01 1.38819E-01 4.32682E-02
 -1      6351 7.17447E-01 1.20531E-01 6.48508E-02
 -1      6352 7.79512E-01 1.21559E-01 6.44496E-02
 -1      6353 8.00952E-02-9.74738E-02-8.00907E-03
 -1      6354 6.85802E-02-7.34283E-02-5.64052E-03
 -1      6355 7.34868E-01-1.14794E-02-6.72547E-02
 -1      6356 5.23294E-02-1.30647E-02-3.26305E-02
 -1      6357 5.85055E-02 7.39268E-03-3.50520E-02
 -1      6358 1.16316E-02-6.94543E-03 1.10708E-03
 -1      6359 1.95670E+00 2.15352E-02-1.78456E-03
 -1      6360 1.81133E+00-4.47663E-02 3.60073E-02
 -1      6361 7.90727E-01 1.43595E-01 2.36727E-02
 -1      6362 4.50998E-03 4.87451E-03-7.40893E-04
 -1      6363 4.50912E-03 4.87411E-03 7.43241E-04
 -1      6364 1.96392E+00 2.19537E-02 3.12211E-03
 -1      6365 3.85238E-01 3.90154E-02 6.67656E-02
 -1      6366 3.49519E-01 2.35209E-02 6.55615E-02
 -1      6367 1.96365E+00 1.96466E-02 2.87390E-03
 -1      6368 1.96317E+00 1.95390E-02 2.53957E-03
 -1      6369 4.20819E-01-1.23205E-01-6.91363E-02
 -1      6370 4.36684E-01-1.11330E-01-2.76738E-02
 -1      6371 1.96110E+00 2.54335E-02 1.30836E-03
 -1      6372 1.96112E+00 2.46748E-02 1.30199E-03
 -1      6373 1.96165E+00 2.52291E-02 1.67480E-03
 -1      6374 1.95663E+00 2.37121E-02-1.76770E-03
 -1      6375 1.96383E+00 2.21742E-02 3.06878E-03
 -1      6376 1.96410E+00 2.23203E-02 3.25683E-03
 -1      6377 7.95079E-01 1.41716E-01-3.01540E-02
 -1      6378 1.74465E-01 1.39819E-01-3.24289E-02
 -1      6379 1.75134E-01 1.36972E-01-3.52839E-02
 -1      6380 1.96309E+00 2.44944E-02 2.62892E-03
 -1      6381 1.96352E+00 2.52168E-02 2.94801E-03
 -1      6382 4.24681E-02-5.80851E-03-3.07708E-03
 -1      6383 1.70379E-02-6.77878E-03 9.03872E-04
 -1      6384 3.08488E-01-1.09740E-01-2.84711E-02
 -1      6385 1.96193E+00 1.94505E-02 1.69596E-03
 -1      6386 1.96151E+00 1.99757E-02 1.42853E-03
 -1      6387 7.41691E-01 1.38809E-01-9.59085E-03
 -1      6388 7.70440E-01 1.06758E-01 7.31218E-03
 -1      6389 1.96080E+00 2.47771E-02 1.08807E-03
 -1      6390 1.96044E+00 2.52145E-02 8.55505E-04
 -1      6391 1.95922E+00 2.52448E-02 2.81877E-05
 -1      6392 1.95967E+00 2.46375E-02 3.18213E-04
 -1      6393 1.95974E+00 2.53941E-02 3.80906E-04
 -1      6394 1.96108E+00 2.59966E-02 1.31210E-03
 -1      6395 2.02582E-01-8.63423E-02-5.65089E-02
 -1      6396 1.95669E+00 2.22909E-02-1.76739E-03
 -1      6397 1.95742E+00 2.23561E-02-1.27320E-03
 -1      6398 1.95683E+00 2.28343E-02-1.66065E-03
 -1      6399 7.13960E-01-1.41107E-01-6.55061E-02
 -1      6400 6.55984E-01-9.85620E-02-6.73807E-02
 -1      6401 1.96293E+00 2.36029E-02 2.49557E-03
 -1      6402 1.96358E+00 2.37956E-02 2.94824E-03
 -1      6403 1.96354E+00 2.08933E-02 2.83572E-03
 -1      6404 8.97324E-01 1.61257E-01-6.92529E-02
 -1      6405 8.41186E-01 1.22344E-01-5.67293E-02
 -1      6406 2.49386E-01-1.31211E-01-5.77786E-02
 -1      6407 1.96464E+00-1.92944E-03-5.29445E-04
 -1      6408 1.96159E+00 2.66297E-02 1.67438E-03
 -1      6409 1.96315E+00 2.00819E-02 2.54196E-03
 -1      6410 1.96339E+00 2.00608E-02 2.70661E-03
 -1      6411 1.96385E+00 1.99065E-02 3.01558E-03
 -1      6412 4.21115E-01-1.23376E-01 6.92464E-02
 -1      6413 4.02225E-01-1.09365E-01 3.82316E-02
 -1      6414 1.85263E+00 1.81194E-02 3.48683E-02
 -1      6415 6.65695E-01 1.37549E-01 7.43267E-02
 -1      6416 3.05510E-01 1.07607E-01 2.44159E-02
 -1      6417 1.96324E+00 1.49568E-02 2.10909E-03
 -1      6418 4.73914E-02 1.03431E-02 3.46601E-03
 -1      6419 4.73910E-02 1.03472E-02-3.47547E-03
 -1      6420 1.95845E+00 2.31668E-02-2.03783E-03
 -1      6421 1.96314E+00 2.32229E-02 2.63272E-03
 -1      6422 1.96317E+00 2.00109E-02 2.55765E-03
 -1      6423 1.96345E+00 2.04307E-02 2.76094E-03
 -1      6424 1.96349E+00 2.22377E-02 2.83787E-03
 -1      6425 1.96418E+00 2.22825E-02 3.30971E-03
 -1      6426 1.87660E+00 2.27456E-02-2.88469E-02
 -1      6427 2.89315E-02-1.65150E-03-4.02595E-06
 -1      6428 3.77923E-01-2.72518E-02 6.56333E-02
 -1      6429 1.89407E+00 3.42184E-02-4.27556E-03
 -1      6430 2.86021E-01-1.14610E-01-1.55063E-02
 -1      6431 2.87015E-01-1.14174E-01 1.22093E-02
 -1      6432 2.92198E-01-1.21812E-01-6.82712E-02
 -1      6433 1.70021E+00-1.23639E-01-4.73395E-02
 -1      6434 1.84540E+00-6.94291E-02-6.39244E-02
 -1      6435 3.30567E-01-1.11973E-01 7.38804E-02
 -1      6436 1.96211E+00 2.64479E-02 2.02048E-03
 -1      6437 1.96207E+00 2.55779E-02 1.97337E-03
 -1      6438 1.96256E+00 2.61875E-02 2.32014E-03
 -1      6439 1.96362E+00 2.09376E-02 2.89192E-03
 -1      6440 3.41443E-01 1.11673E-01-7.38967E-02
 -1      6441 1.96160E+00 2.58150E-02 1.65823E-03
 -1      6442 1.96380E+00 2.16113E-02 3.02988E-03
 -1      6443 6.13276E-01-1.33438E-01-7.05580E-02
 -1      6444 9.87474E-02-1.32350E-01-1.16478E-02
 -1      6445 1.96164E+00 2.44932E-02 1.64808E-03
 -1      6446 1.96217E+00 2.50474E-02 2.02093E-03
 -1      6447 1.96376E+00 2.16438E-02 3.00639E-03
 -1      6448 5.64628E-02-3.84085E-02 2.93941E-02
 -1      6449 1.87547E+00 2.24516E-02 2.73397E-02
 -1      6450 9.59448E-01-1.46149E-01 7.23374E-02
 -1      6451 1.02208E+00-1.11433E-01 5.60550E-02
 -1      6452 1.02908E+00-1.49457E-01 5.55806E-02
 -1      6453 1.38711E+00 1.70449E-01-4.41559E-02
 -1      6454 1.31481E+00 1.67911E-01-6.18654E-02
 -1      6455 1.96201E+00 2.44068E-02 1.89308E-03
 -1      6456 1.96262E+00 2.47662E-02 2.32031E-03
 -1      6457 1.95797E+00 1.91870E-02-9.95649E-04
 -1      6458 1.96385E+00 2.33477E-02 3.11556E-03
 -1      6459 1.16813E+00-1.57824E-01-2.46511E-02
 -1      6460 1.95696E+00 2.18669E-02-1.59732E-03
 -1      6461 1.59691E+00 1.79606E-01 5.99768E-02
 -1      6462 1.49707E-01 1.39063E-01-2.68643E-02
 -1      6463 1.96379E+00 2.47485E-02 3.11518E-03
 -1      6464 2.80413E-03-3.43868E-03-6.39079E-04
 -1      6465 1.96403E+00 2.28001E-02 3.22415E-03
 -1      6466 1.96333E+00 2.26754E-02 2.74127E-03
 -1      6467 2.46353E-01-1.19355E-01 4.94646E-02
 -1      6468 8.04198E-01 1.56870E-01-6.73741E-02
 -1      6469 1.95691E+00 2.29586E-02-1.59812E-03
 -1      6470 1.87759E+00 4.31625E-02 2.22424E-02
 -1      6471 1.95485E+00 5.49287E-02 9.68324E-03
 -1      6472 7.57565E-02 6.33012E-02 5.79903E-03
 -1      6473 2.08568E-01 8.16378E-02-5.56227E-02
 -1      6474 1.95732E+00 2.33880E-02-1.30957E-03
 -1      6475 9.93850E-01-7.58506E-02 5.66598E-02
 -1      6476 1.12672E+00-1.61961E-01-6.50996E-02
 -1      6477 7.44998E-01-6.70765E-02 7.20666E-02
 -1      6478 6.01908E-01-1.32959E-01 6.36693E-02
 -1      6479 2.71890E-01-1.18214E-01-3.82409E-02
 -1      6480 1.89213E+00-1.90891E-02-2.09833E-02
 -1      6481 1.95689E+00 2.29637E-02-1.61330E-03
 -1      6482 1.81566E+00 6.60808E-02 4.08423E-02
 -1      6483 1.85345E+00 7.63319E-02 5.71384E-02
 -1      6484 9.54086E-01-5.10775E-02 5.68184E-02
 -1      6485 1.95665E+00 2.23980E-02-1.79214E-03
 -1      6486 1.95733E+00 2.26318E-02-1.32678E-03
 -1      6487 1.95775E+00 2.07783E-02-1.10038E-03
 -1      6488 1.95787E+00 2.11620E-02-1.00661E-03
 -1      6489 1.95725E+00 2.08880E-02-1.42875E-03
 -1      6490 1.67456E+00 1.53876E-01 5.86453E-02
 -1      6491 3.56660E-01 1.10031E-01 1.64264E-02
 -1      6492 1.95872E+00 1.84296E-02-5.00709E-04
 -1      6493 1.95875E+00 1.78194E-02-5.09556E-04
 -1      6494 1.21606E+00-1.60622E-01-5.15516E-02
 -1      6495 1.95746E+00 2.19100E-02-1.26311E-03
 -1      6496 2.98717E-01 1.17166E-01 5.95304E-02
 -1      6497 2.69608E-01 1.18085E-01 3.52868E-02
 -1      6498 6.10466E-03 1.69132E-03 2.46096E-04
 -1      6499 1.96251E+00 1.48620E-02 1.55812E-03
 -1      6500 1.67468E-01 1.34245E-01-3.47821E-02
 -1      6501 1.46561E-01 1.40018E-01-2.79070E-02
 -1      6502 1.53185E-01 1.32436E-01-1.95719E-02
 -1      6503 7.64121E-02 6.73043E-02-2.36599E-02
 -1      6504 4.74194E-02-1.05784E-02 3.26848E-03
 -1      6505 3.11280E-01-1.08813E-01 2.53155E-02
 -1      6506 1.95680E+00 2.18922E-02-1.70818E-03
 -1      6507 3.13860E-01-1.15482E-01 7.29848E-02
 -1      6508 3.66978E-01 1.11451E-01-7.70081E-02
 -1      6509 1.95704E+00 1.99180E-02-1.59879E-03
 -1      6510 1.96263E+00 1.84865E-02 2.13451E-03
 -1      6511 1.95698E+00 2.13387E-02-1.59957E-03
 -1      6512 3.42822E-01-1.08748E-01 1.41141E-02
 -1      6513 3.34800E-01-1.10924E-01 4.40507E-02
 -1      6514 1.95731E+00 1.94412E-02-1.42780E-03
 -1      6515 1.95768E+00 2.04097E-02-1.15449E-03
 -1      6516 1.95797E+00 1.97954E-02-9.74944E-04
 -1      6517 1.96316E+00 1.41035E-02 1.62105E-03
 -1      6518 1.95878E+00 1.70594E-02-5.63623E-04
 -1      6519 1.53135E+00 1.85713E-01-5.47074E-02
 -1      6520 2.06103E-01 1.28470E-01 4.05897E-02
 -1      6521 2.49164E-01 1.22072E-01 5.12910E-02
 -1      6522 1.54578E-01 1.34601E-01 2.94484E-02
 -1      6523 3.44203E-01-1.08405E-01-1.76155E-02
 -1      6524 1.96211E+00 1.86361E-02 1.79797E-03
 -1      6525 2.95672E-01 1.13224E-01 1.40625E-02
 -1      6526 3.09996E-01-1.15982E-01-7.28457E-02
 -1      6527 3.36420E-01-1.14480E-01-7.85353E-02
 -1      6528 1.67258E+00 1.53399E-01-5.56725E-02
 -1      6529 3.07653E-01-5.75056E-02 3.49909E-03
 -1      6530 3.21956E-01-3.90861E-02-2.62918E-03
 -1      6531 5.33528E-02-2.90240E-02 2.48435E-03
 -1      6532 1.80357E+00 9.81759E-02 1.48435E-02
 -1      6533 2.69310E-01 5.42944E-02 6.01701E-03
 -1      6534 9.25690E-01-6.80749E-02 8.33965E-03
 -1      6535 4.15803E-01 2.25332E-02 4.89238E-02
 -1      6536 2.10620E-01-4.87470E-02-6.49139E-02
 -1      6537 1.96253E+00 1.11150E-02 6.79955E-04
 -1      6538 1.13647E+00 1.75244E-02-4.92442E-02
 -1      6539 6.11383E-01-5.08563E-02 7.27553E-02
 -1      6540 2.28156E-03-2.81663E-03-5.63883E-07
 -1      6541 1.96150E+00 1.50053E-02 1.35226E-03
 -1      6542 1.35193E+00-1.47577E-02 4.82240E-02
 -1      6543 1.35216E+00-1.46719E-02-5.09112E-02
 -1      6544 1.96110E+00 1.47921E-02 1.04756E-03
 -1      6545 1.07419E-02 2.06683E-03 1.54295E-04
 -1      6546 8.15879E-01-6.54506E-02 7.18610E-02
 -1      6547 7.71643E-01-4.25128E-02 7.20511E-02
 -1      6548 1.21770E-03-1.78733E-04 1.18385E-04
 -1      6549 4.17592E-02 7.77064E-03 1.18577E-03
 -1      6550 4.13068E-02 7.51172E-03-1.09731E-05
 -1      6551 4.17596E-02 7.76807E-03-1.20641E-03
 -1      6552 1.96230E+00 1.33032E-02 1.48102E-03
 -1      6553 1.96073E+00 1.75152E-02 9.24488E-04
 -1      6554 1.62739E+00 1.56839E-01 2.55555E-02
 -1      6555 1.80236E+00 9.96211E-02 4.43741E-02
 -1      6556 1.15585E-01 1.11849E-01-2.02139E-02
 -1      6557 1.55507E+00 6.55638E-02 5.49103E-02
 -1      6558 8.55211E-01 1.23211E-01 2.39110E-02
 -1      6559 1.55562E+00 6.55661E-02-5.19252E-02
 -1      6560 3.64724E-01-9.14874E-02-2.95932E-02
 -1      6561 1.96593E+00 3.68271E-03 2.24148E-03
 -1      6562 8.21460E-01 1.01354E-01 6.43504E-02
 -1      6563 4.60761E-01-8.77833E-02-7.74106E-02
 -1      6564 4.33818E-01-2.97378E-02 6.53168E-02
 -1      6565 4.12179E-01 6.41505E-02 6.66802E-02
 -1      6566 1.97526E+00 6.48281E-03 2.08639E-05
 -1      6567 1.95184E+00 3.57224E-02 4.95665E-03
 -1      6568 1.95795E+00 2.04240E-02-9.75901E-04
 -1      6569 3.87111E-03 4.29657E-03-2.15533E-04
 -1      6570 3.15076E-01-9.25584E-02 6.54507E-02
 -1      6571 1.96194E+00 1.60462E-02 1.50194E-03
 -1      6572 1.95901E+00 1.70757E-02-3.80269E-04
 -1      6573 1.96201E+00 1.77518E-02 1.67314E-03
 -1      6574 2.21724E-01-1.20386E-01 1.98994E-02
 -1      6575 1.88635E-02 5.62500E-03 4.94481E-04
 -1      6576 6.25387E-01-5.88076E-02-4.79779E-02
 -1      6577 1.95828E+00 2.50204E-02-6.15329E-04
 -1      6578 5.29248E-01 1.16172E-01-1.47706E-02
 -1      6579 2.48513E-01-6.79226E-03 4.89210E-02
 -1      6580 1.96270E+00 1.94148E-02 2.21740E-03
 -1      6581 1.96294E+00 1.94351E-02 2.37967E-03
 -1      6582 4.36033E-01 1.09882E-01 2.32195E-02
 -1      6583 1.95066E+00-2.36365E-02 1.27726E-03
 -1      6584 1.95914E+00 2.53450E-02-2.49343E-05
 -1      6585 1.25010E-02-5.74445E-03 6.84180E-04
 -1      6586 1.95888E+00 1.85831E-02-4.08498E-04
 -1      6587 1.96195E+00 1.91224E-02 1.70215E-03
 -1      6588 1.96374E+00 2.28864E-02 3.02489E-03
 -1      6589 8.53802E-02-9.65135E-02 1.12206E-02
 -1      6590 3.93849E-01 9.14921E-02-6.66899E-02
 -1      6591 1.96071E+00 2.58042E-02 1.05581E-03
 -1      6592 1.96309E+00 2.47060E-02 2.63484E-03
 -1      6593 1.96202E+00 8.26305E-03 2.08883E-04
 -1      6594 1.98107E+00 2.00393E-02 4.25823E-04
 -1      6595 2.07310E-01 1.18796E-01 5.49809E-02
 -1      6596 1.81690E+00 4.15008E-02-8.38865E-02
 -1      6597 1.96249E+00 1.94211E-02 2.07564E-03
 -1      6598 1.95882E+00 1.98452E-02-4.01777E-04
 -1      6599 6.75630E-02-6.75544E-02 4.58151E-03
 -1      6600 1.95772E+00 2.46286E-02-1.00361E-03
 -1      6601 1.96328E+00 2.04152E-02 2.64428E-03
 -1      6602 2.48917E-01 8.16167E-02-5.82338E-02
 -1      6603 2.64740E-02-2.87197E-03-6.50675E-04
 -1      6604 2.64725E-02-2.87095E-03 6.40370E-04
 -1      6605 1.95672E+00 2.18815E-02-1.75715E-03
 -1      6606 9.57218E-03 6.23608E-03 3.11504E-04
 -1      6607 9.57332E-03 6.23565E-03-3.22613E-04
 -1      6608 1.95704E+00 2.16558E-02-1.55060E-03
 -1      6609 1.96306E+00 2.08555E-02 2.50684E-03
 -1      6610 2.85013E-01 1.21797E-01 6.41848E-02
 -1      6611 1.95693E+00 2.25958E-02-1.59813E-03
 -1      6612 1.96383E+00 2.26586E-02 3.08502E-03
 -1      6613 1.90142E+00-1.66017E-02 9.41221E-04
 -1      6614 1.96324E+00 2.41637E-02 2.72503E-03
 -1      6615 1.95751E+00 2.00851E-02-1.27789E-03
 -1      6616 1.46793E+00 1.75813E-01-5.86831E-02
 -1      6617 2.04752E-01 3.88365E-02-6.12339E-02
 -1      6618 4.12470E-02-2.37506E-02 1.76473E-03
 -1      6619 1.95952E+00 1.58837E-02-6.60482E-04
 -1      6620 1.96823E+00 5.47346E-02 3.77071E-03
 -1      6621 1.95762E+00 2.29450E-02-1.11956E-03
 -1      6622 1.96351E+00 2.09917E-02 2.81621E-03
 -1      6623 1.95764E+00 2.13568E-02-1.15464E-03
 -1      6624 1.96334E+00 2.04851E-02 2.68522E-03
 -1      6625 1.95928E+00 2.45125E-02 4.62448E-05
 -1      6626 1.96010E+00 2.50675E-02 6.16944E-04
 -1      6627 1.95887E+00 1.89910E-02-3.90116E-04
 -1      6628 1.95892E+00 1.76197E-02-4.20273E-04
 -1      6629 3.75583E-01-1.08443E-01-8.00683E-02
 -1      6630 1.96202E+00 1.82116E-02 1.72233E-03
 -1      6631 6.40382E-02 6.67358E-02 5.91864E-03
 -1      6632 2.39024E-01-2.83712E-02-6.73824E-02
 -1      6633 8.97787E-01-1.37349E-02-1.02157E-02
 -1      6634 9.30112E-01-4.76907E-02-4.83491E-02
 -1      6635 7.42548E-02-7.80312E-02 4.42680E-05
 -1      6636 1.99941E-01 1.31563E-01 3.58168E-02
 -1      6637 1.29679E+00-9.62821E-02 4.16623E-02
 -1      6638 3.38610E-01 8.98997E-02 6.77614E-02
 -1      6639 1.95900E+00 1.74995E-02-3.58537E-04
 -1      6640 1.96238E+00 1.94663E-02 1.99693E-03
 -1      6641 1.10297E+00-1.35327E-02 4.64208E-02
 -1      6642 2.22361E-01 1.25582E-01-5.10118E-02
 -1      6643 2.46744E-01-1.19567E-01-4.97516E-02
 -1      6644 3.61865E-01-1.14326E-01 6.60641E-02
 -1      6645 1.54776E-01-1.29650E-01 2.31060E-02
 -1      6646 6.75433E-01-7.95100E-02 5.42693E-03
 -1      6647 7.55336E-01-1.31641E-01-1.10313E-03
 -1      6648 7.56914E-02 6.32479E-02-5.70762E-03
 -1      6649 4.89581E-01-5.52839E-02-6.00678E-02
 -1      6650 9.17195E-01 3.46476E-02 6.47538E-02
 -1      6651 4.52668E-01-1.17742E-01 2.20767E-02
 -1      6652 6.30353E-02 6.31203E-02-1.49496E-02
 -1      6653 7.59870E-02-8.13319E-02-6.83291E-03
 -1      6654 8.51021E-01-5.69345E-02 3.38861E-02
 -1      6655 1.95811E+00 2.04500E-02-8.64084E-04
 -1      6656 3.87141E-03 4.29552E-03 2.11899E-04
 -1      6657 1.62337E+00 1.56568E-01-2.30160E-02
 -1      6658 8.18464E-01-7.85855E-02-4.83685E-02
 -1      6659 2.22526E-01 2.36779E-02 5.69367E-02
 -1      6660 1.96166E+00 7.84365E-03 3.72959E-04
 -1      6661 1.95691E+00-1.03995E-02-2.88676E-03
 -1      6662 1.96384E+00 2.26794E-02 3.09034E-03
 -1      6663 1.21464E-01 1.38722E-01-1.96997E-02
 -1      6664 7.48910E-02 8.60565E-02 6.54893E-03
 -1      6665 4.01192E-01-1.09073E-01 4.75272E-03
 -1      6666 1.59641E+00 1.79074E-01-5.87338E-02
 -3
    1PSTEP                         2           1           1          
  100CL  101 1.000000000        6666                     0    1           1
 -4  STRESS      6    1
 -5  SXX         1    4    1    1
 -5  SYY         1    4    2    2
 -5  SZZ         1    4    3    3
 -5  SXY         1    4    1    2
 -5  SYZ         1    4    2    3
 -5  SZX         1    4    3    1
 -1         1 2.46578E+01 5.68123E+01-8.30060E+00-4.92160E+01-1.25669E+01 7.58704E+00
 -1         2 2.63631E+01 5.50770E+01-6.89334E+00 4.75052E+01 1.30455E+01 7.06756E+00
 -1         3 2.68531E+01 5.74846E+01-7.10590E+00-5.01465E+01 1.24143E+01-7.59971E+00
 -1         4 2.29444E+01 5.90435E+01-1.06327E+01 5.09118E+01-1.26202E+01-7.27054E+00
 -1         5 2.43010E+02 7.01828E+00 6.89585E+00-2.92888E+01 4.14576E+00-4.97948E+00
 -1         6 2.43585E+02 1.19223E+01 8.33914E+00 3.16838E+01-3.92934E+00-3.45433E+00
 -1         7-1.49660E-02 6.27431E-03 1.87965E-03 4.80393E-04 1.25476E-03 1.58325E-03
 -1         8-1.66132E-02 4.60150E-03 8.29687E-04 9.87187E-05-2.01856E-03 7.33894E-04
 -1         9-2.21630E+01 3.24816E+01 9.83554E-01 2.70725E-01-7.36790E-02 3.76808E-01
 -1        10 2.41291E+02 1.27505E+02 1.32516E+02-4.61841E-01-1.09850E-01 7.20400E+01
 -1        11-1.36209E-06-2.40126E-04 3.27128E-06-6.78361E-07 1.59408E-06-1.91406E-06
 -1        12 2.41846E+02 2.16098E+01 1.06159E+01-4.05430E+01-1.76139E+00 1.53907E+00
 -1        13 2.35352E+02 2.01852E+01 8.83610E+00 4.19172E+01 2.39333E+00 2.65244E+00
 -1        14-1.65511E-02 6.55423E-03 2.09564E-03-1.45191E-04-1.06334E-03-1.65103E-03
 -1        15-1.66536E-02 4.41402E-03 1.56301E-04 7.56070E-04 2.39335E-03 6.14350E-04
 -1        16-2.21932E+01 3.34238E+01 9.34450E-01 9.11160E-03 1.05650E-01-2.72970E-01
 -1        17 2.22944E+02 1.07690E+02 9.87045E+01-8.37228E-01 1.03976E+00-5.92907E+01
 -1        18-4.87255E-06-2.14620E-04 1.22035E-06 1.22257E-05 7.85874E-06-3.71002E-07
 -1        19 1.16420E+00 1.82873E+01 3.85375E-01-9.56788E+00 2.07606E+00-1.51438E+00
 -1        20 4.79971E+00 1.05428E+01 1.94437E-01-8.39961E+00 1.11098E+00-2.89829E-01
 -1        21 8.81659E+00 7.82992E+00 5.18756E-02-8.76896E+00 3.56743E-01-3.88363E-01
 -1        22 1.35006E+01 3.99406E+00-2.15180E-02-7.42492E+00 9.60037E-02-1.98571E-01
 -1        23 1.40650E+01 1.59022E+00-2.47707E-02-4.78932E+00-2.02829E-02-3.13101E-02
 -1        24 1.26916E+01 2.03098E-01-3.10544E-02-2.07730E+00-4.31885E-02-9.02962E-03
 -1        25 1.04912E+01 7.06472E-04 8.00465E-03-6.44317E-02 1.36737E-02 3.80397E-02
 -1        26 8.10358E+00 1.39395E-01-2.41041E-02 1.28497E+00-2.37109E-02 6.79969E-03
 -1        27 5.90509E+00 5.99157E-01-8.73567E-03 1.90753E+00 7.89333E-03 3.53962E-02
 -1        28 4.06184E+00 1.04098E+00 8.45075E-04 2.05787E+00 3.38920E-04-7.06186E-03
 -1        29 2.64897E+00 1.39613E+00-5.88133E-03 1.95391E+00 5.18120E-03 8.18367E-03
 -1        30 1.61940E+00 1.59389E+00-5.48938E-03 1.61139E+00-2.24348E-03 1.19059E-03
 -1        31 9.14095E-01 1.74759E+00-6.05156E-03 1.27569E+00 1.64669E-03 1.81044E-03
 -1        32 4.59981E-01 1.76729E+00-1.73671E-03 9.07048E-01 2.93120E-03-7.29676E-04
 -1        33 1.81380E-01 1.75171E+00-3.71159E-03 5.72323E-01-3.59860E-03-3.79270E-04
 -1        34 2.77918E-02 1.74712E+00-1.69872E-03 2.73395E-01 4.23353E-03 2.10848E-03
 -1        35-2.59877E-04 1.71532E+00 4.58989E-04-1.44077E-04-2.56439E-03-1.14468E-03
 -1        36 3.24240E-02 1.74739E+00-4.66381E-03-2.75813E-01-8.69274E-04 1.09428E-03
 -1        37 1.85913E-01 1.75771E+00 1.00959E-03-5.72279E-01 2.94772E-03-3.00889E-03
 -1        38 4.60170E-01 1.77106E+00-1.65004E-03-9.08343E-01-6.18277E-03 4.12345E-03
 -1        39 9.12372E-01 1.74419E+00-6.70581E-03-1.27513E+00 1.00670E-03 3.65604E-03
 -1        40 1.62079E+00 1.59767E+00-5.60690E-04-1.61306E+00-2.32853E-03 2.12137E-03
 -1        41 2.65314E+00 1.39754E+00-6.18815E-03-1.95585E+00-6.35675E-03 8.80370E-03
 -1        42 4.07144E+00 1.05210E+00 4.42463E-04-2.06338E+00-4.10352E-03-8.13934E-03
 -1        43 5.88854E+00 5.84292E-01-1.00529E-02-1.89350E+00 1.19044E-02 2.02323E-02
 -1        44 8.15013E+00 1.65791E-01-5.13825E-03-1.30675E+00 1.61702E-03 2.02617E-02
 -1        45 1.04519E+01-1.52072E-02-1.96496E-02 7.18920E-02 1.25940E-02 1.75341E-03
 -1        46 1.28500E+01 2.37074E-01-1.84535E-02 2.08642E+00 2.80272E-03 2.65939E-02
 -1        47 1.39187E+01 1.53071E+00-3.73991E-02 4.77659E+00 6.88196E-03-6.78693E-02
 -1        48 1.35119E+01 4.09683E+00-2.14396E-03 7.52199E+00-1.60148E-01-1.55914E-01
 -1        49 9.33439E+00 8.22219E+00 1.97173E-02 8.75208E+00-6.52658E-01-3.87872E-01
 -1        50 4.73106E+00 1.05787E+01 5.92252E-02 8.26423E+00-1.19128E+00-8.68211E-01
 -1        51 1.53538E+00 1.79553E+01 1.88194E-01 9.96828E+00-1.43075E+00-1.47681E+00
 -1        52 1.09370E+01 3.00640E+01-1.63478E-01-1.71321E+01-2.01265E+00-5.26839E-01
 -1        53 3.72501E+00 1.31415E+01-3.61947E-01-8.87989E+00 2.23146E+00-2.92957E-01
 -1        54 8.45897E+00 9.56269E+00 3.19523E-01-8.77057E+00 1.01103E+00-5.59181E-01
 -1        55 1.12022E+01 5.54135E+00-4.06067E-01-8.32914E+00 4.38661E-02-4.51295E-01
 -1        56 1.38397E+01 2.81390E+00-4.71709E-02-6.11994E+00 1.42149E-02-8.26446E-02
 -1        57 1.35281E+01 9.98491E-01 7.20501E-02-3.43353E+00 1.07777E-02-1.12609E-02
 -1        58 1.15143E+01-6.09631E-02-5.55628E-02-1.01742E+00-4.04291E-02 7.27249E-03
 -1        59 9.33874E+00 1.71502E-01 1.68872E-02 6.16375E-01-4.19280E-03 2.41459E-02
 -1        60 6.88551E+00 2.73305E-01-7.85253E-02 1.62673E+00-7.33674E-03 1.01181E-02
 -1        61 4.97148E+00 8.26069E-01-8.12346E-03 1.99122E+00-2.38760E-03 2.47764E-02
 -1        62 3.34735E+00 1.22464E+00 3.59203E-03 1.98885E+00 3.01866E-03 4.49167E-03
 -1        63 2.07791E+00 1.48420E+00-1.77540E-02 1.79831E+00-3.38484E-03 2.33557E-03
 -1        64 1.28486E+00 1.67909E+00 1.79685E-03 1.43452E+00 7.29863E-04 3.34161E-03
 -1        65 6.60440E-01 1.74880E+00-1.63888E-02 1.08573E+00-4.34669E-03 6.48573E-03
 -1        66 3.08080E-01 1.75427E+00-5.33466E-03 7.38312E-01 2.24670E-03-1.42847E-03
 -1        67 9.91120E-02 1.73449E+00-3.08574E-03 4.24742E-01 1.35161E-04-1.39992E-03
 -1        68 9.65291E-03 1.73136E+00-3.40168E-03 1.29102E-01 3.80253E-04 1.50051E-03
 -1        69 9.76713E-03 1.72461E+00-4.71330E-03-1.31125E-01 9.04660E-04 4.46765E-04
 -1        70 1.06136E-01 1.74281E+00-4.18632E-03-4.24781E-01-7.81908E-04 9.71209E-05
 -1        71 3.19310E-01 1.76453E+00-1.89081E-03-7.38128E-01-1.84689E-03 5.03932E-03
 -1        72 6.50815E-01 1.74117E+00-1.91795E-02-1.08711E+00-1.28946E-04 2.83455E-03
 -1        73 1.28765E+00 1.68444E+00 6.02136E-03-1.43647E+00-1.58437E-03 3.69700E-03
 -1        74 2.07872E+00 1.48573E+00-1.97736E-02-1.79852E+00 3.91797E-03 4.08348E-03
 -1        75 3.34643E+00 1.22413E+00 3.94146E-04-1.99518E+00-1.32149E-02 1.90535E-04
 -1        76 4.97544E+00 8.34244E-01-3.37631E-03-1.98486E+00 1.89342E-02 2.65020E-02
 -1        77 6.94347E+00 3.19259E-01-3.85392E-02-1.64032E+00 1.40995E-02 1.49488E-02
 -1        78 9.30802E+00 1.50036E-01 6.40910E-03-6.12760E-01 1.32166E-03 7.67641E-03
 -1        79 1.16310E+01-5.85924E-02-6.01392E-02 1.02679E+00 1.50638E-02 9.46802E-03
 -1        80 1.34977E+01 1.01841E+00 4.76732E-02 3.39926E+00-1.86949E-03-1.68989E-02
 -1        81 1.38680E+01 2.71926E+00-1.14091E-01 6.24365E+00-1.34338E-01-9.67904E-02
 -1        82 1.14837E+01 5.89533E+00-1.62659E-01 8.11693E+00-3.59870E-01-4.00403E-01
 -1        83 8.44471E+00 9.88738E+00 3.18581E-01 8.90812E+00-9.76892E-01-6.90366E-01
 -1        84 4.52753E+00 1.32817E+01-2.03631E-01 8.98683E+00-1.70744E+00-8.25384E-01
 -1        85 1.03830E+01 2.88177E+01-9.43445E-01 1.76989E+01 2.65025E+00-1.47967E-01
 -1        86 8.44118E+01 5.73696E+01 4.08745E-02-7.24645E+01-7.11504E+00 4.18631E+00
 -1        87 7.70318E+01 5.85202E+01-2.29353E+00-7.06021E+01 6.59179E+00-3.54140E+00
 -1        88 4.06818E+01 7.07873E+01-5.99104E+00-5.90821E+01-1.39354E+01 9.47135E+00
 -1        89 8.56358E+01 4.90788E+01-2.67536E+00-7.46042E+01 3.72369E-01-1.22301E+00
 -1        90 3.94341E+01 7.04337E+01-7.04626E+00-5.85328E+01 1.28930E+01-8.34242E+00
 -1        91 8.68076E+01 6.10891E+01 1.52707E+00 7.14044E+01 7.48582E+00 3.93026E+00
 -1        92 9.38543E+01 5.90294E+01 2.70594E+00 7.14291E+01-6.70324E+00-5.05023E+00
 -1        93 3.43684E+01 7.14429E+01-7.61841E+00 5.64565E+01 1.49265E+01 8.21579E+00
 -1        94 8.33219E+01 4.50095E+01-6.80182E+00 6.93854E+01-6.66825E-01 6.45887E-01
 -1        95 4.18556E+01 7.70013E+01-3.80718E+00 5.91103E+01-1.36343E+01-8.78302E+00
 -1        96 1.16769E+00 1.83105E+01 1.35560E-01-9.92736E+00-1.71591E+00 1.29092E+00
 -1        97 4.37550E+00 1.05339E+01 1.48949E-01-8.09661E+00-1.09448E+00 5.64577E-01
 -1        98 9.13799E+00 7.96730E+00 1.45000E-01-8.77201E+00-4.18732E-01 3.85710E-01
 -1        99 1.35493E+01 4.00768E+00-4.85976E-02-7.46850E+00-1.29072E-01 2.53534E-01
 -1       100 1.40588E+01 1.57177E+00 4.82131E-02-4.75288E+00-4.64257E-02-3.66799E-02
 -1       101 1.26452E+01 2.46128E-01-4.98824E-02-2.09596E+00 2.37278E-02 4.65690E-03
 -1       102 1.05045E+01 1.54086E-02 1.70762E-02-6.62663E-02-2.07670E-02-4.75576E-02
 -1       103 8.10606E+00 1.47728E-01-2.36585E-02 1.28476E+00 2.31275E-02-7.01128E-03
 -1       104 5.91428E+00 5.97515E-01-8.82313E-03 1.90828E+00-7.27660E-03-3.42081E-02
 -1       105 4.06198E+00 1.03971E+00-5.39148E-05 2.05695E+00 1.00685E-03 8.45845E-03
 -1       106 2.64690E+00 1.39879E+00-6.41910E-03 1.95736E+00-5.43736E-03-9.90707E-03
 -1       107 1.61781E+00 1.59197E+00-5.66221E-03 1.60862E+00 1.96374E-03-3.54285E-04
 -1       108 9.12968E-01 1.74833E+00-6.22175E-03 1.27674E+00-1.63134E-03-2.86674E-03
 -1       109 4.60556E-01 1.76922E+00-1.24129E-03 9.07786E-01-2.82464E-03 1.31110E-03
 -1       110 1.81651E-01 1.75101E+00-3.74617E-03 5.72347E-01 3.65253E-03 3.98763E-04
 -1       111 2.69732E-02 1.74698E+00-1.79371E-03 2.73248E-01-3.93765E-03-2.51215E-03
 -1       112 4.81016E-05 1.71432E+00 4.80795E-04-1.50697E-04 2.76055E-03 1.51453E-03
 -1       113 3.47467E-02 1.74820E+00-4.26842E-03-2.75599E-01 9.21816E-04-4.77552E-04
 -1       114 1.80406E-01 1.76315E+00 3.61697E-04-5.73613E-01-6.87858E-04-9.30844E-04
 -1       115 4.60790E-01 1.76611E+00-1.75804E-03-9.07012E-01 4.63283E-03-3.76491E-03
 -1       116 9.15569E-01 1.74247E+00-5.00371E-03-1.27415E+00-1.33810E-04-2.57886E-04
 -1       117 1.62775E+00 1.60003E+00 1.19833E-03-1.61317E+00 3.44357E-03 8.20951E-04
 -1       118 2.65208E+00 1.39811E+00-6.10452E-03-1.95640E+00 6.34536E-03-9.75205E-03
 -1       119 4.07508E+00 1.05228E+00 3.23070E-04-2.06475E+00 3.84705E-03 8.71667E-03
 -1       120 5.88867E+00 5.83636E-01-1.03702E-02-1.89179E+00-1.14427E-02-1.93098E-02
 -1       121 8.14772E+00 1.66793E-01-5.22950E-03-1.30807E+00-1.59903E-03-2.11187E-02
 -1       122 1.04462E+01-1.60402E-02-1.94962E-02 7.24755E-02-1.33919E-02-1.61862E-03
 -1       123 1.28081E+01 2.40470E-01-1.88472E-02 2.08458E+00-3.88188E-03-2.72115E-02
 -1       124 1.38743E+01 1.52381E+00-3.85944E-02 4.75874E+00-8.96064E-03 6.40358E-02
 -1       125 1.35194E+01 4.09538E+00-5.89922E-04 7.53191E+00 1.63749E-01 1.59770E-01
 -1       126 9.25123E+00 8.31613E+00 6.30598E-03 8.77594E+00 6.45882E-01 3.88126E-01
 -1       127 5.33261E+00 1.07351E+01-1.94548E-01 8.52543E+00 1.01394E+00 7.25219E-01
 -1       128 4.79130E-01 1.72361E+01 4.86709E-01 8.06940E+00 2.47678E+00 1.52194E+00
 -1       129 1.11285E+01 2.90998E+01-1.11499E+00-1.79315E+01 1.94598E+00 3.01854E-01
 -1       130 4.32967E+00 1.33951E+01 6.70260E-02-8.77157E+00-1.87884E+00 4.44089E-01
 -1       131 8.62110E+00 1.00319E+01 5.89272E-01-8.66676E+00-1.01535E+00 6.39326E-01
 -1       132 1.13793E+01 5.57800E+00-3.86579E-01-8.35672E+00-5.98675E-02 4.35898E-01
 -1       133 1.37943E+01 2.68001E+00-8.43245E-02-6.17473E+00-1.60215E-01 9.51350E-02
 -1       134 1.35120E+01 1.02012E+00 3.74480E-02-3.37291E+00 1.84811E-03-1.21221E-02
 -1       135 1.14950E+01-4.63160E-02-8.08287E-02-1.05228E+00 4.40746E-03-4.74794E-06
 -1       136 9.35669E+00 2.06009E-01 2.95407E-02 6.07360E-01 5.30769E-03-3.17871E-02
 -1       137 6.89282E+00 2.74484E-01-7.77624E-02 1.62704E+00 6.93939E-03-7.99764E-03
 -1       138 4.97658E+00 8.24713E-01-8.02509E-03 1.99185E+00 2.94278E-03-2.37456E-02
 -1       139 3.34442E+00 1.22121E+00-2.42559E-03 1.99056E+00-2.71618E-03-4.04258E-03
 -1       140 2.07545E+00 1.48604E+00-1.72704E-02 1.79717E+00 2.37124E-03-2.85963E-03
 -1       141 1.28180E+00 1.67624E+00-1.55623E-03 1.43386E+00-7.42140E-04-2.84099E-03
 -1       142 6.61703E-01 1.75046E+00-1.56954E-02 1.08626E+00 4.24005E-03-6.87119E-03
 -1       143 3.08127E-01 1.75451E+00-5.17507E-03 7.38436E-01-2.21835E-03 1.59125E-03
 -1       144 9.95568E-02 1.73458E+00-3.02500E-03 4.24999E-01-1.10593E-04 1.33775E-03
 -1       145 9.48847E-03 1.73048E+00-3.36401E-03 1.28776E-01-3.65923E-04-1.73604E-03
 -1       146 9.34920E-03 1.72388E+00-5.00865E-03-1.31414E-01-8.28091E-04-3.80477E-04
 -1       147 1.04133E-01 1.74743E+00-6.64747E-03-4.25476E-01 3.77273E-03-3.83000E-03
 -1       148 3.14203E-01 1.75918E+00-3.10853E-04-7.38221E-01 7.60146E-04-6.04982E-03
 -1       149 6.54296E-01 1.73949E+00-1.85164E-02-1.08649E+00-8.69463E-04-2.03741E-04
 -1       150 1.29369E+00 1.68661E+00 8.14410E-03-1.43518E+00 3.11574E-03 4.36042E-04
 -1       151 2.08172E+00 1.48780E+00-1.80979E-02-1.79836E+00-3.07795E-03-4.31552E-03
 -1       152 3.34795E+00 1.22469E+00 6.43803E-04-1.99649E+00 1.28103E-02-7.71318E-05
 -1       153 4.97787E+00 8.32927E-01-3.49541E-03-1.98531E+00-1.87420E-02-2.57202E-02
 -1       154 6.94061E+00 3.19100E-01-3.88474E-02-1.63970E+00-1.35782E-02-1.51609E-02
 -1       155 9.30510E+00 1.51500E-01 6.06490E-03-6.13234E-01-1.93111E-03-8.81829E-03
 -1       156 1.16083E+01-5.98291E-02-6.34973E-02 1.02933E+00-1.60089E-02-9.96851E-03
 -1       157 1.34504E+01 1.01950E+00 5.13265E-02 3.38428E+00 1.66836E-03 1.50873E-02
 -1       158 1.38506E+01 2.71010E+00-1.13587E-01 6.23705E+00 1.36370E-01 9.74354E-02
 -1       159 1.14454E+01 5.90883E+00-1.67520E-01 8.12107E+00 3.50674E-01 4.10021E-01
 -1       160 8.53123E+00 9.97085E+00 3.20967E-01 8.98693E+00 9.18750E-01 7.25287E-01
 -1       161 5.83936E+00 1.47580E+01 4.85896E-01 8.25176E+00 1.44410E+00 7.87920E-01
 -1       162 8.45342E+00 2.95711E+01-7.54657E-01 1.73198E+01-2.15226E+00 5.39005E-01
 -1       163 2.00288E+02 6.22736E+01 1.88158E+01-9.63405E+01-6.30249E+00 1.48792E+01
 -1       164 1.11881E+02 8.71136E+01 1.49632E+01-9.24732E+01-1.72951E+01 2.13143E+01
 -1       165 2.81057E+02 4.55495E+01 3.07090E+01-7.54764E+01 3.92054E+00 3.93896E+00
 -1       166 2.17871E+02 7.59934E+01 2.59115E+01 1.09493E+02 6.05635E+00 1.81044E+01
 -1       167 1.18359E+02 8.97815E+01 2.01488E+01 9.23192E+01 1.43391E+01 2.03966E+01
 -1       168 2.91735E+02 6.35266E+01 3.93385E+01 7.90251E+01 1.70935E+00 6.31479E+00
 -1       169 1.88235E+02-1.45234E+00-9.41290E-01-7.48860E+00-3.54852E-01-1.22984E+00
 -1       170 1.87633E+02 1.07429E-02 6.15075E-02-6.84900E+00-5.02304E-02 2.71292E-01
 -1       171 1.87749E+02 5.26216E-01 1.03583E-01-7.27433E+00 8.10906E-02 7.51269E-02
 -1       172 1.83223E+02 8.61954E-01 1.01065E-01-7.44453E+00 2.76482E-01-3.75840E-01
 -1       173 1.65095E+02 9.39004E-01 6.07612E-01-8.84866E+00 3.38566E-01-1.52080E+00
 -1       174 1.24078E+02-1.85433E-01-4.49842E-01-7.76609E+00-4.35290E-01-1.21016E+00
 -1       175 1.05737E+02 6.97283E+00-1.26559E+00 1.00907E+01 3.87904E-01 3.99521E+00
 -1       176 1.22410E+02-5.37745E+00 1.35917E+00 8.09793E+00-1.16249E-01 3.23878E+00
 -1       177 6.33581E+01 1.09743E+00 3.36587E-01-7.82933E+00 2.78950E-01-1.90258E+00
 -1       178 1.57781E+01-9.02715E-02-2.29670E-01-1.91669E+00-1.22935E-01-1.07226E+00
 -1       179 2.16102E+00-1.32810E-01-3.03194E-02-3.71772E-01 2.16390E-01-1.30580E-01
 -1       180-7.70170E-01-4.42395E-02-6.47520E-03 1.36609E-01 6.35259E-02 1.55299E-01
 -1       181-6.95485E-01-3.35490E-02-1.53184E-02 1.68101E-01-6.17233E-03 6.04528E-02
 -1       182-3.17018E-01-6.99980E-03 1.19685E-02 8.07129E-02 3.09372E-03 3.72980E-02
 -1       183-9.77900E-02 6.54097E-04 4.87912E-04 2.03520E-02 8.68932E-04 8.84287E-03
 -1       184 1.99006E+02 3.24778E+00 1.11337E+00-1.36883E+01-9.67179E-01-2.60200E+00
 -1       185 1.87179E+02-2.65923E-01-5.64728E-01-7.43576E+00-3.86306E-01-7.63241E-02
 -1       186 1.87668E+02-8.53378E-03-8.79405E-02-7.03581E+00 1.39320E-02 1.80955E-01
 -1       187 1.87220E+02 1.07370E+00 5.71640E-01-7.36907E+00-1.88532E-02-3.26367E-01
 -1       188 1.76230E+02 2.15595E+00 7.94726E-01-8.02471E+00 3.67237E-01-9.03270E-01
 -1       189 1.47944E+02 1.77646E+00 1.16422E+00-8.55360E+00 1.46489E-01-1.85780E+00
 -1       190 1.08544E+02 1.28530E+00-4.70913E-01-2.58167E+00 6.08662E-01 1.71469E+00
 -1       191 1.15235E+02 1.60787E+00-4.95752E+00 1.42878E+01-7.02166E-01 4.61665E+00
 -1       192 9.32400E+01-1.41837E+00-1.43770E+00-3.32769E+00-7.72581E-01-4.56509E-01
 -1       193 3.28549E+01-3.08908E+00-1.27044E+00-5.04417E+00 5.54181E-01-1.66903E+00
 -1       194 7.27056E+00-7.07645E-01-3.84926E-01-1.42991E+00-7.46292E-02-1.93546E-01
 -1       195 2.41263E-01-2.98808E-01-1.67474E-01-4.50496E-02-1.25526E-02 1.26304E-02
 -1       196-8.02282E-01 3.66936E-03-1.48532E-02 1.42882E-01-1.99001E-02 8.78401E-02
 -1       197-5.36519E-01-2.82873E-02 5.23930E-03 1.30551E-01 6.62073E-03 4.77656E-02
 -1       198-2.04434E-01-1.01515E-02-5.43677E-03 4.37763E-02 4.84371E-04 2.02810E-02
 -1       199-4.56829E-02 1.27763E-02 8.04775E-03 6.21285E-03 3.08866E-04 7.18654E-03
 -1       200 1.89103E+02-1.62084E+00-8.93934E-01 7.16362E+00 2.36601E-01-7.11425E-01
 -1       201 1.88212E+02 3.01524E-01-1.41172E-02 7.08806E+00 2.81802E-02 2.53418E-01
 -1       202 1.88567E+02 3.82971E-01 8.57887E-02 7.36304E+00-2.26678E-02 7.65264E-02
 -1       203 1.84963E+02 4.13685E-01 4.49196E-02 8.15189E+00-9.50241E-02-3.83129E-01
 -1       204 1.67463E+02 5.22929E-01 5.11187E-02 9.61821E+00 1.99819E-01-1.71947E+00
 -1       205 1.24968E+02 2.61222E-01-6.52207E-01 9.10071E+00-8.22264E-01-1.77227E+00
 -1       206 1.00684E+02 1.03738E+01-4.89361E+00-7.65595E+00-8.68121E-01 2.48749E+00
 -1       207 1.22178E+02-2.86298E+00-4.05844E-01-4.81316E+00-2.45878E+00 3.51845E+00
 -1       208 5.99112E+01 1.33607E-01-3.25619E-02 7.44190E+00-1.22885E-02-1.79466E+00
 -1       209 1.57929E+01-6.23975E-01-1.08500E+00 1.35107E+00 1.46475E-01-1.25404E+00
 -1       210 1.83017E+00-1.87825E-01-1.25231E-01 2.34488E-01-4.11233E-02 8.73257E-02
 -1       211-8.29176E-01-1.51810E-01-9.33842E-02-3.02985E-01-7.38791E-03 1.20919E-01
 -1       212-7.35272E-01-3.27370E-02-7.86199E-03-1.72428E-01 1.95198E-02 6.33917E-02
 -1       213-3.73174E-01-3.41581E-02 5.34753E-03-1.20302E-01 3.48171E-03 3.24831E-02
 -1       214-1.21555E-01 9.46581E-04 9.26143E-04-2.53084E-02-1.57838E-03 8.46270E-03
 -1       215 2.00490E+02 4.32105E+00 1.57819E+00 1.40211E+01 9.99503E-01-2.46826E+00
 -1       216 1.88574E+02 4.67754E-01 1.46553E-01 7.49787E+00 3.10763E-02 1.87492E-01
 -1       217 1.88684E+02 2.72785E-01-8.25576E-02 7.21487E+00 4.92371E-02 1.58294E-01
 -1       218 1.87802E+02 5.71887E-01 2.69467E-01 7.78720E+00-3.78622E-02-1.85503E-01
 -1       219 1.76659E+02 3.10572E-01-4.20785E-01 9.15695E+00 4.13033E-02-1.09190E+00
 -1       220 1.46436E+02 1.15610E+00 6.66207E-01 9.30809E+00-7.36303E-01-2.90320E+00
 -1       221 1.10634E+02-2.18021E+00-1.36268E+00 1.36038E+00-3.38956E+00 1.60482E+00
 -1       222 1.17712E+02 1.00192E+01-9.11417E-01-1.32449E+01-1.63791E+00 4.72213E+00
 -1       223 9.10213E+01-2.29345E+00-2.42388E+00 3.55936E+00-5.49461E-01-1.42925E+00
 -1       224 3.33337E+01-2.17500E+00-2.49740E+00 5.02393E+00 3.97681E-01-1.96095E+00
 -1       225 6.49723E+00-9.02591E-01-8.19888E-01 8.41414E-01-1.92307E-01-3.68657E-01
 -1       226 1.93494E-01-5.68191E-01-4.07680E-01-1.17814E-01 1.55307E-01 1.01473E-01
 -1       227-8.96060E-01 2.81638E-02-3.93316E-03-1.78687E-01-1.23704E-02 7.58752E-02
 -1       228-5.30439E-01-3.98490E-02 7.88979E-03-1.44408E-01-1.06688E-02 5.47282E-02
 -1       229-2.39132E-01-1.04508E-02-3.01194E-03-7.38997E-02 3.51604E-03 2.21061E-02
 -1       230-4.91355E-02 9.58624E-03 5.54786E-03-4.50432E-03-8.03854E-04 7.69825E-03
 -1       231 1.04698E-03-6.14539E-05 6.16860E-05 2.40879E-05 3.16197E-04-2.99180E-04
 -1       232 9.30747E-04 3.15026E-04-2.45506E-05-5.42637E-04 3.21826E-05-3.80709E-05
 -1       233 1.28621E-03 1.00896E-04 1.36313E-05-4.14483E-04-2.74160E-05 4.77907E-05
 -1       234 1.20545E-03-4.81653E-05-1.37125E-05 2.64177E-05 3.37154E-06 3.18608E-06
 -1       235 8.56308E-04 6.26308E-05-3.91318E-07 2.59388E-04 1.05726E-06-5.13257E-06
 -1       236 5.47670E-04 1.94341E-04 4.20597E-06 3.26005E-04-3.50631E-06 8.54154E-07
 -1       237 2.57580E-04 3.10119E-04-4.73824E-06 3.01235E-04-1.53042E-06-4.09862E-06
 -1       238 1.01573E-04 3.38645E-04-1.08574E-06 1.86280E-04-6.87736E-06-5.13313E-06
 -1       239 2.14763E-05 3.48763E-04 6.50619E-07 9.07617E-05-2.53750E-06-8.65712E-07
 -1       240-2.23839E-05 3.85750E-04-2.53014E-06-1.91796E-05-2.38506E-06-6.71975E-06
 -1       241 2.61760E-05 3.54525E-04 3.58281E-07-9.36933E-05 6.21208E-07 7.70398E-07
 -1       242 9.76240E-05 3.78000E-04-2.23016E-06-2.03068E-04 8.08591E-06-2.95497E-06
 -1       243 2.74469E-04 3.38764E-04-5.66455E-06-3.28761E-04 4.39413E-06-7.71161E-06
 -1       244 6.00985E-04 2.09657E-04-7.49497E-06-3.74811E-04 1.72230E-07-8.66733E-06
 -1       245 9.39860E-04 8.32861E-05 4.11811E-06-2.79357E-04 6.99355E-06-1.64310E-05
 -1       246 1.27493E-03-5.57574E-05-1.29337E-05-6.99130E-05-7.16842E-06-1.86371E-05
 -1       247 1.33254E-03 6.50645E-05-3.00144E-07 3.77556E-04 9.07850E-06 9.65439E-06
 -1       248 9.07627E-04 2.98624E-04-2.71909E-07 5.40780E-04-1.51394E-05-2.99683E-05
 -1       249 1.07712E-03-1.65943E-04 1.29673E-04-1.16760E-04-1.23001E-04-3.04365E-04
 -1       250-1.86776E-03-2.68400E-04 8.09371E-04-8.68286E-04-1.03956E-04-1.83285E-04
 -1       251 4.37939E-04 2.54726E-04 3.65421E-05-3.49507E-04 4.19397E-05-1.79718E-04
 -1       252 1.12015E-03 1.76276E-04-2.60844E-05-5.05897E-04-3.12204E-05 1.18374E-05
 -1       253 1.14906E-03 9.23092E-06-2.50477E-05-1.84067E-04-1.89454E-05 1.84380E-06
 -1       254 1.03150E-03 1.45902E-05-7.26883E-06 1.60557E-04 4.46601E-06 1.45590E-06
 -1       255 6.86328E-04 1.16161E-04-1.03703E-05 3.00811E-04 4.99845E-07-7.18182E-06
 -1       256 4.05409E-04 2.42044E-04-4.98264E-06 3.03179E-04-3.98282E-06-8.78787E-06
 -1       257 1.61634E-04 3.25708E-04-4.41209E-06 2.39638E-04-6.23291E-06 5.56170E-07
 -1       258 6.15423E-05 3.37402E-04-5.30940E-06 1.38473E-04-4.93151E-06-4.10309E-06
 -1       259-3.24340E-06 3.27993E-04-1.05228E-05 4.41201E-05-6.01427E-06-3.70732E-06
 -1       260 1.27488E-05 3.58843E-04-1.54849E-06-5.97520E-05-1.43752E-06 2.70645E-07
 -1       261 4.58850E-05 3.60003E-04-1.31817E-05-1.45108E-04 3.54061E-06-1.12422E-06
 -1       262 1.66887E-04 3.53300E-04-4.39201E-06-2.61161E-04 9.18606E-06 1.73514E-06
 -1       263 4.18799E-04 2.50903E-04-1.50498E-05-3.39546E-04 6.24909E-06-1.48598E-05
 -1       264 7.55958E-04 1.35302E-04-1.86131E-05-3.22190E-04 2.89660E-06-1.51751E-05
 -1       265 1.11610E-03 2.02306E-05-6.23700E-06-1.92783E-04 3.19636E-06-1.81594E-05
 -1       266 1.21122E-03-2.05327E-05-4.51655E-05 1.55994E-04 1.95403E-05-1.54347E-05
 -1       267 1.17763E-03 1.81986E-04 1.62306E-05 4.76951E-04 3.77670E-06-7.96416E-06
 -1       268 8.08796E-04 2.42494E-04 9.98114E-05 4.00016E-04-5.76576E-05-1.71989E-04
 -1       269-1.87944E-03 1.90311E-04 9.98941E-04 1.18387E-03 5.28301E-04 3.40872E-05
 -1       270-4.40061E+01 2.39999E+01-2.31939E+00-2.65222E+01-1.40510E+00 2.40131E+00
 -1       271 7.39880E+01-1.68663E+01-6.84949E+00-7.07888E+01 1.21227E+00-2.15411E+01
 -1       272 2.81733E+02 2.59611E+01 9.57443E+00-1.50673E+01-9.17432E+00 4.29497E+00
 -1       273 2.93550E+02 1.45467E+01 8.53460E+00 1.79779E+01 8.95104E+00-1.12957E+00
 -1       274 6.74488E+01-1.15624E+01-5.10799E+00 7.12997E+01-9.17528E-01-2.14094E+01
 -1       275-3.93709E+01 2.36755E+01-1.86768E+00 2.73025E+01 1.44873E+00 2.66784E+00
 -1       276-2.66272E+01 2.90010E+01-8.70955E-01-1.12837E+01-3.15970E+00 2.34054E+00
 -1       277-2.74623E+01 5.73868E+00-1.07317E+01-5.73003E+01 2.77929E+00-1.16037E+01
 -1       278 2.17872E+02-9.58917E+00 7.07279E+00-5.78564E+01-8.90799E+00-1.96381E+01
 -1       279 2.70073E+02 4.91966E+01 9.13734E+00 7.85972E-01-2.72990E+00 6.61391E+00
 -1       280 2.11989E+02-6.67298E+00 4.64302E+00 5.79693E+01 9.09953E+00-2.23831E+01
 -1       281-2.64774E+01 8.62529E+00-1.05653E+01 5.49213E+01-1.91286E+00-1.12395E+01
 -1       282-2.48543E+01 3.00208E+01 5.17361E-01 1.20846E+01 3.02611E+00 2.02007E+00
 -1       283 2.24495E+02 8.76470E+01 1.10461E+02-2.84913E+01 1.41941E+01 6.20166E+01
 -1       284 1.53165E+02-5.96515E-01 5.06139E+01-2.00699E+01 1.31311E+01 2.48697E+01
 -1       285 7.07941E+01-3.52417E+01 1.34213E+01 5.04889E+00 6.78768E+00 7.51475E+00
 -1       286 2.76782E+01-2.22056E+01 1.97271E+00 1.63293E+01 2.43787E+00 1.28708E+00
 -1       287 9.70271E+00-7.02348E+00 8.75443E-01 1.51901E+01 9.25362E-01 2.51870E-01
 -1       288 8.72620E-01 1.61376E+00 8.79855E-01 1.06671E+01 6.36273E-01-8.90871E-03
 -1       289-2.65349E+00 4.67945E+00 6.86318E-01 5.86582E+00 3.99751E-01-1.32103E-01
 -1       290-3.36736E+00 4.68103E+00 4.49557E-01 2.09339E+00 2.83039E-01-1.61718E-01
 -1       291-2.38538E+00 3.34761E+00 3.31312E-01-1.35670E-01 1.81699E-01-1.78212E-01
 -1       292-1.05148E+00 1.77187E+00 2.38079E-01-9.13518E-01 8.04663E-02-1.54753E-01
 -1       293-5.66337E-02 5.78754E-01 1.59628E-01-6.83810E-01 2.86741E-02-1.17293E-01
 -1       294 3.25110E-01 1.63509E-01 1.63008E-01 4.72670E-02 2.02382E-03-1.25775E-01
 -1       295-6.36136E-02 6.15502E-01 1.84340E-01 7.54139E-01-2.98499E-02-1.23866E-01
 -1       296-1.08204E+00 1.80110E+00 2.33224E-01 9.35269E-01-7.19322E-02-1.44783E-01
 -1       297-2.43241E+00 3.38505E+00 3.13653E-01 1.35827E-01-1.51686E-01-1.63489E-01
 -1       298-3.31026E+00 4.80135E+00 4.94989E-01-2.12543E+00-2.75507E-01-1.76471E-01
 -1       299-2.78374E+00 4.63978E+00 6.32247E-01-5.97230E+00-4.53664E-01-1.20884E-01
 -1       300 9.14722E-01 1.55329E+00 8.26292E-01-1.07356E+01-5.76683E-01-6.90794E-03
 -1       301 9.73520E+00-7.19284E+00 8.01721E-01-1.53573E+01-8.30246E-01 1.88132E-01
 -1       302 2.73483E+01-2.21489E+01 1.87594E+00-1.61537E+01-2.34994E+00 1.25962E+00
 -1       303 7.19982E+01-3.51862E+01 1.37025E+01-4.95803E+00-7.12661E+00 7.76872E+00
 -1       304 1.53265E+02 1.53588E-01 5.01971E+01 1.98909E+01-1.33457E+01 2.50226E+01
 -1       305 2.30043E+02 9.13710E+01 1.11753E+02 2.89787E+01-1.37980E+01 6.10616E+01
 -1       306 2.39382E+02 1.21707E+02 1.29501E+02-1.84533E+01 9.80042E+00 7.21813E+01
 -1       307 1.97807E+02 4.51016E+01 8.68514E+01-2.69415E+01 1.96343E+01 4.78425E+01
 -1       308 1.13632E+02-2.26439E+01 3.26058E+01-6.33143E+00 1.13600E+01 1.52091E+01
 -1       309 4.72688E+01-2.66250E+01 7.39764E+00 1.20543E+01 4.38499E+00 3.42697E+00
 -1       310 1.88278E+01-1.42601E+01 1.63693E+00 1.67911E+01 1.99050E+00 8.15726E-01
 -1       311 4.15934E+00-2.88500E+00 4.61631E-01 1.29761E+01 8.09452E-01 9.54923E-02
 -1       312-1.55879E+00 2.97208E+00 5.10040E-01 8.20699E+00 5.88000E-01-8.41512E-02
 -1       313-3.30265E+00 4.66103E+00 4.89440E-01 3.83716E+00 3.93721E-01-1.66008E-01
 -1       314-3.05578E+00 3.92336E+00 3.12339E-01 8.70297E-01 2.55258E-01-1.99840E-01
 -1       315-1.83927E+00 2.41955E+00 2.08645E-01-6.10796E-01 1.41238E-01-1.86701E-01
 -1       316-5.77218E-01 1.06976E+00 1.77229E-01-8.77646E-01 6.45878E-02-1.55070E-01
 -1       317 2.07812E-01 2.87769E-01 1.78154E-01-3.15857E-01 1.96098E-02-1.48603E-01
 -1       318 1.85702E-01 3.21278E-01 1.82436E-01 4.19523E-01-1.88230E-02-1.45132E-01
 -1       319-5.46301E-01 1.12521E+00 2.08527E-01 9.04255E-01-6.32099E-02-1.53746E-01
 -1       320-1.85380E+00 2.45260E+00 2.15861E-01 6.19791E-01-1.31523E-01-1.74326E-01
 -1       321-3.03254E+00 4.02402E+00 3.57210E-01-8.63257E-01-2.52298E-01-1.94632E-01
 -1       322-3.39905E+00 4.73835E+00 4.82905E-01-3.92944E+00-4.15463E-01-1.77251E-01
 -1       323-1.66288E+00 2.84045E+00 4.25871E-01-8.25371E+00-5.66764E-01-8.40434E-02
 -1       324 4.16653E+00-3.04201E+00 4.09351E-01-1.31597E+01-8.30912E-01 9.50488E-02
 -1       325 1.88388E+01-1.41352E+01 1.68911E+00-1.67289E+01-1.88045E+00 7.86852E-01
 -1       326 4.76261E+01-2.65894E+01 7.54322E+00-1.20041E+01-4.18337E+00 3.30323E+00
 -1       327 1.16838E+02-2.06705E+01 3.44596E+01 5.80700E+00-1.15279E+01 1.54560E+01
 -1       328 1.96375E+02 4.46087E+01 8.62571E+01 2.70222E+01-1.93386E+01 4.75907E+01
 -1       329 2.50985E+02 1.27936E+02 1.35520E+02 1.81253E+01-9.60953E+00 7.27615E+01
 -1       330-4.14724E-05-2.37271E-04 1.09567E-05 1.13558E-04-1.28509E-05-1.34410E-06
 -1       331-3.26709E-04-1.70545E-04-1.54185E-06 1.94809E-04-1.58927E-05 2.54102E-05
 -1       332-7.00697E-04-9.76593E-05-9.02594E-06 2.62888E-04-2.71558E-05 4.43020E-05
 -1       333-1.07562E-03-8.54185E-05-3.59440E-05-8.30226E-05 2.74277E-05 5.60429E-05
 -1       334-1.81497E-03-4.66648E-04-4.60570E-05-8.09505E-04-3.64280E-06-4.23810E-05
 -1       335-2.52399E-03-4.45353E-04 1.14163E-06-2.39616E-03-7.35859E-04-3.96785E-04
 -1       336-6.84536E-04-3.18004E-03 7.79194E-04 1.95141E-03 1.18469E-03-8.01846E-05
 -1       337-4.70732E-04-3.87311E-02-9.88324E-04 1.96057E-04-2.12886E-05-3.59911E-05
 -1       338 5.35169E-04-7.83238E-04 1.28675E-03-1.01244E-03-9.62553E-04 8.68045E-04
 -1       339-2.84454E-03-8.32269E-04-4.70409E-04 2.04917E-03 7.75152E-04-9.54652E-04
 -1       340-1.79041E-03-2.92456E-04 1.06841E-05 7.20005E-04 5.93954E-06-3.98199E-05
 -1       341-1.25329E-03-7.37157E-05-2.83411E-05 3.42381E-05-2.28491E-05 1.11862E-05
 -1       342-8.35208E-04-1.18504E-04 5.94206E-06-3.38179E-04 3.70835E-06 2.58029E-05
 -1       343-3.50988E-04-2.26148E-04-2.06850E-06-2.50539E-04 1.30029E-05 1.40927E-05
 -1       344-5.67578E-05-2.90251E-04 6.25827E-06-1.33460E-04 1.40442E-05 5.51121E-06
 -1       345-2.93191E-05-2.42529E-04-2.91040E-06 5.67379E-05-7.33182E-06-7.85705E-06
 -1       346-1.67605E-04-2.59965E-04-2.42147E-05 1.90357E-04-2.25507E-05 1.58061E-05
 -1       347-4.99046E-04-1.28820E-04-6.73446E-06 2.55506E-04-2.84645E-05 4.16455E-05
 -1       348-1.00255E-03-9.59830E-05-6.90808E-05 1.41300E-04-9.78719E-06 5.61374E-05
 -1       349-1.46446E-03-2.13490E-04-9.12581E-05-4.10216E-04 1.99228E-05-1.66791E-05
 -1       350-2.14219E-03-7.14500E-04-5.29173E-05-1.24681E-03-1.63827E-04-2.82781E-04
 -1       351-3.39883E-03-1.09434E-03-2.78262E-04-1.22175E-05-3.73517E-04-8.62077E-04
 -1       352 2.08398E-03-2.24241E-02 3.61646E-04-6.95523E-05 2.52098E-03 1.28849E-03
 -1       353 2.22470E-03-2.24905E-02 5.84112E-04 7.31295E-04-3.03499E-03-2.47762E-04
 -1       354-2.23256E-03 1.08129E-03-3.70329E-04 4.53599E-04 1.62810E-03-2.85969E-04
 -1       355-2.49579E-03-7.94147E-04-8.57000E-05 1.32059E-03 2.66564E-04-3.61314E-04
 -1       356-1.53247E-03-9.86824E-05-3.45435E-06 3.59968E-04-3.86470E-05-5.50432E-06
 -1       357-1.10371E-03-4.93731E-05-2.49898E-05-2.04838E-04 5.75150E-06 3.20484E-05
 -1       358-5.78768E-04-1.78505E-04 4.06258E-06-3.06281E-04 1.65928E-05 1.91530E-05
 -1       359-1.95538E-04-3.26818E-04-2.77623E-05-2.27236E-04 2.24406E-05 1.57215E-05
 -1       360-3.17010E-05-2.75653E-04-5.84762E-06-6.84780E-05 6.87236E-06 1.25473E-07
 -1       361 2.70250E+02 3.46600E+01 3.37125E+01-5.78635E+01-8.21103E-01 1.41611E+00
 -1       362 2.57319E+02 3.74509E+01 3.00239E+01-5.67787E+01 9.20978E-01 3.97020E-01
 -1       363 2.72265E+02 2.33388E+01 2.54339E+01-4.26288E+01 2.76424E+00-3.39201E+00
 -1       364 2.67099E+02 3.55201E+01 3.56496E+01-5.68567E+01 1.28257E+00-1.40178E-01
 -1       365 2.57861E+02 2.28516E+01 2.02327E+01-5.29835E+01-7.87955E-01 1.64968E+00
 -1       366 2.06768E+02 6.63698E+01 2.11054E+01-9.95268E+01 5.37216E+00-1.72929E+01
 -1       367 1.18248E+02 9.24324E+01 1.83592E+01-9.63233E+01 1.69297E+01-2.17499E+01
 -1       368 2.60760E+02 5.17743E+01 2.87874E+01-7.77228E+01-7.42320E-02-7.74373E+00
 -1       369 2.72504E+02 4.17074E+01 3.67725E+01 6.03546E+01-3.83698E-01 9.74888E-01
 -1       370 2.68908E+02 2.90253E+01 3.16853E+01 5.44722E+01-6.80979E-01-8.97136E-01
 -1       371 2.67112E+02 1.88620E+01 2.18925E+01 4.08253E+01-2.00243E+00-3.31466E+00
 -1       372 2.86163E+02 3.18152E+01 4.06600E+01 6.54957E+01 3.06615E-01 1.44439E+00
 -1       373 2.59421E+02 2.32566E+01 1.92656E+01 4.76976E+01 7.09895E-01 8.21427E-01
 -1       374 2.16539E+02 6.59403E+01 2.03072E+01 9.53894E+01-4.09584E+00-1.32573E+01
 -1       375 1.16085E+02 8.84670E+01 1.32344E+01 9.89388E+01-1.42905E+01-1.95745E+01
 -1       376 2.58531E+02 5.34387E+01 2.99883E+01 7.20158E+01-1.95452E+00-3.92928E+00
 -1       377 1.87595E+02-1.71402E+00-1.18273E+00-6.67717E+00-1.06637E-01 1.00535E+00
 -1       378 1.87679E+02-1.32072E-01-1.73174E-02-6.78070E+00 1.27686E-01-2.70482E-01
 -1       379 1.87892E+02 2.37461E-01-5.93878E-02-7.14168E+00 4.03537E-02-8.15664E-02
 -1       380 1.82976E+02 1.01845E+00 4.16212E-01-8.20023E+00-2.91152E-01 4.50708E-01
 -1       381 1.64969E+02 9.05219E-01 6.21060E-01-8.95156E+00-1.80089E-01 1.62266E+00
 -1       382 1.25218E+02 2.55990E-01-2.70469E-01-9.33988E+00-2.06099E-01 5.24086E-01
 -1       383 1.05431E+02 5.79109E+00-1.54284E+00 9.86052E+00 1.02533E-01-4.35200E+00
 -1       384 1.23305E+02-5.24946E+00 1.82329E+00 8.42045E+00-4.99103E-01-2.62923E+00
 -1       385 6.26427E+01 1.31138E+00 9.00508E-01-7.46469E+00-4.59891E-01 1.68053E+00
 -1       386 1.57789E+01-4.18270E-01-7.37037E-01-1.72319E+00 1.56934E-01 7.40262E-01
 -1       387 2.40006E+00-7.91374E-01-3.64526E-01-3.52159E-01 2.82009E-01 8.38942E-02
 -1       388-6.85548E-01-2.55376E-02 8.48899E-02 2.44003E-01-4.38859E-02-8.90609E-02
 -1       389-6.83868E-01-4.63756E-03 1.27967E-02 1.39989E-01-3.63416E-02-5.07795E-02
 -1       390-3.30671E-01-1.41335E-02-4.55182E-03 8.77115E-02-2.31318E-03-2.52420E-02
 -1       391-1.04126E-01 1.81173E-03 3.49821E-03 1.75263E-02-4.84403E-04-8.30508E-03
 -1       392 2.03496E+02 7.08407E+00 3.12624E+00-1.65327E+01 1.89122E+00 1.67588E+00
 -1       393 1.87165E+02-3.51867E-01-4.09494E-01-7.15221E+00 6.91018E-02 7.98773E-02
 -1       394 1.87795E+02-2.02868E-02-7.00706E-02-6.99772E+00 4.96605E-02-1.60739E-01
 -1       395 1.86553E+02 7.20830E-01 3.42803E-01-7.68005E+00-2.09609E-01 2.42862E-01
 -1       396 1.76779E+02 2.44663E+00 1.03310E+00-8.47036E+00-2.46811E-01 9.41984E-01
 -1       397 1.46579E+02 1.56304E+00 6.58830E-01-9.27163E+00 2.72796E-01 2.36950E+00
 -1       398 1.10437E+02 1.88953E+00 6.00640E-01-2.98328E+00-9.37277E-01-2.68404E+00
 -1       399 1.14282E+02 1.82109E-01-5.50370E+00 1.44899E+01 6.61634E-01-4.29915E+00
 -1       400 9.33632E+01-1.65914E+00-8.14731E-01-3.21266E+00 1.30272E-01 3.15632E-01
 -1       401 3.35957E+01-2.38030E+00-9.15206E-01-4.83192E+00 1.00280E-01 1.67530E+00
 -1       402 6.35253E+00-1.48189E+00-1.07822E+00-7.12308E-01 3.48317E-02 4.34803E-01
 -1       403 1.47659E-01-2.47170E-01-2.52480E-01-7.11833E-02 7.36256E-02-1.32640E-01
 -1       404-8.54428E-01-1.02601E-01-3.47016E-02 1.64892E-01 1.23906E-02-6.30903E-02
 -1       405-5.53130E-01-4.05010E-02-2.90243E-02 1.35812E-01-1.40481E-03-4.89998E-02
 -1       406-2.28421E-01-9.94463E-03-5.14195E-03 4.70116E-02-6.51646E-03-1.96529E-02
 -1       407-4.85618E-02 1.48869E-02 9.54312E-03 4.64640E-03-9.27579E-04-6.25700E-03
 -1       408 1.88868E+02-2.08628E+00-1.22721E+00 6.78973E+00-2.32279E-01 9.20971E-01
 -1       409 1.88237E+02 2.30576E-01-2.71586E-02 7.12117E+00-5.82019E-02-1.70809E-01
 -1       410 1.88576E+02 3.06038E-01 9.00735E-02 7.38451E+00-5.35056E-02-8.45765E-03
 -1       411 1.84550E+02 3.38150E-01 3.17520E-02 8.30457E+00-1.91158E-02 4.28131E-01
 -1       412 1.66133E+02 6.14663E-01 3.10145E-01 9.50851E+00 3.40308E-01 1.40282E+00
 -1       413 1.26605E+02 7.56222E-01 9.72328E-02 7.99465E+00 5.41822E-01 1.80470E+00
 -1       414 9.60424E+01 1.02341E+01-1.67312E+00-7.47643E+00 1.05852E+00-3.47088E+00
 -1       415 1.30303E+02-8.52807E+00 6.46702E+00-1.41504E+00 4.13206E-01-4.49297E+00
 -1       416 5.89391E+01 1.64460E+00 1.03347E+00 7.90627E+00 1.09762E+00 3.00736E+00
 -1       417 1.51287E+01-7.74146E-01-1.17256E+00 1.06447E+00-3.66150E-01 1.02268E+00
 -1       418 1.66543E+00-1.66584E-01 6.70163E-03 3.96384E-01 4.84347E-02 3.74663E-02
 -1       419-6.34008E-01-1.76260E-01-1.33397E-02-3.50326E-01 1.05755E-01-8.58566E-02
 -1       420-7.81154E-01-4.39927E-02-2.56159E-02-1.91011E-01 6.66422E-03-6.24586E-02
 -1       421-3.40612E-01-1.30757E-02 3.34113E-03-8.68485E-02-3.27314E-03-3.36786E-02
 -1       422-1.08011E-01-3.18427E-03-6.53281E-03-1.49964E-02 6.66851E-04-5.47297E-03
 -1       423 2.05753E+02 6.53768E+00 2.24515E+00 1.80102E+01-9.23072E-01 1.84050E+00
 -1       424 1.87960E+02 2.52372E-01-1.24082E-01 7.45485E+00-6.72207E-02 2.10798E-01
 -1       425 1.88548E+02 1.93772E-01-2.14041E-02 7.25973E+00-1.78251E-02-1.30799E-01
 -1       426 1.87458E+02 7.95157E-01 2.38888E-01 7.94601E+00 2.36078E-05 7.23175E-02
 -1       427 1.76414E+02 2.96611E-01-4.73983E-01 9.24305E+00-3.02218E-01 7.72159E-01
 -1       428 1.46271E+02 8.20822E-01 4.90285E-01 8.55563E+00 1.57780E+00 2.33281E+00
 -1       429 1.12553E+02 3.65371E-01 1.73671E+00 1.56100E+00 1.33714E+00-2.03905E+00
 -1       430 1.16090E+02 6.25951E+00 3.39893E+00-1.12406E+01 1.96410E+00-3.22903E+00
 -1       431 9.49223E+01-2.17183E+00-6.32083E-01 5.25370E+00 3.76844E-01 9.71524E-02
 -1       432 3.31013E+01-1.97601E+00-2.01857E+00 4.95347E+00-4.16489E-01 2.22502E+00
 -1       433 6.36503E+00-7.76024E-01-5.77400E-01 7.55694E-01 9.06872E-02 3.19903E-01
 -1       434 2.01818E-01-4.31837E-01-1.89601E-01-3.27726E-02-8.76436E-02 1.99868E-03
 -1       435-9.10336E-01-6.28090E-02-9.12440E-02-2.38360E-01 8.81847E-02-4.26124E-02
 -1       436-5.09901E-01-3.45531E-03 3.73078E-02-1.34398E-01-1.88548E-02-5.12053E-02
 -1       437-2.06369E-01-3.52677E-03-2.66397E-03-5.24384E-02 3.23569E-03-1.68826E-02
 -1       438-5.23580E-02 7.15763E-03 2.65246E-03-3.65603E-03 7.26927E-03-2.85889E-03
 -1       439 9.98467E-04-1.90120E-04 1.83274E-04 7.54048E-05-1.74138E-04 2.47451E-04
 -1       440 9.85597E-04 2.89328E-04-1.51282E-05-5.16782E-04-2.96888E-05 7.30821E-05
 -1       441 1.32430E-03 6.60231E-05 1.47058E-05-3.72885E-04 1.15542E-05-5.83832E-07
 -1       442 1.24441E-03-4.71435E-05-7.38020E-06 1.00923E-04-9.21897E-06 1.62660E-05
 -1       443 9.02426E-04 7.09240E-05-8.90839E-06 2.89168E-04 8.24612E-06 2.63522E-05
 -1       444 5.71108E-04 2.17807E-04 2.55816E-06 3.51681E-04 1.22368E-05 1.47711E-05
 -1       445 2.59308E-04 3.47191E-04-8.42441E-07 3.21545E-04 7.56686E-06 9.91387E-06
 -1       446 1.08999E-04 3.57990E-04-6.92040E-08 1.98346E-04 3.13953E-06 2.67550E-06
 -1       447 2.26068E-05 3.64585E-04-2.02078E-06 9.92625E-05-1.32352E-06 9.02540E-07
 -1       448-2.56938E-05 3.86270E-04 2.87783E-07 2.60019E-06-7.41412E-06 8.39162E-06
 -1       449 2.36756E-05 3.59335E-04 2.22503E-06-8.83229E-05-6.58159E-06-1.06563E-06
 -1       450 8.95804E-05 3.64981E-04 5.03487E-07-1.91104E-04-1.01489E-05 5.22268E-06
 -1       451 2.38772E-04 3.32256E-04-6.72514E-06-3.12971E-04-7.22540E-06 1.43806E-05
 -1       452 5.77004E-04 1.96542E-04-4.02040E-06-3.49712E-04 1.81415E-06 2.92321E-06
 -1       453 8.94358E-04 7.38878E-05 4.24233E-06-2.56134E-04-4.71753E-06 1.12621E-05
 -1       454 1.28646E-03-8.03964E-05 1.47595E-05-1.81895E-05 7.02781E-06 1.02358E-06
 -1       455 1.24280E-03 6.77788E-05-4.22212E-06 4.00416E-04-1.22479E-05-3.94695E-05
 -1       456 8.68813E-04 3.15547E-04-3.60287E-05 5.43093E-04 8.95311E-06 1.60060E-05
 -1       457 1.00082E-03-3.91918E-04-1.92548E-04-4.89610E-04 1.17557E-04 1.24366E-04
 -1       458-2.32298E-03-3.44979E-04 7.11042E-04-5.68351E-04-1.04438E-05 2.83030E-05
 -1       459 7.70158E-04 2.40922E-04 7.93880E-05-4.26056E-04-1.04477E-04 1.70935E-04
 -1       460 1.15038E-03 1.48198E-04-2.24720E-05-4.77063E-04 1.03756E-05 1.28338E-05
 -1       461 1.20585E-03-9.23448E-06-1.00560E-05-1.45053E-04-1.05620E-05 4.39014E-05
 -1       462 1.05895E-03 2.39378E-05-7.02667E-06 2.04005E-04 1.44889E-05 2.96687E-05
 -1       463 7.18439E-04 1.31310E-04-2.02413E-05 3.33037E-04 1.22333E-05 2.14903E-05
 -1       464 4.15817E-04 2.62614E-04-6.20051E-06 3.28371E-04 1.04257E-05 1.59160E-05
 -1       465 1.75211E-04 3.60940E-04 2.59112E-06 2.55812E-04 7.39081E-06 4.79360E-06
 -1       466 6.42308E-05 3.53163E-04-5.35042E-06 1.48819E-04 1.79238E-06 4.13977E-06
 -1       467-7.14853E-07 3.43634E-04-9.15156E-06 5.55999E-05-9.50787E-07 2.71795E-06
 -1       468 7.99086E-06 3.53099E-04-4.10588E-06-4.78477E-05-7.63164E-06 1.98339E-06
 -1       469 4.43940E-05 3.57637E-04-1.30705E-06-1.37936E-04-1.02931E-05 3.12880E-06
 -1       470 1.55410E-04 3.55877E-04-8.83835E-06-2.54478E-04-1.12803E-05 6.82849E-06
 -1       471 3.83753E-04 2.37206E-04-1.63051E-05-3.11555E-04-5.87021E-06 3.20469E-06
 -1       472 7.27779E-04 1.31354E-04-1.03310E-05-2.98444E-04-7.88452E-07 8.43069E-06
 -1       473 1.05428E-03 5.63187E-06-1.38770E-05-1.61118E-04-5.07535E-06-8.29621E-06
 -1       474 1.16808E-03-1.15257E-05-3.06109E-05 1.97257E-04-3.96497E-06 1.09381E-05
 -1       475 1.10412E-03 1.79340E-04-8.47489E-06 4.93243E-04-2.55502E-05-2.45026E-05
 -1       476 7.99693E-04 2.72321E-04 7.23081E-05 4.28074E-04 1.35464E-05 2.07087E-04
 -1       477-2.52778E-03-2.23313E-04 6.27026E-04 9.77129E-04-4.37119E-04-1.74153E-06
 -1       478-4.47741E+01 2.34692E+01-1.79293E+00-2.59312E+01 2.07918E+00-3.02448E+00
 -1       479 7.40076E+01-1.42200E+01-5.84916E+00-6.87709E+01-1.71921E+00 2.07744E+01
 -1       480 2.84543E+02 1.78476E+01 9.29719E+00-2.07085E+01 1.19757E+01-1.73462E+00
 -1       481 2.81822E+02 2.72456E+01 7.81995E+00 1.81409E+01-1.06006E+01-2.45035E+00
 -1       482 6.99565E+01-1.96766E+01-9.79932E+00 7.11779E+01-3.00075E-01 2.03499E+01
 -1       483-4.48731E+01 2.50748E+01-2.19789E+00 2.78711E+01-1.72319E+00-3.91022E+00
 -1       484-2.51168E+01 3.03303E+01-1.47763E-01-1.15296E+01 3.05733E+00-2.45133E+00
 -1       485-2.58541E+01 3.29980E+00-5.64266E+00-5.65401E+01 5.88990E-01 1.14374E+01
 -1       486 2.15373E+02-5.85293E+00-1.43397E+00-5.90783E+01 1.08257E+01 2.01914E+01
 -1       487 2.66376E+02 4.54513E+01 1.10868E+01-9.79282E-01-9.10575E-01-7.53337E+00
 -1       488 2.15242E+02-8.10371E+00 8.83161E-01 5.85832E+01-8.18001E+00 1.98113E+01
 -1       489-2.90979E+01 6.37804E-01-1.13709E+01 5.90595E+01-1.56000E+00 1.15732E+01
 -1       490-2.59989E+01 3.03009E+01 2.08581E-01 1.25342E+01-2.58382E+00-1.93171E+00
 -1       491 2.19734E+02 8.57478E+01 1.06089E+02-2.90965E+01-1.33582E+01-6.16888E+01
 -1       492 1.52756E+02-4.94084E-01 5.15149E+01-2.01840E+01-1.23997E+01-2.54170E+01
 -1       493 7.13535E+01-3.50957E+01 1.33529E+01 4.85300E+00-6.97439E+00-7.53337E+00
 -1       494 2.77454E+01-2.23747E+01 1.93508E+00 1.63035E+01-2.38149E+00-1.28413E+00
 -1       495 9.77557E+00-7.13625E+00 8.13950E-01 1.54249E+01-8.10861E-01-1.08136E-01
 -1       496 9.33130E-01 1.66880E+00 8.61066E-01 1.07042E+01-4.83542E-01 5.95455E-02
 -1       497-2.77780E+00 4.64153E+00 6.50416E-01 5.91717E+00-4.50526E-01 1.34409E-01
 -1       498-3.30098E+00 4.80730E+00 4.96258E-01 2.11384E+00-2.51171E-01 1.81095E-01
 -1       499-2.36631E+00 3.38378E+00 3.26993E-01-1.37249E-01-1.30084E-01 1.58957E-01
 -1       500-1.10101E+00 1.74999E+00 2.15092E-01-9.25142E-01-8.06499E-02 1.42352E-01
 -1       501-2.63548E-02 6.25586E-01 1.93782E-01-6.90254E-01-3.14145E-02 1.27200E-01
 -1       502 3.39226E-01 1.75372E-01 1.76788E-01 3.70879E-02 2.42606E-03 1.29903E-01
 -1       503-5.30915E-02 6.04340E-01 1.90306E-01 7.39649E-01 3.98798E-02 1.36026E-01
 -1       504-1.08056E+00 1.75704E+00 2.30716E-01 9.27477E-01 9.11648E-02 1.49263E-01
 -1       505-2.38333E+00 3.36300E+00 3.34448E-01 1.38302E-01 1.74145E-01 1.67503E-01
 -1       506-3.40590E+00 4.72807E+00 4.44193E-01-2.12640E+00 2.74875E-01 1.57569E-01
 -1       507-2.72250E+00 4.67723E+00 6.29778E-01-5.93771E+00 3.72462E-01 1.46382E-01
 -1       508 9.26732E-01 1.59611E+00 8.27497E-01-1.07850E+01 5.15211E-01 7.11222E-02
 -1       509 1.01870E+01-6.96764E+00 9.18272E-01-1.54010E+01 9.50065E-01-1.37135E-01
 -1       510 2.87686E+01-2.22725E+01 2.33332E+00-1.66806E+01 2.82089E+00-1.50810E+00
 -1       511 7.14462E+01-3.51389E+01 1.37313E+01-5.23863E+00 7.38046E+00-8.07480E+00
 -1       512 1.51584E+02-1.14128E+00 5.20242E+01 1.99412E+01 1.23906E+01-2.55017E+01
 -1       513 2.16054E+02 8.31294E+01 1.05135E+02 2.94046E+01 1.33869E+01-6.11684E+01
 -1       514 2.44342E+02 1.24282E+02 1.32040E+02-1.84523E+01-9.47269E+00-7.14032E+01
 -1       515 1.90954E+02 4.17376E+01 8.33234E+01-2.72669E+01-1.95891E+01-4.78288E+01
 -1       516 1.15847E+02-2.11619E+01 3.39213E+01-5.95904E+00-1.13242E+01-1.51649E+01
 -1       517 4.75080E+01-2.66909E+01 7.47351E+00 1.19903E+01-4.07013E+00-3.23074E+00
 -1       518 1.90442E+01-1.41285E+01 1.76636E+00 1.68390E+01-1.85704E+00-7.84593E-01
 -1       519 4.37722E+00-2.68323E+00 6.14931E-01 1.31350E+01-7.97253E-01-9.75332E-02
 -1       520-1.59433E+00 2.87219E+00 4.62364E-01 8.15442E+00-5.31179E-01 7.70223E-02
 -1       521-3.33902E+00 4.76958E+00 5.15412E-01 3.89694E+00-4.19748E-01 1.77115E-01
 -1       522-3.00987E+00 4.03723E+00 3.70311E-01 8.55841E-01-2.50474E-01 1.93233E-01
 -1       523-1.83854E+00 2.40022E+00 2.02476E-01-6.06480E-01-1.27041E-01 1.68181E-01
 -1       524-5.99545E-01 1.07414E+00 1.70934E-01-8.85366E-01-6.15323E-02 1.52798E-01
 -1       525 1.96827E-01 2.88529E-01 1.74484E-01-3.25045E-01-1.98197E-02 1.45570E-01
 -1       526 1.96340E-01 3.24210E-01 1.87251E-01 4.09847E-01 1.86003E-02 1.50375E-01
 -1       527-5.51855E-01 1.10134E+00 1.97785E-01 8.90082E-01 6.48988E-02 1.61379E-01
 -1       528-1.82883E+00 2.41693E+00 2.11667E-01 6.12266E-01 1.34891E-01 1.80208E-01
 -1       529-3.08687E+00 3.95854E+00 3.14206E-01-8.78097E-01 2.50684E-01 1.97675E-01
 -1       530-3.36686E+00 4.69066E+00 4.77700E-01-3.88909E+00 3.90164E-01 1.65863E-01
 -1       531-1.62840E+00 2.89330E+00 4.57661E-01-8.26076E+00 5.52106E-01 7.76104E-02
 -1       532 4.34770E+00-2.73362E+00 5.84750E-01-1.31709E+01 8.32771E-01-1.05027E-01
 -1       533 1.95364E+01-1.44040E+01 1.83056E+00-1.72739E+01 2.27825E+00-9.32044E-01
 -1       534 4.85334E+01-2.64688E+01 7.90209E+00-1.24329E+01 4.85514E+00-3.78723E+00
 -1       535 1.13008E+02-2.28626E+01 3.23225E+01 6.17104E+00 1.18634E+01-1.57603E+01
 -1       536 1.90353E+02 4.16367E+01 8.31399E+01 2.71399E+01 1.97523E+01-4.76524E+01
 -1       537 2.45732E+02 1.25417E+02 1.33098E+02 1.72836E+01 9.71624E+00-7.25389E+01
 -1       538-5.54872E-05-2.88539E-04 6.45516E-06 1.33341E-04 2.45742E-05-4.87877E-06
 -1       539-3.54835E-04-2.34095E-04-1.16327E-05 2.53543E-04 1.42638E-05-3.08084E-05
 -1       540-8.55825E-04-1.29290E-04 3.22162E-06 3.34339E-04 9.80053E-06-3.54026E-05
 -1       541-1.30791E-03-4.81493E-05-9.72880E-06-5.15994E-05-1.70801E-05-1.78662E-05
 -1       542-2.00892E-03-4.43082E-04-7.68331E-05-8.28771E-04 6.26992E-05 1.76879E-04
 -1       543-2.73851E-03-3.80004E-04 4.88712E-05-2.19303E-03 7.19498E-04 7.84000E-04
 -1       544-3.03217E-04-3.22142E-03 1.20463E-03 2.84964E-03-1.52818E-03-4.99580E-04
 -1       545-4.07490E-04-3.82065E-02-9.18325E-04-5.25371E-04-9.17159E-05-6.47704E-05
 -1       546 2.98677E-04-5.96272E-04 1.64790E-03-8.04906E-04 8.58426E-04-9.34163E-04
 -1       547-2.66892E-03-2.70186E-04-7.49009E-04 2.12679E-03-7.68620E-04 9.84197E-04
 -1       548-1.62149E-03-3.34170E-04-4.34760E-05 6.57892E-04 3.39908E-05-2.68261E-06
 -1       549-1.07931E-03-9.74040E-05-1.96746E-06 1.68790E-04 2.07170E-05-6.28210E-05
 -1       550-6.76383E-04-5.82556E-05 1.98610E-05-2.57597E-04-4.25264E-05-6.68514E-05
 -1       551-3.10426E-04-1.48087E-04-3.41449E-06-1.82111E-04-2.10034E-05-2.91061E-05
 -1       552-3.60216E-05-2.06806E-04 8.64224E-06-9.57627E-05-1.60140E-05-7.72505E-07
 -1       553-2.72991E-05-2.37961E-04 8.04810E-06 7.44503E-05 1.36191E-05-4.07246E-07
 -1       554-1.97034E-04-3.16138E-04-2.89550E-05 2.23756E-04 3.43804E-05-1.92223E-05
 -1       555-5.94937E-04-1.77388E-04-5.97802E-06 3.25087E-04-5.15861E-06-3.36311E-05
 -1       556-1.21813E-03-1.16980E-04-2.81706E-05 1.92287E-04 1.38947E-05-3.45257E-05
 -1       557-1.66545E-03-1.96903E-04-7.97083E-05-4.03803E-04-4.77563E-06 8.18333E-05
 -1       558-2.31288E-03-7.37441E-04-1.83953E-05-1.21917E-03 3.43498E-04 4.58836E-04
 -1       559-2.27996E-03-7.49634E-05 4.71148E-04-6.22097E-05 1.94690E-04 1.26633E-03
 -1       560 3.32977E-03-2.11298E-02 7.68992E-04-2.48164E-04-2.74971E-03-6.98107E-04
 -1       561 1.18018E-03-2.29247E-02 7.25233E-04 5.85761E-04 2.53745E-03-6.97291E-04
 -1       562-1.95461E-03 1.34535E-03-3.48077E-04 4.13048E-04-1.35338E-03 7.86659E-04
 -1       563-2.20780E-03-7.68270E-04-1.41856E-05 1.37748E-03-3.37257E-04 4.12976E-04
 -1       564-1.32425E-03-1.63011E-04-2.31399E-05 4.10716E-04-3.66934E-05-6.04584E-05
 -1       565-9.67265E-04-2.07099E-05-3.80402E-05-1.11300E-04-4.72871E-06-9.95536E-05
 -1       566-4.88986E-04-1.28540E-04-3.97520E-07-2.32888E-04-5.59219E-05-5.40473E-05
 -1       567-1.47303E-04-2.28304E-04-1.59791E-05-1.67589E-04-2.81457E-05-1.55905E-05
 -1       568-2.39281E-05-2.17465E-04-2.59379E-06-4.59435E-05-6.09875E-06 1.85017E-06
 -1       569-5.10484E-03 2.86996E-03 6.00324E-03 4.44343E-03 9.61033E-04 1.85205E-03
 -1       570-6.08590E-03 2.56800E-03 5.51833E-03 4.03011E-03-8.98173E-04-1.08615E-03
 -1       571-2.99366E-03 8.25315E-03 7.71017E-03 3.39597E-03 1.47297E-03 3.29650E-03
 -1       572-2.44386E-03 7.96947E-03 1.04477E-02 3.85370E-03-1.35882E-04-1.82109E-06
 -1       573-4.55495E-03 8.24950E-03 7.34024E-03 2.91892E-03-1.18956E-03-2.62450E-03
 -1       574-1.91157E-03 2.23148E-03 7.17614E-03-3.18553E-03-1.32005E-03 6.58163E-04
 -1       575-1.15423E-03 4.40541E-03 8.33802E-03-3.72417E-03 1.26771E-03-1.80639E-03
 -1       576-3.67707E-03 7.93456E-03 7.85619E-03-2.21313E-03-1.28198E-03 2.45923E-03
 -1       577 1.21684E-04 5.06522E-03 9.68971E-03-4.36599E-03 2.92967E-05-6.44654E-04
 -1       578-1.46761E-03 7.87142E-03 6.96986E-03-1.95471E-03 1.24131E-03-2.30224E-03
 -1       579-2.81307E+01 2.38239E+01-2.21796E-01 3.57955E-01 2.89798E-01-6.81614E-01
 -1       580-2.69311E+01 2.43854E+01 3.51709E-02 7.51013E-01-9.36170E-02 4.51810E-01
 -1       581-2.54664E+01 2.77732E+01-4.89803E-01 1.19700E-01 1.51749E-01-5.05384E-01
 -1       582-2.81761E+01 2.27625E+01-2.07954E-01 7.51169E-01 1.61294E-01 6.70388E-02
 -1       583-2.50234E+01 2.74756E+01-2.33084E-01 3.33139E-01-8.74418E-02 3.25768E-01
 -1       584 1.82816E+02 8.39112E+01 8.61756E+01-2.43933E-01-2.29374E-01 1.83606E+01
 -1       585 1.78104E+02 9.07065E+01 9.13093E+01-1.33828E+00 3.08298E-01-1.77193E+01
 -1       586 2.11744E+02 1.06033E+02 1.14400E+02-1.97527E-01-1.63152E-01 4.82899E+01
 -1       587 1.90880E+02 9.87658E+01 1.04273E+02 1.88370E+00 1.76999E+00-1.13522E+00
 -1       588 1.96553E+02 1.03199E+02 1.07911E+02-1.10364E+00-4.03639E+00-3.95319E+01
 -1       589-2.92646E-05-2.58060E-04 7.46578E-06 6.24994E-06 1.24045E-06 7.39261E-07
 -1       590-2.91129E-05-2.39091E-04 9.71028E-06-2.09442E-06 2.34812E-06-7.56490E-06
 -1       591 1.12161E-06-2.61893E-04 1.40458E-05-3.57740E-06 3.91617E-06 8.93921E-06
 -1       592-3.22931E-05-2.55602E-04 1.28562E-05-2.58766E-06 5.06247E-06-3.02283E-06
 -1       593-5.20549E-06-2.37416E-04 8.00583E-06 3.31103E-06 6.59453E-07-1.09776E-05
 -1       594 4.96855E-03 1.65460E+00-1.24696E-02 6.25372E-02 7.39108E-04 1.20856E-04
 -1       595 3.98731E-01 1.70334E+00-1.07660E-02-8.18060E-01-3.37345E-04-4.07959E-04
 -1       596 2.75348E+00 1.29913E+00-1.47814E-02-1.87866E+00 5.15771E-04-7.82981E-04
 -1       597 2.73386E-02 1.69514E+00-4.83890E-03 2.59952E-01 4.29293E-04 1.11432E-04
 -1       598 1.72175E-01 1.68222E+00-2.19726E-02 5.34204E-01 3.25640E-04 9.95733E-05
 -1       599 4.53225E-01 1.70560E+00-6.10401E-03 8.95880E-01 2.77437E-04 2.14631E-04
 -1       600 3.91193E+00 9.37020E-01-5.50398E-02 2.08965E+00 1.23739E-03 1.89049E-03
 -1       601 1.03741E+01 5.92601E+00 2.72229E-01 7.68193E+00 1.74290E-02 4.40764E-02
 -1       602 1.32415E+01 3.44432E+00 5.07399E-01 6.51273E+00-2.33105E-02 1.03210E-02
 -1       603 1.36783E+01 8.50352E-01-6.33990E-02 4.24319E+00-2.92259E-04-8.02566E-03
 -1       604 6.04799E+00 3.99522E-01-3.64631E-02-1.84886E+00-5.15577E-04 2.00747E-04
 -1       605 4.09877E+00 9.75542E-01-4.92033E-02-1.95806E+00-2.45726E-04 1.18819E-03
 -1       606 8.42761E-01 1.68464E+00-1.76836E-02 1.16757E+00-6.61477E-04 9.75377E-04
 -1       607 1.46899E+00 1.56201E+00-3.70776E-02 1.59956E+00-1.24388E-03-1.94856E-04
 -1       608 2.55195E+00 1.36531E+00-1.36533E-02 1.84460E+00-2.06292E-03-2.18364E-05
 -1       609 5.81154E+00 5.96849E-01 9.12040E-03 1.76424E+00 2.41318E-03 4.00160E-03
 -1       610 7.60579E+00 1.82865E-01-7.67571E-02 1.23184E+00-2.71163E-03 3.90920E-03
 -1       611 2.26638E-01 1.68618E+00-1.63059E-02-6.19958E-01-1.00958E-03 1.50587E-03
 -1       612 7.86027E-02 1.70362E+00-4.65905E-03-3.75139E-01 9.88260E-04-1.54519E-03
 -1       613 9.50727E+00 5.36595E-02 2.91350E-02 4.23081E-01 1.45368E-02-1.89667E-03
 -1       614 1.35920E+01 1.76343E+00 2.08931E-01-4.84681E+00 9.76567E-02 1.53695E-02
 -1       615 1.78867E+00 7.96309E+00-1.63896E+00-6.20483E+00-5.50940E-01 1.09417E-01
 -1       616-9.36180E+00 1.31393E+01-1.38610E+01-7.85818E+00 1.46280E-01 2.18297E-02
 -1       617 1.79858E+00 1.47082E+00-3.40303E-02-1.62902E+00 4.43127E-04 3.09510E-03
 -1       618 1.18986E+01 4.95640E+00 5.69371E-01-7.49775E+00-3.17969E-02 4.49002E-02
 -1       619 8.39006E+00 6.76360E+00 2.23465E-01-7.70055E+00 4.96084E-02 1.32642E-02
 -1       620 1.19728E+01 3.13613E-01 8.76515E-02 1.49377E+00 2.93268E-03-3.27245E-03
 -1       621 8.84919E+00-1.85190E-02-2.41162E-02-7.99515E-01-2.17761E-03-1.44486E-03
 -1       622 3.49468E+00 7.97190E+00-1.06203E+00 7.34078E+00 5.02851E-02 1.86650E-01
 -1       623-5.87393E+00 6.00605E+00-1.20492E+01 2.34778E+00-5.61410E-02 7.64786E-01
 -1       624 1.37438E+01 2.53141E+00 1.32814E-01-6.32606E+00-3.73510E-02 1.32646E-01
 -1       625 1.33476E+01 3.34744E+00 1.74384E-01-6.49323E+00 1.13879E-01-3.01893E-01
 -1       626 1.32279E+00 1.62184E+00-1.35119E-02-1.49132E+00 8.21300E-03-5.19199E-03
 -1       627 1.22396E+00 1.63006E+00-1.05615E-02-1.42439E+00-6.96781E-03 4.25378E-03
 -1       628 4.85757E+00 7.94004E-01-2.31046E-02 1.96230E+00 2.67035E-02-2.58011E-02
 -1       629 4.85198E+00 7.91366E-01-2.25062E-02 1.95788E+00-2.45168E-02 3.18090E-02
 -1       630 1.12976E-02 1.68782E+00-7.53685E-03 1.34165E-01 6.96261E-04-6.45467E-03
 -1       631 1.10508E-02 1.68909E+00-7.98469E-03 1.34681E-01-1.75577E-04 6.43527E-03
 -1       632 6.81977E+00 3.30109E-01-4.52137E-02 1.59337E+00 1.49576E-02-4.15255E-02
 -1       633 6.82033E+00 3.30583E-01-4.54132E-02 1.59394E+00-1.30036E-02 4.93290E-02
 -1       634 3.29731E+00 1.16962E+00-9.84208E-03 2.00424E+00-1.61895E-02-6.05702E-03
 -1       635 1.31673E+00 8.84849E+00-2.50860E+00-4.99039E+00-1.25214E+00 2.30406E+00
 -1       636 3.29628E+00 1.17055E+00-1.16407E-02 2.00702E+00 1.76515E-02 4.00603E-03
 -1       637 2.42068E+00 9.24022E+00-2.35018E+00-6.70065E+00 1.29548E+00-1.83851E+00
 -1       638 6.97647E+00 3.51404E-01-3.04726E-02-1.48435E+00-2.90089E-02-3.91797E-02
 -1       639 6.97683E+00 3.49889E-01-3.22921E-02-1.48204E+00 2.98067E-02 3.97702E-02
 -1       640-3.57869E-03 1.70474E+00-9.39110E-03-1.46535E-01-1.10243E-03-7.47955E-04
 -1       641-3.38920E-03 1.70431E+00-8.86745E-03-1.47886E-01 1.25052E-03 5.02212E-04
 -1       642 6.24123E-01 1.72829E+00-1.46247E-02 1.07007E+00-1.22783E-03-1.20286E-02
 -1       643 6.23445E-01 1.72848E+00-1.47011E-02 1.06953E+00 9.38664E-04 1.14507E-02
 -1       644 2.79044E-01 1.72133E+00-4.57747E-03 6.95666E-01 1.62496E-03-7.51664E-03
 -1       645 2.79088E-01 1.72101E+00-4.45806E-03 6.96026E-01-1.52140E-03 7.45161E-03
 -1       646 2.17479E+00 1.43577E+00-7.85519E-03-1.75398E+00-7.19851E-03-1.95024E-02
 -1       647 2.17590E+00 1.43610E+00-6.57277E-03-1.75977E+00 7.68663E-03 1.50030E-02
 -1       648 2.05930E+00 1.45759E+00-1.57065E-02 1.71257E+00 6.84014E-03-2.29827E-02
 -1       649 2.06085E+00 1.45412E+00-1.44521E-02 1.71244E+00-7.92863E-03 2.14835E-02
 -1       650 1.15237E+00 8.28503E+00-1.86636E+00 4.46784E+00-1.37496E+00-2.06406E+00
 -1       651 1.33745E+01 8.58463E-01 1.01951E-01-3.52596E+00-1.77149E-03 5.30452E-02
 -1       652 1.28116E+01 5.65103E-01 4.67072E-02-2.71328E+00-1.62148E-02-1.48487E-02
 -1       653 5.61739E+00 8.78756E+00-1.53916E-01-7.40679E+00-9.04871E-01 1.25085E+00
 -1       654 6.41882E+00 8.72093E+00-1.43107E-01-7.26250E+00 1.00977E+00-1.63671E+00
 -1       655 5.05987E+00 7.69911E-01-1.63426E-02-1.95887E+00 1.74144E-02-1.57490E-02
 -1       656 5.06006E+00 7.71153E-01-1.70039E-02-1.95890E+00-1.91381E-02 1.55121E-02
 -1       657 1.98714E+00 8.82441E+00-1.72760E+00 6.35669E+00 1.17676E+00 2.00273E+00
 -1       658 1.10580E+01 6.13424E+00 2.25329E-01-8.21758E+00-2.80417E-01 5.33603E-01
 -1       659 1.09901E+01 6.12749E+00 1.81455E-01-8.25687E+00 2.48896E-01-5.43795E-01
 -1       660 6.88529E-01 1.70588E+00-1.50612E-02-1.10851E+00-7.08642E-05-3.09635E-03
 -1       661 6.29709E-01 1.71428E+00-1.47548E-02-1.05492E+00-4.44370E-04 3.31146E-03
 -1       662 7.32067E-02 1.73348E+00-9.75545E-03 4.07917E-01-2.89491E-03-9.44284E-04
 -1       663 7.31701E-02 1.73366E+00-9.55151E-03 4.07692E-01 3.17980E-03 1.12536E-03
 -1       664 3.29645E-01 1.71147E+00-1.03071E-02-7.42705E-01-4.65246E-03-7.04171E-03
 -1       665 3.18726E-01 1.72572E+00-1.14074E-02-7.44993E-01 1.76305E-03 1.22264E-02
 -1       666 1.22584E+01 5.16537E+00 1.94785E-01 8.38604E+00 2.58323E-01 3.48205E-01
 -1       667 1.21982E+01 5.19661E+00 1.52899E-01 8.35000E+00-2.46677E-01-3.20427E-01
 -1       668 8.91048E+00 3.87409E-02-1.12632E-02 7.51597E-01 1.71789E-02-7.73158E-03
 -1       669 8.90852E+00 1.63415E-02-1.57785E-02 7.38539E-01-1.80865E-02 1.04503E-02
 -1       670 3.37162E+00 1.12831E+00-2.37949E-02-2.04230E+00 8.87828E-03-2.15969E-02
 -1       671 3.37005E+00 1.12571E+00-2.10272E-02-2.03813E+00-9.09703E-03 2.27179E-02
 -1       672 1.20473E+00 1.64178E+00-1.17602E-02 1.42265E+00-9.33664E-03 4.57951E-03
 -1       673 1.20367E+00 1.64462E+00-8.66403E-03 1.42492E+00 9.07394E-03-6.73344E-03
 -1       674 1.38284E+01 2.41344E+00 2.23382E-01 5.71859E+00 4.46899E-02 2.62968E-01
 -1       675 1.01118E-01 1.72954E+00-8.56453E-03-4.49864E-01 3.49640E-03-4.35648E-03
 -1       676 1.38176E+01 2.42954E+00 2.13960E-01 5.73285E+00-4.65928E-02-2.55865E-01
 -1       677 1.03153E-01 1.73103E+00-8.43359E-03-4.51893E-01-4.72033E-03 1.98483E-03
 -1       678 1.15041E+01-4.08724E-02-4.52393E-02-1.09040E+00 2.38734E-02-3.55195E-02
 -1       679 1.11740E+01 3.87230E-02-1.59683E-02-8.03420E-01-8.45897E-03 5.96531E-02
 -1       680 7.31671E+00 8.63617E+00-7.52925E-02 8.35414E+00 7.74954E-01 1.06288E+00
 -1       681 7.14351E+00 8.62124E+00-2.08164E-01 8.36956E+00-7.54983E-01-1.05224E+00
 -1       682 1.32618E+01 6.91262E-01 3.15686E-02 3.11901E+00 7.06908E-02-4.58549E-02
 -1       683 1.32945E+01 6.81620E-01 3.57753E-02 3.12357E+00-6.89068E-02 3.76650E-02
 -1       684 1.09750E+01 1.05838E-01-9.11213E-03 6.88839E-01-6.25241E-02-2.83222E-02
 -1       685 1.09825E+01 1.11826E-01-1.00156E-02 6.88175E-01 6.40803E-02 2.91431E-02
 -1       686 9.14791E+00-8.30947E-03-3.17324E-02-6.84227E-01 2.45559E-02-4.94145E-02
 -1       687 9.15116E+00-8.58398E-03-3.57403E-02-6.85504E-01-2.64986E-02 4.63644E-02
 -1       688 4.22805E+00 1.88277E+01-1.03989E+01 1.31984E+01-4.97481E+00-2.25348E+00
 -1       689-2.01116E+00 1.74505E+01-1.11180E+01 1.52850E+01 2.56625E+00-1.37277E-03
 -1       690 2.35245E-01 1.86703E+01-1.02160E+01-1.42303E+01 2.42230E+00-1.00485E+00
 -1       691-2.71233E+00 2.01408E+01-9.39065E+00-1.55863E+01-3.58878E+00 1.22900E+00
 -1       692 1.80246E+01 2.79246E+01-1.58078E+01-2.58222E+01 5.77267E+00-4.93080E+00
 -1       693 1.96212E+00 2.90396E+01-1.27857E+01-1.69131E+01 6.29873E+00-3.56158E+00
 -1       694 3.44860E-01 1.78364E+01-4.34746E+00-1.03158E+01 2.04484E-01 1.66742E+00
 -1       695 7.95542E+00 3.11453E+01-1.28897E+01 1.78340E+01-8.47090E+00-4.16703E+00
 -1       696 2.83884E+01 3.62106E+01-1.07030E+01 2.99738E+01-8.52551E+00-6.46215E+00
 -1       697 1.97397E+00 1.79918E+01-4.52585E+00 1.07234E+01-8.04571E-01 2.76199E-01
 -1       698-9.54947E-01 1.66867E+01-4.20711E+00-9.57036E+00-1.87809E-01-2.50348E+00
 -1       699 2.36674E+00 2.89132E+01-1.16118E+01-1.79142E+01-6.52051E+00 3.57524E+00
 -1       700 1.54881E+01 2.56768E+01-1.63919E+01-2.81635E+01-6.52640E+00 5.02479E+00
 -1       701 4.07284E+00 9.47333E+00 4.85998E-02-7.28673E+00 1.58877E+00-1.61916E+00
 -1       702 3.41804E+00 9.62819E+00-2.51659E+00-5.91718E+00 1.39930E+00-1.61816E+00
 -1       703-1.85145E+00 5.45147E+00-9.94317E+00-5.29060E+00 6.34957E-02-7.60573E-01
 -1       704 7.82222E+00 7.98227E+00 9.91344E-03-7.94878E+00 1.19349E+00-1.27179E+00
 -1       705 7.83579E+00 9.79760E+00-1.18874E-01-7.63516E+00 1.21209E+00-1.82137E+00
 -1       706 3.33574E+00 7.60377E+00-2.60744E+00-7.19587E+00 1.32321E+00-1.85443E+00
 -1       707 1.26729E+01 4.70119E+00 1.14938E-01-7.76753E+00 2.56615E-01-5.96242E-01
 -1       708 1.08515E+01 7.38430E+00 3.21165E-01-8.45918E+00 1.53881E-01-9.72402E-01
 -1       709 8.50790E+00 7.77886E+00 5.60537E-02-7.81298E+00 3.34846E-01-1.10431E+00
 -1       710 1.39677E+01 2.34092E+00 1.02702E-01-5.55362E+00 2.04792E-02-2.43940E-01
 -1       711 1.37120E+01 3.59937E+00 1.07056E-01-6.86962E+00 1.86257E-01-4.20959E-01
 -1       712 1.22617E+01 4.34456E+00-1.52005E-01-7.55625E+00 3.17430E-01-3.48557E-01
 -1       713 1.26923E+01 3.29223E-01-2.35612E-02-2.36480E+00-1.08282E-02-6.19164E-02
 -1       714 1.35934E+01 1.13403E+00 1.15014E-01-3.67417E+00 2.17050E-02-6.68769E-02
 -1       715 1.37916E+01 1.55482E+00 4.97069E-02-4.78246E+00 3.95864E-02-2.97733E-02
 -1       716 1.35735E+01 2.86439E+00 2.99463E-01-5.62741E+00 2.44240E-02-1.01967E-01
 -1       717 1.33902E+01 9.74748E-01 1.37032E-01-3.75935E+00 8.30425E-02 1.36987E-02
 -1       718 1.07595E+01-3.53009E-02-3.92589E-02-3.97030E-01-2.03451E-02 7.53962E-02
 -1       719 1.19475E+01 2.15249E-01 5.70032E-02-1.42442E+00-7.52451E-02 4.95038E-02
 -1       720 1.19001E+01 4.33245E-01-3.32276E-02-1.70508E+00-7.02578E-02 2.58446E-02
 -1       721 8.47581E+00 4.15331E-02-4.49885E-02 1.00920E+00-2.34367E-02-1.12612E-02
 -1       722 9.68006E+00 8.08396E-02 1.53080E-03 3.18761E-01-2.98054E-03 1.35668E-02
 -1       723 9.92862E+00-1.88400E-01-1.13457E-01 4.33247E-02 6.59033E-02 2.77555E-02
 -1       724 6.27730E+00 4.43850E-01-4.83156E-02 1.74882E+00-2.64888E-02 6.10390E-02
 -1       725 7.46668E+00 2.86314E-01 2.54950E-02 1.41923E+00-5.18641E-02 4.85641E-02
 -1       726 7.72233E+00 1.83815E-01-6.41752E-02 1.17760E+00-4.10895E-02 2.80817E-02
 -1       727 4.42596E+00 8.97618E-01-4.05314E-02 2.02639E+00-2.60811E-02 4.91938E-03
 -1       728 5.39705E+00 7.00742E-01-2.91621E-02 1.91595E+00-1.11199E-02 3.40526E-02
 -1       729 5.69558E+00 4.33877E-01-1.29170E-01 1.82637E+00 1.17406E-02 1.72154E-02
 -1       730 2.96012E+00 1.27966E+00 2.02075E-03 1.98042E+00 7.32189E-03 1.11620E-02
 -1       731 3.62689E+00 1.09770E+00 5.59641E-04 1.99573E+00-4.40326E-03 1.74583E-02
 -1       732 3.98398E+00 9.80834E-01-3.60179E-02 1.95010E+00-3.08631E-02 4.85082E-02
 -1       733 1.78929E+00 1.50928E+00-3.23893E-02 1.66407E+00-1.88343E-02 3.63977E-03
 -1       734 2.36280E+00 1.43867E+00 1.27461E-03 1.84716E+00-9.15336E-03 1.23090E-02
 -1       735 2.56409E+00 1.25684E+00-6.59463E-02 1.89625E+00 2.22101E-02-4.56287E-04
 -1       736 1.05432E+00 1.69256E+00 1.82927E-03 1.35006E+00 6.47003E-03-6.79137E-04
 -1       737 1.42478E+00 1.60814E+00 5.36871E-03 1.48999E+00 6.95211E-04 6.67149E-03
 -1       738 1.61892E+00 1.53412E+00-2.52589E-02 1.53135E+00-8.16257E-03 2.33231E-02
 -1       739 5.39340E-01 1.74793E+00-1.37873E-02 9.80186E-01-1.74906E-03 1.63858E-02
 -1       740 7.86541E-01 1.73503E+00-1.99984E-03 1.16689E+00-5.42390E-03 1.67638E-02
 -1       741 8.31851E-01 1.64076E+00-4.76834E-02 1.23595E+00 9.45946E-03-1.59838E-02
 -1       742 2.27833E-01 1.73821E+00-5.21868E-03 6.34515E-01-4.22855E-03 5.28528E-03
 -1       743 3.62803E-01 1.73065E+00-1.03076E-02 7.98151E-01 4.00239E-03 3.69432E-03
 -1       744 3.91412E-01 1.69463E+00-3.61810E-02 8.69609E-01 1.25912E-03 6.66203E-03
 -1       745 5.73093E-02 1.73929E+00 6.57111E-03 3.42715E-01 3.08187E-03 7.73449E-03
 -1       746 1.39361E-01 1.71713E+00-1.12658E-03 4.81398E-01 3.13412E-03 6.96291E-03
 -1       747 1.63638E-01 1.68579E+00-2.27331E-02 5.41415E-01 1.75409E-03 6.11786E-03
 -1       748 2.42554E-03 1.69030E+00-1.09814E-02 6.20164E-02-3.83668E-03 3.99144E-03
 -1       749 1.73086E-02 1.72448E+00-6.87187E-03 2.03571E-01 4.06073E-03 5.49095E-03
 -1       750 3.88878E-03 1.69448E+00-3.16834E-02 2.66932E-01-3.25622E-04 5.29089E-03
 -1       751 2.22149E-02 1.72306E+00-1.17138E-03-2.12264E-01-2.14248E-03 6.63534E-03
 -1       752 2.64927E-03 1.69103E+00-8.80124E-03-6.91930E-02-2.13407E-03 6.78937E-03
 -1       753-8.67573E-03 1.66683E+00-2.27722E-02-1.83612E-03 1.23524E-03 1.69054E-03
 -1       754 1.43097E-01 1.71832E+00-4.23809E-03-5.04727E-01-1.40778E-03 8.99460E-03
 -1       755 6.68050E-02 1.73779E+00-1.14194E-03-3.60625E-01-1.40854E-03 5.33467E-03
 -1       756 5.58667E-03 1.67150E+00-3.62201E-02-2.92877E-01-2.46813E-03-2.80157E-03
 -1       757 3.98653E-01 1.74613E+00-1.19521E-02-8.29074E-01-2.25241E-03 1.09031E-02
 -1       758 2.39677E-01 1.74245E+00-1.46815E-02-6.54049E-01 7.03260E-03 6.01982E-03
 -1       759 1.94942E-01 1.69049E+00-2.33584E-02-5.88006E-01-2.57868E-03 1.20228E-02
 -1       760 7.85533E-01 1.73519E+00 3.50156E-03-1.15641E+00 5.10188E-03 1.28987E-02
 -1       761 5.29838E-01 1.72332E+00-1.47824E-02-9.65428E-01 1.49827E-03 1.20434E-02
 -1       762 4.31577E-01 1.68701E+00-3.69912E-02-8.90958E-01-1.88787E-03-1.79286E-03
 -1       763 1.43141E+00 1.60134E+00-3.46247E-03-1.49312E+00-3.05793E-03 1.01346E-02
 -1       764 1.05917E+00 1.67967E+00-1.07920E-02-1.35050E+00-2.01388E-03 3.30733E-03
 -1       765 8.71661E-01 1.65554E+00-3.38709E-02-1.23043E+00-3.95339E-03-1.42439E-04
 -1       766 2.42763E+00 1.43069E+00 1.57912E-03-1.87070E+00 8.48529E-03 1.08590E-02
 -1       767 1.83674E+00 1.49461E+00-3.37811E-02-1.68489E+00 1.47778E-02 3.42049E-03
 -1       768 1.67991E+00 1.51698E+00-1.93900E-02-1.56062E+00 8.35580E-03 2.05357E-02
 -1       769 3.66298E+00 1.08559E+00-1.43910E-03-2.00701E+00 8.42143E-03 2.76741E-02
 -1       770 3.00520E+00 1.26037E+00-2.78300E-03-1.98781E+00 9.19871E-05 1.86548E-02
 -1       771 2.65383E+00 1.20426E+00-7.45097E-02-1.93212E+00-1.14708E-02 6.78201E-03
 -1       772 5.48533E+00 6.72467E-01-8.41578E-04-1.89654E+00 6.04621E-04 3.60892E-02
 -1       773 4.52542E+00 8.96609E-01-1.75888E-02-2.04323E+00-6.83172E-04 1.00914E-02
 -1       774 4.02826E+00 8.94564E-01-9.21521E-02-1.99755E+00-1.03718E-02 2.17912E-02
 -1       775 7.60430E+00 2.63139E-01 3.88226E-03-1.40225E+00 2.69975E-02 2.19756E-02
 -1       776 6.34119E+00 4.15162E-01-6.39646E-02-1.70954E+00 2.86181E-02 1.28296E-03
 -1       777 5.96382E+00 5.95027E-01-3.51146E-02-1.68350E+00 2.24880E-02 3.31580E-02
 -1       778 9.71890E+00 9.29430E-02 2.86800E-02-2.70343E-01 1.04485E-02 4.20459E-02
 -1       779 8.64388E+00 6.22098E-02 4.07749E-03-9.91179E-01-2.19290E-02 3.27993E-02
 -1       780 7.96897E+00 5.39699E-03-1.31216E-01-1.17407E+00-1.47013E-02 2.86276E-02
 -1       781 1.20160E+01 1.98545E-01 3.71536E-02 1.37969E+00 4.90514E-02 4.43460E-03
 -1       782 1.06851E+01-3.06785E-02-5.82522E-02 3.56868E-01 4.03393E-02-1.37201E-02
 -1       783 9.94859E+00 1.68205E-01-3.56033E-02 9.72310E-03 4.07954E-02 3.57430E-02
 -1       784 1.36566E+01 1.30737E+00 9.99572E-02 3.87080E+00 2.43125E-02-2.49365E-02
 -1       785 1.30559E+01 4.39308E-01 2.91666E-03 2.61146E+00-3.82638E-02 4.10157E-02
 -1       786 1.21599E+01 8.41701E-02-9.08736E-02 1.84210E+00-7.38072E-02 2.81006E-02
 -1       787 1.38954E+01 3.20872E+00 1.07505E-01 6.50996E+00-1.27888E-01-3.32425E-01
 -1       788 1.39176E+01 1.90166E+00 7.36813E-02 5.22589E+00-5.47232E-02-2.56702E-01
 -1       789 1.35345E+01 1.72001E+00 1.21600E-01 4.37434E+00 7.56123E-02-9.14377E-02
 -1       790 1.09918E+01 6.07117E+00 7.73691E-02 8.08901E+00-2.98120E-01-8.52703E-01
 -1       791 1.32883E+01 4.72883E+00 3.30668E-01 7.87597E+00-3.01867E-01-4.48175E-01
 -1       792 1.26751E+01 3.07848E+00-2.57748E-01 7.07956E+00-2.54899E-01-2.11580E-01
 -1       793 7.76152E+00 9.81311E+00-9.53015E-02 7.78113E+00-8.96619E-01-1.65258E+00
 -1       794 9.35303E+00 8.73228E+00 1.86725E-02 8.76211E+00-1.01343E+00-1.08274E+00
 -1       795 9.13817E+00 5.84807E+00-6.36567E-01 8.22823E+00-3.26827E-01-7.76590E-01
 -1       796 3.54137E+00 9.51522E+00-2.06813E+00 6.08845E+00-1.89933E+00-1.51235E+00
 -1       797 3.62686E+00 8.51566E+00-7.62689E-01 6.48407E+00-2.07118E+00-2.03790E+00
 -1       798 3.78462E+00 8.93889E+00-9.99927E-01 6.52694E+00-6.39638E-01-1.72614E+00
 -1       799 2.47362E+00 2.99577E+01-1.07146E+01 1.64849E+01 6.40994E+00 3.61691E+00
 -1       800-4.51492E-01 1.68883E+01-5.08487E+00 9.54399E+00 2.94353E-02-2.74912E+00
 -1       801-7.55306E-01 7.75742E+00-8.22490E+00 5.26771E+00-9.65949E-02-1.07625E+00
 -1       802 1.31400E+01 2.17437E+01-1.92968E+01-2.61251E+01 1.90194E+00-1.57119E+00
 -1       803 1.56948E+01 2.22117E+01-1.87518E+01-2.63526E+01-1.38734E+00 1.12408E+00
 -1       804-2.03149E+00 1.72228E+01-1.26885E+01-1.35587E+01-1.10301E+00 2.27085E+00
 -1       805-2.51207E+00 1.66821E+01-1.22885E+01-1.32949E+01 1.02355E+00-1.55505E+00
 -1       806 1.06914E+01 1.84109E+01-1.96504E+01 2.01646E+01 6.55540E-01-4.26153E-01
 -1       807 1.85496E+01 2.27739E+01-1.60323E+01 2.16938E+01-3.45335E+00-2.45144E+00
 -1       808 1.68046E+01 2.68413E+01-1.50181E+01 2.80366E+01 5.11422E+00 4.49201E+00
 -1       809-2.90486E-01 1.04492E+01-1.17959E+01 8.04089E+00 1.57512E+00 1.99883E+00
 -1       810-3.69399E+00 8.38105E+00-1.39786E+01 6.58279E+00-2.80439E+00-1.33356E-01
 -1       811 3.62504E+00 9.94763E+00-2.77801E+00-6.19491E+00-1.50416E+00 1.73722E+00
 -1       812 3.73317E+00 8.80616E+00-8.46679E-01-6.79159E+00-1.84311E+00 1.91176E+00
 -1       813 2.57392E-01 8.53673E+00-8.32632E+00-6.08209E+00 2.99875E-01 1.00784E+00
 -1       814 6.84791E+00 9.90484E+00-2.07083E-01-7.54453E+00-1.06055E+00 1.86096E+00
 -1       815 8.21925E+00 8.23124E+00 1.75299E-01-8.09531E+00-1.25089E+00 1.11131E+00
 -1       816 3.05726E+00 9.16559E+00-1.03578E+00-6.39257E+00-7.28925E-01 2.02188E+00
 -1       817 1.09568E+01 7.35190E+00 2.67532E-01-8.46795E+00-1.84883E-01 9.42014E-01
 -1       818 1.27162E+01 4.68958E+00 1.34111E-01-7.78806E+00-2.84925E-01 5.98702E-01
 -1       819 8.73451E+00 7.62634E+00-5.87826E-02-8.00756E+00-5.44182E-01 9.54300E-01
 -1       820 1.37955E+01 3.34595E+00 1.14724E-01-6.57244E+00-5.59993E-02 3.14381E-01
 -1       821 1.40384E+01 2.07481E+00 1.58863E-01-5.51309E+00 1.18023E-02 9.11642E-02
 -1       822 1.22460E+01 3.80630E+00-1.46370E-01-7.16446E+00-2.94954E-01 3.01620E-01
 -1       823 1.38228E+01 1.29348E+00 7.39171E-02-4.05996E+00-8.40038E-03 6.56217E-02
 -1       824 1.29376E+01 4.56101E-01-4.97998E-02-2.79004E+00-1.20029E-03 7.46391E-02
 -1       825 1.34674E+01 1.19204E+00-2.74040E-01-5.07543E+00-6.49012E-02 6.94448E-02
 -1       826 1.21066E+01 2.45858E-01 5.81334E-02-1.59686E+00 9.48293E-02-2.62999E-02
 -1       827 1.09120E+01-5.05642E-02-7.28425E-02-5.54841E-01 6.80710E-02-7.26308E-02
 -1       828 1.22360E+01 3.83711E-01-3.27945E-02-2.22122E+00 7.04411E-02 2.62017E-03
 -1       829 9.69669E+00 9.84160E-02 1.25920E-02 3.26962E-01-5.23950E-03-1.78702E-02
 -1       830 8.47326E+00 4.74314E-02-4.41165E-02 1.00867E+00 2.31354E-02 9.13892E-03
 -1       831 1.01019E+01-2.25669E-01-1.58469E-01-1.02431E-01-4.52789E-02-1.36174E-02
 -1       832 7.46505E+00 2.86195E-01 2.43813E-02 1.42165E+00 5.22196E-02-4.42172E-02
 -1       833 6.28320E+00 4.44761E-01-4.79580E-02 1.74797E+00 2.71798E-02-5.64494E-02
 -1       834 7.72194E+00 1.93408E-01-5.98271E-02 1.17833E+00 4.42224E-02-2.51945E-02
 -1       835 5.40420E+00 7.01712E-01-2.96107E-02 1.91948E+00 1.23521E-02-3.00363E-02
 -1       836 4.42902E+00 9.00216E-01-4.04523E-02 2.02857E+00 2.84050E-02-8.28144E-04
 -1       837 5.70272E+00 4.36119E-01-1.26207E-01 1.82716E+00-1.05953E-02-1.06998E-02
 -1       838 3.62911E+00 1.09757E+00 1.19161E-03 1.99472E+00 6.70878E-03-1.65316E-02
 -1       839 2.96033E+00 1.27796E+00 1.57092E-03 1.98202E+00-7.52761E-03-1.29308E-02
 -1       840 3.98874E+00 9.83759E-01-3.40104E-02 1.95136E+00 3.44707E-02-4.49281E-02
 -1       841 2.36173E+00 1.44200E+00 1.22848E-03 1.84832E+00 7.80788E-03-1.43012E-02
 -1       842 1.78650E+00 1.50939E+00-3.39424E-02 1.66223E+00 1.83455E-02-4.03550E-03
 -1       843 2.56563E+00 1.25941E+00-6.47695E-02 1.89594E+00-2.24781E-02-1.73841E-03
 -1       844 1.42445E+00 1.60525E+00 4.21942E-03 1.48831E+00-6.96529E-06-7.55841E-03
 -1       845 1.05422E+00 1.69179E+00 9.09120E-04 1.35011E+00-6.66282E-03-6.44357E-04
 -1       846 1.61732E+00 1.53251E+00-2.70177E-02 1.53044E+00 8.98843E-03-2.50038E-02
 -1       847 7.86320E-01 1.73458E+00-2.46553E-03 1.16767E+00 4.59435E-03-1.77429E-02
 -1       848 5.39352E-01 1.74826E+00-1.39498E-02 9.80992E-01 1.95020E-03-1.60653E-02
 -1       849 8.35455E-01 1.64203E+00-4.89388E-02 1.23487E+00-1.02644E-02 1.47930E-02
 -1       850 3.62838E-01 1.73144E+00-1.02291E-02 7.98264E-01-3.92879E-03-3.45513E-03
 -1       851 2.28007E-01 1.73791E+00-5.38716E-03 6.34246E-01 4.38328E-03-5.27271E-03
 -1       852 3.91081E-01 1.69446E+00-3.61032E-02 8.69694E-01-1.14305E-03-6.78162E-03
 -1       853 1.39291E-01 1.71677E+00-1.20928E-03 4.81578E-01-2.74074E-03-6.81156E-03
 -1       854 5.74026E-02 1.73966E+00 7.20687E-03 3.42811E-01-2.71682E-03-7.70204E-03
 -1       855 1.63440E-01 1.68556E+00-2.30778E-02 5.41514E-01-1.46629E-03-6.14227E-03
 -1       856 1.63835E-02 1.72333E+00-7.19596E-03 2.03172E-01-3.80418E-03-5.58011E-03
 -1       857 2.34875E-03 1.68863E+00-1.08061E-02 6.17992E-02 4.02036E-03-3.75775E-03
 -1       858 4.02567E-03 1.69374E+00-3.22309E-02 2.66517E-01 8.60602E-04-4.91508E-03
 -1       859 2.12957E-03 1.69010E+00-9.12987E-03-6.77980E-02 2.05730E-03-7.34872E-03
 -1       860 2.15704E-02 1.72335E+00-1.61702E-03-2.11146E-01 1.15451E-03-6.51304E-03
 -1       861-1.04038E-02 1.66405E+00-2.38951E-02-1.12496E-03-4.02157E-04-2.16334E-03
 -1       862 6.45416E-02 1.73951E+00-4.63935E-03-3.59552E-01 1.99511E-03-6.43853E-03
 -1       863 1.42256E-01 1.73029E+00-8.51443E-03-5.09053E-01 1.73460E-03-8.54511E-03
 -1       864 8.67136E-03 1.67741E+00-3.40392E-02-2.92061E-01 1.36836E-03 1.68939E-03
 -1       865 2.46330E-01 1.72620E+00-1.14829E-02-6.52309E-01-8.04157E-03-3.16772E-03
 -1       866 3.99478E-01 1.74250E+00-6.81604E-03-8.29127E-01-1.24765E-03-5.66560E-03
 -1       867 2.15777E-01 1.68789E+00-1.53725E-02-5.90052E-01-2.77810E-03-5.91546E-03
 -1       868 5.61543E-01 1.71616E+00-1.91380E-02-9.90905E-01-1.13388E-03-1.14917E-02
 -1       869 8.17823E-01 1.72799E+00 2.52163E-03-1.18351E+00-6.73769E-03-1.14456E-02
 -1       870 4.68020E-01 1.69123E+00-3.45079E-02-9.21798E-01-1.55690E-03 2.22761E-03
 -1       871 1.11100E+00 1.68085E+00-5.47726E-03-1.38324E+00 3.78871E-03-1.80326E-03
 -1       872 1.47954E+00 1.59483E+00-1.55549E-03-1.52171E+00 5.07853E-03-1.59919E-02
 -1       873 9.23070E-01 1.62613E+00-5.06360E-02-1.29234E+00 4.56261E-03 3.61073E-03
 -1       874 1.84465E+00 1.49729E+00-3.10096E-02-1.68396E+00-1.28894E-02-4.45906E-03
 -1       875 2.42716E+00 1.43088E+00 9.21577E-04-1.87026E+00-7.66969E-03-1.37906E-02
 -1       876 1.71050E+00 1.49835E+00-3.26531E-02-1.58164E+00-6.24381E-03-2.38261E-02
 -1       877 3.00774E+00 1.26303E+00-1.59270E-03-1.99039E+00-6.64505E-04-1.87924E-02
 -1       878 3.66517E+00 1.08617E+00-1.79117E-03-2.00864E+00-8.77441E-03-2.75885E-02
 -1       879 2.65400E+00 1.20586E+00-8.00441E-02-1.93206E+00 1.08748E-02-8.09993E-03
 -1       880 4.52776E+00 8.96130E-01-1.74718E-02-2.04362E+00-1.69155E-04-9.48477E-03
 -1       881 5.48431E+00 6.70474E-01-1.80772E-03-1.89612E+00-1.97658E-03-3.56854E-02
 -1       882 4.02821E+00 8.94736E-01-9.21641E-02-1.99817E+00 9.27355E-03-2.05330E-02
 -1       883 6.34025E+00 4.16530E-01-6.31737E-02-1.70979E+00-2.84612E-02-9.67238E-04
 -1       884 7.60249E+00 2.64394E-01 4.84359E-03-1.40392E+00-2.59669E-02-2.17150E-02
 -1       885 5.96287E+00 5.93385E-01-3.29823E-02-1.68443E+00-2.44447E-02-3.33869E-02
 -1       886 8.63957E+00 6.08162E-02 2.35832E-03-9.91237E-01 2.17516E-02-3.49447E-02
 -1       887 9.71572E+00 9.19500E-02 2.81849E-02-2.70732E-01-1.14691E-02-4.28868E-02
 -1       888 7.96955E+00 8.44699E-03-1.26250E-01-1.17410E+00 1.50397E-02-2.99359E-02
 -1       889 1.06807E+01-2.94666E-02-5.57298E-02 3.57263E-01-3.99923E-02 1.42406E-02
 -1       890 1.19888E+01 1.94746E-01 3.30319E-02 1.38028E+00-4.77946E-02-4.68440E-03
 -1       891 9.94864E+00 1.68841E-01-3.05378E-02 1.02485E-02-4.19748E-02-3.63142E-02
 -1       892 1.30160E+01 4.44133E-01 5.76402E-03 2.60280E+00 4.01698E-02-4.51938E-02
 -1       893 1.36262E+01 1.30669E+00 1.07253E-01 3.86159E+00-2.21892E-02 1.91305E-02
 -1       894 1.21391E+01 9.20812E-02-8.47544E-02 1.84014E+00 7.34838E-02-3.49750E-02
 -1       895 1.39030E+01 1.88958E+00 7.53437E-02 5.21149E+00 5.08604E-02 2.56964E-01
 -1       896 1.39121E+01 3.20961E+00 1.20488E-01 6.51104E+00 1.28494E-01 3.38730E-01
 -1       897 1.35177E+01 1.70477E+00 1.12108E-01 4.36560E+00-7.55946E-02 8.56337E-02
 -1       898 1.33187E+01 4.72500E+00 3.43776E-01 7.90014E+00 3.09758E-01 4.60652E-01
 -1       899 1.09633E+01 6.05757E+00 6.60172E-02 8.10081E+00 3.00068E-01 8.67530E-01
 -1       900 1.27038E+01 3.06116E+00-2.41829E-01 7.09317E+00 2.58691E-01 2.31967E-01
 -1       901 9.31559E+00 8.74398E+00 1.66111E-02 8.76942E+00 1.01103E+00 1.06463E+00
 -1       902 7.91295E+00 9.76671E+00-4.42512E-02 7.93286E+00 8.75884E-01 1.69353E+00
 -1       903 9.26168E+00 5.87839E+00-5.58878E-01 8.25085E+00 3.45725E-01 8.18123E-01
 -1       904 3.98794E+00 8.81738E+00-1.19292E+00 7.20681E+00 1.77772E+00 1.91421E+00
 -1       905 3.95474E+00 1.09244E+01-1.07468E+00 6.45332E+00 1.97497E+00 1.62196E+00
 -1       906 4.41635E+00 9.01666E+00-6.62429E-01 7.13252E+00 7.28928E-01 1.83961E+00
 -1       907 2.46849E+00 8.63047E+00-6.70630E+00 4.49875E+00 1.03603E+00 6.64746E-01
 -1       908 2.23391E+00 9.22183E+00-4.94413E+00 5.27667E+00 4.45731E-01 3.13453E-01
 -1       909 1.73209E-01 1.68306E+00-1.56174E-02-5.35667E-01-1.56301E-03 4.52221E-03
 -1       910 2.70675E-01 1.68830E+00-1.39353E-02-6.77814E-01 1.40925E-03-3.64065E-03
 -1       911 3.56026E-01 1.69993E+00-9.83481E-03-7.74035E-01-7.76195E-04-4.17627E-03
 -1       912 3.07698E-01 1.68643E+00-1.41744E-02-7.15297E-01-5.14555E-04 7.14087E-04
 -1       913 4.93227E-01 1.68163E+00-3.35100E-02-9.66050E-01 4.58109E-03 3.14525E-04
 -1       914 9.67484E-01 1.64420E+00-4.19202E-02 1.30324E+00-1.00361E-02 1.42074E-02
 -1       915 1.36538E+00 1.60342E+00-2.27484E-02 1.52494E+00-2.15167E-03 8.60653E-03
 -1       916 1.08672E+00 1.59953E+00-6.49895E-02 1.41146E+00-1.16486E-03-3.61945E-04
 -1       917 7.23718E-01 1.66922E+00-2.72579E-02 1.10230E+00 1.19697E-03 5.02237E-03
 -1       918 1.72520E+00 1.48015E+00-4.17519E-02 1.60762E+00-1.22112E-02-2.98308E-02
 -1       919 1.28333E+01 1.71799E-01-1.56274E-01 2.90791E+00-5.21368E-04-4.78970E-03
 -1       920 1.35545E+01 8.69250E-01 2.55708E-02 3.76060E+00 5.19925E-02-3.12300E-03
 -1       921 1.26191E+01 2.41591E-01-2.29238E-02 2.31526E+00 9.85263E-02-7.40394E-03
 -1       922 1.14053E+01 2.03602E-01 2.05703E-02 1.10376E+00-4.19036E-02-1.73647E-02
 -1       923 1.34372E+01 1.68395E+00-2.59548E-02 4.86506E+00-9.74352E-02 1.07923E-02
 -1       924 1.26408E+01 2.36967E-01-1.70880E-02 2.31717E+00-1.00173E-01-1.65331E-03
 -1       925 1.35672E+01 8.60719E-01 3.12241E-02 3.75998E+00-5.12455E-02-6.14287E-03
 -1       926 1.14149E+01 2.12177E-01 2.58253E-02 1.10256E+00 4.44844E-02 1.54189E-02
 -1       927 1.34409E+01 1.70174E+00-2.64506E-02 4.87683E+00 9.89242E-02-2.03244E-02
 -1       928 1.36579E+00 1.60477E+00-2.05448E-02 1.52678E+00 2.58912E-04-1.00254E-02
 -1       929 9.65562E-01 1.64399E+00-4.07631E-02 1.30471E+00 8.31195E-03-1.44075E-02
 -1       930 7.23226E-01 1.66902E+00-2.73076E-02 1.10213E+00-1.88190E-03-5.05103E-03
 -1       931 1.72493E+00 1.47749E+00-4.26538E-02 1.60781E+00 1.01280E-02 2.99359E-02
 -1       932 9.11210E-02 1.72394E+00-5.86409E-03-4.17253E-01 4.89648E-03 1.39306E-03
 -1       933 1.60249E-01 1.69129E+00-1.40118E-02-4.98066E-01 5.13138E-04-3.18589E-04
 -1       934 1.38761E-02 1.66361E+00-2.63283E-02-2.55383E-01-5.38240E-04 2.21531E-03
 -1       935 1.38409E+01 2.34382E+00 2.80112E-01-5.85777E+00 1.07524E-01-1.15041E-02
 -1       936 1.32909E+01 3.17742E+00 8.35951E-02-6.39191E+00-1.39641E-01 2.63110E-02
 -1       937 1.34057E+01 1.02083E+00 9.08821E-02-4.19523E+00 1.00899E-02-1.28574E-02
 -1       938 1.29953E+01 7.37031E-01 7.17429E-02-3.11661E+00-1.04911E-02-1.52790E-04
 -1       939-6.22861E+00 5.43890E+00-8.98997E+00-3.37715E+00 5.36567E-02 1.70300E-01
 -1       940-1.19919E+00 7.39780E+00-3.40582E+00-4.90515E+00-3.76223E-01 1.36280E+00
 -1       941-5.43381E+00 7.01026E+00-8.96321E+00-2.78182E+00-8.23137E-01 6.34077E-01
 -1       942-6.08762E+00 5.10856E+00-1.04914E+01-2.83148E+00 1.70626E+00-4.28979E-01
 -1       943 1.95807E+00 8.93355E+00-2.12063E+00-7.10357E+00-2.54205E-01-4.70084E-01
 -1       944 5.15080E+00 7.04687E+00-7.42416E-01-7.09915E+00-2.67188E-01-1.77788E-01
 -1       945 6.96323E+00 7.59936E+00 3.33046E-01-7.87939E+00-2.21135E-01 5.96336E-01
 -1       946 4.04387E+00 8.93197E+00-3.88531E-01-6.72454E+00-6.97671E-01 1.81165E-01
 -1       947 3.90958E+00 7.44524E+00-6.82467E-01-6.59711E+00 2.70778E-01-4.73607E-01
 -1       948 7.03121E+00 7.76047E+00 3.07387E-01-7.55980E+00 1.61668E-01-6.68990E-01
 -1       949 1.57871E+00 1.53212E+00-2.50403E-02-1.52263E+00 5.49390E-03 6.24048E-05
 -1       950 1.28261E+00 1.61825E+00-1.49558E-02-1.46657E+00 3.04221E-03-7.75719E-04
 -1       951 1.53539E+00 1.54666E+00-1.74640E-02-1.49925E+00-3.15514E-03 1.07535E-02
 -1       952 1.96102E+00 1.44061E+00-2.38051E-02-1.68199E+00 7.24692E-03-8.43292E-03
 -1       953 1.96430E+00 1.44414E+00-2.42309E-02-1.68837E+00-6.63945E-03 1.06142E-02
 -1       954 2.41418E+00 1.35308E+00-1.43429E-02-1.82259E+00 7.43306E-03-1.91564E-02
 -1       955 2.21598E+00 1.37549E+00-3.60867E-02-1.77191E+00 5.18606E-04 1.51573E-03
 -1       956 2.41296E+00 1.34884E+00-1.74479E-02-1.82647E+00-6.91118E-03 1.73069E-02
 -1       957 1.07556E+01 6.47566E+00 5.29319E-01-7.75787E+00-3.11697E-04 1.08617E-02
 -1       958 1.14882E+01 5.67795E+00 4.34545E-01-8.08942E+00-1.73730E-02 1.44931E-01
 -1       959 9.71730E+00 6.78251E+00 2.99024E-01-7.81765E+00-1.47416E-01 2.30862E-01
 -1       960 9.55076E+00 6.65872E+00 1.86333E-01-7.84992E+00 1.55089E-01-2.37045E-01
 -1       961 1.14306E+01 5.65589E+00 3.88508E-01-8.12696E+00-3.68522E-02-1.00504E-01
 -1       962 1.29533E+01 3.66190E+00 3.64105E-01-6.78607E+00-1.56209E-01 9.53079E-02
 -1       963 1.29993E+01 4.21794E+00 4.54165E-01-7.15194E+00 6.35669E-02 1.72203E-02
 -1       964 1.09152E+01 6.96222E-02-1.92564E-02 6.80579E-01-3.55469E-04-9.69445E-05
 -1       965 7.83276E+00 4.60452E-02-8.62739E-02-1.20388E+00-1.85802E-02-4.17369E-02
 -1       966 6.37122E+00 4.17392E-01-6.51188E-02-1.63258E+00-6.64137E-03-6.46472E-02
 -1       967 7.26138E+00 1.57024E-01-5.90608E-02-1.38051E+00-7.75708E-04 2.52525E-04
 -1       968 6.37016E+00 4.16116E-01-6.64106E-02-1.63203E+00 6.48354E-03 6.60660E-02
 -1       969 7.83541E+00 4.82900E-02-8.48903E-02-1.20241E+00 1.73226E-02 4.06326E-02
 -1       970 9.02004E+00 2.01729E-02-4.00267E-02-7.31864E-01-2.44668E-02 2.99193E-02
 -1       971 9.85174E+00 1.35307E-01-1.99431E-02-4.97271E-03 3.71595E-02 2.28225E-02
 -1       972 9.01768E+00 2.07489E-02-3.71813E-02-7.31160E-01 2.07611E-02-3.31287E-02
 -1       973 9.84939E+00 1.32355E-01-2.07353E-02-4.21944E-03-4.21961E-02-2.33150E-02
 -1       974 6.03682E-01 7.86960E+00-2.15269E+00 5.34741E+00 2.74507E-01-8.46770E-01
 -1       975-4.14734E-01 7.42221E+00-5.42314E+00 4.35262E+00-2.01938E-01 5.96229E-01
 -1       976 5.79834E-01 6.82787E+00-4.97318E+00 5.50264E+00 4.35829E-01 3.93805E-01
 -1       977-6.47076E-02 7.34847E+00-2.80734E+00 6.20046E+00-8.48815E-02 1.33830E+00
 -1       978 7.12656E+00 6.45576E+00-6.13758E-01 7.95810E+00 2.76990E-03 5.37262E-02
 -1       979 5.75623E+00 8.84089E+00 3.79057E-01 7.88353E+00 5.39056E-01 2.30176E-01
 -1       980 8.51137E+00 6.89062E+00 4.15137E-01 8.17535E+00 3.41460E-01 5.78381E-01
 -1       981 8.40955E+00 6.85253E+00 3.59105E-01 8.17503E+00-3.14544E-01-5.10461E-01
 -1       982 5.35587E+00 8.57252E+00-3.51215E-02 7.89389E+00-4.63494E-01-1.30734E-01
 -1       983 8.95553E-01 1.63816E+00-3.68747E-02-1.25343E+00-3.48383E-03-2.66732E-03
 -1       984 5.43068E-01 1.73223E+00 3.19549E-04 9.89105E-01-1.41184E-02-9.39724E-03
 -1       985 6.67037E-01 1.68324E+00-1.38740E-02 1.02493E+00-1.01359E-04 6.01584E-04
 -1       986 5.42780E-01 1.73283E+00-8.54357E-05 9.89238E-01 1.43270E-02 9.47481E-03
 -1       987 2.20180E-01 1.68930E+00-1.52814E-02 6.09899E-01 2.14652E-03 7.66135E-05
 -1       988 3.34217E-01 1.68564E+00-2.01795E-02 7.86129E-01 4.10881E-03-4.76184E-03
 -1       989 2.69010E-01 1.66772E+00-2.93769E-02 7.04874E-01 2.41973E-04-2.36716E-05
 -1       990 3.34010E-01 1.68503E+00-2.05929E-02 7.86324E-01-3.98030E-03 4.59020E-03
 -1       991 2.20267E-01 1.68920E+00-1.51619E-02 6.10006E-01-1.82878E-03 5.51126E-06
 -1       992 2.85473E+00 1.21420E+00-6.66286E-02 1.94756E+00-2.85327E-02 1.32675E-02
 -1       993 3.67360E+00 1.05876E+00-2.42527E-02 2.03954E+00-4.02867E-03 2.72596E-02
 -1       994 3.17047E+00 1.09304E+00-9.73326E-02 2.00878E+00 1.33945E-04-6.75305E-04
 -1       995 3.67529E+00 1.05931E+00-2.28383E-02 2.04034E+00 6.52817E-03-2.61796E-02
 -1       996 2.85450E+00 1.21512E+00-6.71923E-02 1.94870E+00 2.67091E-02-1.50236E-02
 -1       997 4.67959E+00 7.01426E-01-6.72920E-02 1.94965E+00 7.58204E-04 3.42382E-03
 -1       998 4.24596E+00 8.37634E-01-7.20364E-02 1.97783E+00 8.01214E-03-3.24969E-02
 -1       999 5.23737E+00 6.27597E-01-1.91690E-02 1.89424E+00-2.64674E-03-2.52751E-02
 -1      1000 5.23286E+00 6.26857E-01-2.01316E-02 1.89287E+00 5.61570E-03 3.26674E-02
 -1      1001 4.24158E+00 8.36001E-01-7.09820E-02 1.97545E+00-7.23736E-03 3.76488E-02
 -1      1002 1.22950E+01 5.27070E+00 6.05076E-01 7.36431E+00-9.01359E-03 2.85945E-02
 -1      1003 1.09598E+01 5.72188E+00 7.49986E-04 7.75969E+00 2.22098E-01 1.85992E-01
 -1      1004 1.26280E+01 4.38504E+00 3.47514E-01 7.62138E+00-8.93813E-02-8.20759E-03
 -1      1005 1.25897E+01 4.39442E+00 3.10717E-01 7.60059E+00 6.54562E-02 3.29055E-02
 -1      1006 1.09271E+01 5.75476E+00-3.59674E-02 7.73406E+00-2.03815E-01-1.14849E-01
 -1      1007 1.36769E+01 2.95946E+00 4.15311E-01 6.14867E+00-1.00744E-01 3.97502E-02
 -1      1008 1.36471E+01 2.18899E+00 1.85322E-01 5.30137E+00-5.58258E-03 2.82011E-03
 -1      1009 1.36694E+01 2.94633E+00 3.98361E-01 6.14204E+00 8.96163E-02-1.79345E-02
 -1      1010 9.10970E-02 1.72059E+00-8.88463E-03-4.17584E-01-5.05994E-03-3.33339E-03
 -1      1011 1.78030E-01 1.68651E+00-1.69310E-02-5.36319E-01 9.16964E-04-4.38159E-03
 -1      1012 2.65144E-01 1.68996E+00-1.01520E-02-6.78076E-01-8.23111E-04 3.60457E-03
 -1      1013 3.50214E-01 1.69847E+00-6.51994E-03-7.74301E-01 3.15262E-04 2.41451E-03
 -1      1014 5.61682E+00 5.67277E-01-9.52144E-03-1.88704E+00 1.52208E-02 1.46118E-02
 -1      1015 4.49825E+00 8.13833E-01-7.39988E-02-1.97979E+00 1.84136E-02 1.34922E-02
 -1      1016 4.96424E+00 5.35373E-01-1.39644E-01-1.97688E+00-2.29279E-04 3.01259E-04
 -1      1017 4.49675E+00 8.12436E-01-7.57252E-02-1.98038E+00-1.85317E-02-1.15527E-02
 -1      1018 5.61748E+00 5.67044E-01-9.51199E-03-1.88723E+00-1.59047E-02-1.50052E-02
 -1      1019 3.70748E+00 1.04534E+00-6.09455E-02-1.93288E+00-1.14755E-03 1.46440E-02
 -1      1020 3.70840E+00 1.04533E+00-5.90598E-02-1.93097E+00-1.04880E-04-1.29403E-02
 -1      1021 3.46392E+00 1.16224E+00-2.25174E-02-1.88213E+00 4.93882E-04-1.17119E-04
 -1      1022 3.08895E+00 1.20190E+00-2.58399E-02-1.95904E+00-2.05699E-02 2.07965E-02
 -1      1023 3.09090E+00 1.20465E+00-2.61429E-02-1.96188E+00 2.11287E-02-2.09161E-02
 -1      1024 1.97744E+00 1.44656E+00-3.04852E-02 1.66294E+00-1.27407E-03 3.20029E-04
 -1      1025 2.29417E+00 1.39921E+00-9.32160E-03 1.76393E+00 2.30745E-04 1.47768E-02
 -1      1026 2.29291E+00 1.40072E+00-9.64880E-03 1.76430E+00-2.17472E-03-1.61539E-02
 -1      1027 6.76944E+00 5.19714E-01 6.14491E-03 1.45648E+00 8.37457E-04 3.76304E-03
 -1      1028 6.35593E+00 4.27506E-01-1.64247E-02 1.67863E+00-1.54997E-02-4.67109E-02
 -1      1029 7.15943E+00 3.13152E-01-6.65209E-02 1.36954E+00-4.21974E-03 1.48204E-02
 -1      1030 7.15947E+00 3.15687E-01-6.54693E-02 1.37061E+00 3.22664E-03-6.83113E-03
 -1      1031 6.35734E+00 4.30732E-01-1.49652E-02 1.68055E+00 1.93038E-02 5.51681E-02
 -1      1032 8.50103E+00 9.80538E-02-2.88365E-02 8.31220E-01 5.53293E-03-1.80141E-03
 -1      1033 9.13804E+00 4.76030E-02 1.51487E-02 5.92261E-01 3.03823E-03-6.69599E-03
 -1      1034 8.21806E+00 1.05897E-01-4.08511E-02 9.90147E-01 1.05169E-03 1.03013E-02
 -1      1035 8.20257E+00 1.15673E-01-5.40132E-02 9.90866E-01-4.94932E-03-3.11114E-03
 -1      1036 9.14974E+00 6.47670E-02 8.58352E-03 6.06041E-01 1.23189E-02 1.15200E-02
 -1      1037 6.60952E-01 1.72019E+00-1.52222E-02-1.09563E+00 3.53240E-03-4.11574E-03
 -1      1038 1.27829E-02 1.66233E+00-2.55674E-02-2.55806E-01 5.97671E-06-3.08486E-03
 -1      1039-1.09014E-02 1.71676E+00-9.42108E-03-1.44465E-01 3.36533E-04 1.89475E-04
 -1      1040 1.04412E+01-3.08409E-01-1.02248E-01-2.96879E-01-2.27704E-02-2.73527E-02
 -1      1041 1.14003E+01-1.08908E-02-3.61292E-02-1.00381E+00-4.67524E-03-7.50302E-03
 -1      1042 1.02448E+01-2.69959E-01-1.07107E-01-1.58338E-01 4.44830E-02 2.38709E-02
 -1      1043 1.19759E+01 3.96537E-01-5.51908E-02-1.86974E+00-1.42374E-02 1.13604E-02
 -1      1044-2.69108E-03 1.65440E+00-1.72818E-02 1.53592E-01 6.34309E-04 3.07819E-05
 -1      1045 4.98146E-03 1.65683E+00-9.79169E-03 9.68219E-02-9.47155E-04-1.44064E-03
 -1      1046 4.85227E-03 1.67068E+00-1.17457E-02 1.90543E-01-8.62923E-04-3.57360E-03
 -1      1047 4.27452E-03 1.67087E+00-1.23354E-02 1.90881E-01 1.81831E-03 3.41469E-03
 -1      1048 4.65086E-03 1.65744E+00-1.01259E-02 9.68920E-02 2.13631E-03 1.47087E-03
 -1      1049-1.27773E-02 1.66250E+00-1.89880E-02-3.44515E-02 6.28484E-04 2.67037E-03
 -1      1050-1.22631E-02 1.66349E+00-1.90854E-02-3.50326E-02 9.66258E-04-2.27292E-03
 -1      1051 4.70792E-01 1.68468E+00-3.23044E-02-9.35722E-01-7.65113E-03-4.16793E-03
 -1      1052 5.26792E-02 1.72851E+00-5.94878E-03 3.37243E-01-8.48047E-03 1.67771E-03
 -1      1053 1.31953E-01 1.68109E+00-2.55173E-02 4.71968E-01 7.08477E-03 7.73740E-03
 -1      1054 1.14277E-01 1.69100E+00-1.46380E-02 4.03304E-01 2.79997E-04 1.40433E-04
 -1      1055 1.32358E-01 1.68138E+00-2.51745E-02 4.71892E-01-6.67942E-03-7.66600E-03
 -1      1056 5.27739E-02 1.72887E+00-6.03771E-03 3.37041E-01 8.78152E-03-1.59363E-03
 -1      1057 1.80640E+02 9.55084E+00 5.03057E-02-1.29429E-01 2.65561E-02-2.64940E-01
 -1      1058 1.65187E+02 9.47257E+00 3.44744E-01 6.06014E+00-1.30996E-01-4.95272E-01
 -1      1059 1.65324E+02 9.53457E+00-4.12077E-01-5.57099E+00 1.83527E-01-8.87440E-01
 -1      1060 1.95601E+02-3.54786E+00 2.51105E-02 7.76913E-02 6.42430E-02-4.18673E-02
 -1      1061 1.36846E+02 7.09603E-01-2.22336E-01-8.80727E+00-9.59683E-01-1.56552E-01
 -1      1062 1.38022E+02 1.13451E-01-1.89605E-01 9.32458E+00 5.17988E-01-1.51658E-01
 -1      1063-6.94009E-01 3.54759E+00-7.67830E-03-1.69261E-02-2.57606E-05-1.68899E-02
 -1      1064 2.28464E+02-2.24246E+01-9.60447E-01 9.75603E-02 2.01859E-01 1.13463E+00
 -1      1065 3.96764E-01-4.99893E-02 3.39814E-03 2.63927E-03 1.02267E-03 7.25977E-03
 -1      1066 1.59099E+02 1.99935E+01-3.81110E-01-2.67211E+00 1.42426E+00 7.29869E-01
 -1      1067 1.79718E+02 1.20046E+01 1.41435E-01-7.36604E+00 2.74477E-01-3.68187E-01
 -1      1068 1.59226E+02 2.18290E+01-1.18853E+00 2.64156E+00-1.23965E+00 5.87626E-01
 -1      1069 1.78283E+02 1.29720E+01 9.11400E-02 6.18319E+00-2.92345E-01-3.04558E-01
 -1      1070 1.76291E+02 3.25438E+00-2.66769E+00 6.00313E-03 3.29008E-01-4.50890E+00
 -1      1071 1.87008E+02 5.21671E+00 7.99392E-02 2.40296E+00 1.50988E-02 2.00463E-02
 -1      1072 7.90973E-02-9.81030E-02 2.60736E-04-3.37131E-02-1.78709E-03-1.07136E-03
 -1      1073 1.79838E+02 1.38936E+01-2.79532E-01 1.58385E+01-8.41153E-01-1.11762E+00
 -1      1074 1.81040E+02 1.24740E+01-3.21011E-02-1.58824E+01 6.01182E-01-9.40292E-01
 -1      1075 1.89084E+02 2.71637E+00 1.22485E-02-5.33286E+00 2.91944E-03 5.31221E-02
 -1      1076 5.70974E+01 8.17416E+00-5.08757E+00-2.71643E+01-2.14575E+00-1.37981E+00
 -1      1077 5.71504E+01 7.91123E+00-5.02617E+00 2.73957E+01 2.10854E+00-1.85656E+00
 -1      1078 1.98692E+02-7.09616E+00 1.46416E-01 1.08374E+01 1.58724E-02 3.13116E-02
 -1      1079 1.99109E+02-7.47484E+00-2.07127E-01-1.09117E+01-5.01161E-04-8.80167E-02
 -1      1080 1.40242E+02 2.82020E+00-1.22475E-01 2.21564E+01 1.53550E+00 1.71370E+00
 -1      1081 1.42804E+02 6.07027E-01-9.20679E-01-2.14405E+01-1.22665E+00 6.65846E-01
 -1      1082-4.43033E+00 1.17401E+01-5.83907E-02 8.55872E+00 5.59455E-03 3.74009E-01
 -1      1083-6.06685E+00 1.29552E+01 2.71861E-01-7.43908E+00-1.39832E-01 2.07966E-01
 -1      1084 1.66519E+02-7.99052E+00-2.95793E+01-5.04347E+00 8.40340E-01-4.83514E+00
 -1      1085 1.72262E+02-6.75081E-01-2.00227E+01 4.79332E+00 2.21586E-01-1.27669E+00
 -1      1086-2.96388E-01 1.69177E+00-5.09515E-04 4.01996E-01 5.77498E-03-1.08999E-02
 -1      1087-3.22048E-01 1.69213E+00 6.31341E-04-3.87167E-01 7.41427E-03-6.42703E-03
 -1      1088 2.29965E+00 1.41572E+00 2.44193E-03 3.35211E+00-2.27457E-03 1.42191E-02
 -1      1089 2.29138E+00 1.44442E+00-7.65282E-04-3.37025E+00-1.63433E-02-8.60829E-03
 -1      1090 1.69386E+01-4.87270E+00 1.12721E-01-3.54202E+00 1.67563E-01 1.98916E-01
 -1      1091 1.73312E+01-4.69720E+00-2.44737E-02 3.74802E+00-2.02956E-01 1.10946E-02
 -1      1092 1.91762E+02-7.23132E-01-1.69687E-03 6.29948E+00-1.65129E-02 6.32178E-02
 -1      1093 1.14184E+01-2.78557E+00 8.71672E-03-1.72666E+00-1.06834E-01-3.18785E-02
 -1      1094 1.13193E+01-2.83020E+00 6.86946E-02 1.77590E+00 7.68857E-02 2.77737E-02
 -1      1095 7.85439E-01 1.95792E+00-3.25406E-03-2.17451E+00-7.49077E-03-1.31753E-02
 -1      1096 7.87542E-01 1.94588E+00-4.02051E-03 2.15750E+00 1.34924E-03-7.23836E-03
 -1      1097-2.53258E-01 1.49815E+00-4.09848E-04-1.13569E-01 1.24637E-03-3.99895E-03
 -1      1098 2.30502E+01 6.19404E-01-1.66547E-01 1.62230E+01 2.48704E-01 1.49803E-01
 -1      1099 2.23915E+01 1.43757E+00-2.29381E-01-1.64477E+01-3.38120E-01 4.74243E-01
 -1      1100 2.16621E+02-1.76755E+01-9.39157E-01 3.47158E+01 3.51415E-01 2.02693E+00
 -1      1101 2.19173E+02-1.76075E+01-4.43650E-01-3.54521E+01-1.27687E+00 3.57319E+00
 -1      1102 5.05906E-01 4.58485E-01-9.29516E-03-2.11551E-01-6.53561E-02 1.33295E-02
 -1      1103 4.92349E-01 4.62576E-01 6.14518E-02 1.84118E-01 1.60182E-02 2.72727E-02
 -1      1104-2.47875E-01 1.48138E+00 4.21973E-03 1.10073E-01 1.39890E-03-4.52279E-03
 -1      1105-6.11459E-02 1.96325E+00 4.90150E-03-1.09477E+00 1.99595E-03-1.19763E-02
 -1      1106-4.94930E-02 1.95447E+00-4.89532E-04 1.08907E+00-9.77859E-04-4.42114E-03
 -1      1107 6.12991E+00-3.25940E-01 2.41587E-04-3.62533E+00-3.33325E-02-2.57605E-02
 -1      1108 6.13452E+00-3.40283E-01 3.50370E-03 3.59273E+00 1.68641E-02-1.16246E-02
 -1      1109 4.86595E+01 1.84530E+01 3.97943E-01-3.33652E+01-2.35278E+00-2.81292E-01
 -1      1110 4.76509E+01 1.94380E+01-3.81110E-01 3.42394E+01 2.02098E+00-9.21015E-01
 -1      1111 1.76512E+02 8.78428E+00-1.32165E-01-1.75046E+00 1.41831E-01-1.36650E+00
 -1      1112 1.76042E+02 9.01807E+00 1.82632E-01 1.82313E+00-6.69984E-03-6.19236E-01
 -1      1113 6.90726E-02-9.89908E-02-1.86491E-02 1.52466E-01-8.62892E-04-4.78719E-03
 -1      1114-1.20033E-03-2.54396E-02-7.04115E-04 2.62045E-02 1.15865E-03-1.28173E-03
 -1      1115 1.89326E+02 2.51097E+00 1.01170E-03 6.64587E+00-1.34435E-02 2.90091E-03
 -1      1116 1.52731E+02 3.53311E+01-4.76073E+00-1.35120E+01 2.97381E+00 2.76191E+00
 -1      1117 1.62974E+02 2.95604E+01-3.90032E+00 1.46028E+01-3.68386E+00 2.30283E+00
 -1      1118 1.85435E+02 6.68499E+00 2.40123E-02-3.01697E+00 2.44127E-02-8.68162E-02
 -1      1119 1.91126E+02-1.27869E+00 4.47656E-02-7.32936E+00 2.81577E-02 2.11217E-02
 -1      1120 6.07666E-02-1.14994E-01-2.94865E-04-1.63282E-01 2.82756E-03 1.67321E-03
 -1      1121 1.43879E+02-6.42202E+00-2.00888E+01-5.68688E-01-3.02909E+00-2.39323E+00
 -1      1122 1.45939E+02-3.81963E+00-1.63138E+01-6.47137E-02 2.76547E+00 1.33284E-01
 -1      1123 1.15544E+00 1.22016E+00 7.64217E-02-1.54594E+00-1.74215E-01 8.77982E-02
 -1      1124 1.02867E+00 1.76869E+00 4.74325E-02 2.27788E+00 5.37886E-02 7.56718E-02
 -1      1125 1.69651E+02 1.77492E+01 4.41927E-01-5.83616E+00 4.69589E-01-3.77222E-01
 -1      1126 1.70576E+02 1.80923E+01 2.70103E-01 5.26499E+00-5.27609E-01-6.64036E-01
 -1      1127 2.70857E+02-4.28959E+01-1.09618E+01-2.05634E+00 2.55938E+00 8.25624E+00
 -1      1128 1.88625E+02 3.28434E+00 7.02522E-02-9.43856E+00-4.32001E-02-1.81104E-01
 -1      1129 2.46794E-01-9.92911E-02 1.64806E-02 2.05511E-01-1.06720E-02-1.04888E-02
 -1      1130-2.83681E-03-2.49753E-02-5.66037E-04-2.61553E-02-1.53217E-03-1.27944E-03
 -1      1131 1.83463E+02 8.66317E+00 9.13968E-02 2.75122E+00-4.29733E-02-1.11145E-01
 -1      1132 1.88495E+02-4.38182E+00-9.81503E-02-2.02772E+01-1.62288E-01 2.30902E-01
 -1      1133 1.92273E+02-6.20217E+00-3.15987E-01 2.20547E+01-2.85102E-02 4.68501E-01
 -1      1134 1.54694E+02 7.40588E+00 1.21950E-01-4.35410E+00 4.43577E-01-7.31974E-01
 -1      1135 1.55131E+02 8.25990E+00-2.15169E-01 3.78329E+00-9.52879E-02-4.98536E-01
 -1      1136 2.06098E+02-1.11414E+01-6.09665E-02 1.46569E-01-9.56491E-02-1.56553E-01
 -1      1137 1.72312E+02 4.32601E+00-9.52230E-01-5.41288E+00 4.22282E-01-2.77974E+00
 -1      1138 1.72458E+02 4.14531E+00-2.00897E+00 4.58154E+00-7.22525E-01-3.94018E+00
 -1      1139 6.95773E+00 1.38726E+01 1.61232E+00 2.38488E+01-1.76810E-01 8.67405E-01
 -1      1140 8.09856E+00 1.33198E+01 1.81086E+00-2.33775E+01 1.21577E-01 1.38835E+00
 -1      1141 1.87450E+02 1.58736E+01-1.12999E-02-2.39535E+01 7.96231E-01-3.13269E+00
 -1      1142 1.87100E+02 1.67238E+01 2.79790E-01 2.36319E+01-1.19938E+00-3.66421E+00
 -1      1143 1.60414E+02 7.24787E+00-1.85571E+00 3.23681E+01 2.78298E+00 1.27254E+00
 -1      1144 1.61762E+02 1.07979E+01-3.19455E-02-3.20079E+01-1.73147E+00-1.06832E+00
 -1      1145 1.07305E+02-1.83978E+00-9.21901E+00 1.34689E+01 2.14567E+00-1.77897E+00
 -1      1146 1.09791E+02 5.67433E-01-6.73047E+00-1.35980E+01-2.04235E+00-5.69312E-01
 -1      1147 1.79297E+02 1.12552E+01 2.21555E-01-1.92518E+00 4.56669E-02-3.51923E-01
 -1      1148 1.75850E+02-7.41594E-01-1.46017E+01-1.20419E-01-3.56996E-01-3.95963E+00
 -1      1149 2.47428E-01-6.86446E-02-1.85641E-02-2.12420E-01 3.05022E-02-3.20570E-03
 -1      1150 1.57208E+02 2.02506E+00-1.11929E+00-5.34875E+00 1.48103E+00-2.50146E+00
 -1      1151 1.58863E+02 2.11092E+00-3.97215E-01 6.02428E+00-8.62640E-01-2.03912E+00
 -1      1152 1.87461E+02 5.59067E+00 2.36345E-01 1.10650E+01 6.19327E-04-3.00305E-01
 -1      1153 1.40521E+01-2.42922E+00 4.49395E-02 2.10554E+00-5.67031E-02 6.61944E-02
 -1      1154 1.39295E+01-2.27314E+00-3.43703E-02-2.06714E+00 1.08246E-01-9.41760E-03
 -1      1155 1.78318E+02 8.61847E+00-2.48715E-01-1.45760E-01 5.81321E-02-1.47062E+00
 -1      1156 1.78907E+02 1.08657E+01 1.35120E-01 6.42124E-01 4.70483E-02-1.89747E-01
 -1      1157 2.09258E+01 1.29232E+01 2.82669E-01-2.06630E+01-1.14689E+00-5.93028E-01
 -1      1158 2.06938E+01 1.28389E+01 1.47341E-01 2.12413E+01 9.22313E-01-5.31226E-01
 -1      1159 2.24307E+00 1.48596E+00 1.31262E-02-2.62769E+00-3.57374E-03-4.79736E-03
 -1      1160 2.24519E+00 1.47664E+00 7.64362E-03 2.63984E+00 2.13622E-02-2.48981E-03
 -1      1161 1.90627E+02-1.27347E+00-5.75922E-02 9.80037E+00-1.86469E-01-1.64239E-02
 -1      1162-1.76418E-01 1.65174E+00 2.36349E-03-3.54402E-01-3.32608E-03-3.37097E-03
 -1      1163 1.58893E+01 4.49825E-01-9.29134E-02 9.49386E+00 1.69101E-01 1.71200E-01
 -1      1164 1.56591E+01 3.54506E-01 4.64009E-02-9.03661E+00 3.90882E-02 2.64054E-02
 -1      1165-1.73464E-01 1.66658E+00 7.35538E-04 3.62776E-01-1.36478E-03-4.04324E-03
 -1      1166 1.38717E+02 1.57253E+01-1.43177E+00 3.99292E+01 4.76464E+00 8.04515E+00
 -1      1167 1.37422E+02 1.48757E+01-6.09140E+00-4.02687E+01-4.32695E+00 5.27036E+00
 -1      1168-2.65596E-02 1.82719E+00 4.79744E-03 8.13598E-01 5.50975E-03-8.14283E-03
 -1      1169-2.27867E-02 1.82473E+00 4.88541E-03-8.13637E-01-2.88517E-03-6.76582E-03
 -1      1170 4.74956E+00 5.24003E-01 9.07875E-03 3.13697E+00 3.89385E-02-1.84097E-02
 -1      1171 4.77471E+00 4.86410E-01 1.77539E-02-3.15199E+00-2.44610E-02-7.28138E-03
 -1      1172 5.68313E-01 5.14504E-01-2.56669E-03 2.16086E-02 7.99981E-04-1.28211E-02
 -1      1173 2.14589E-01-1.51778E-01-3.95318E-03 6.82030E-03 3.31581E-03 2.15321E-03
 -1      1174-1.28314E+01 1.93294E+01 3.26237E-01 5.43177E-01 1.58427E-01 5.60554E-01
 -1      1175-2.57916E-02-4.42761E-02-4.72540E-03-8.59553E-02-1.28564E-03-9.15272E-04
 -1      1176 1.51642E+02 9.02569E+00 3.15425E-01 1.85511E+00-3.01408E-01 7.23002E-02
 -1      1177 1.51290E+02 9.63580E+00 8.52615E-01-3.03314E+00 2.21333E-01 4.38341E-01
 -1      1178 1.90496E+02 1.48877E+00 6.45978E-02-1.19846E+00 2.64338E-02-3.04119E-02
 -1      1179-2.08011E-01 1.56014E+00 5.42579E-03 2.72525E-03-3.88383E-04-4.76570E-03
 -1      1180 6.19601E-01 1.90486E+00 1.11435E-02-1.65919E+00-7.30687E-03-5.21686E-03
 -1      1181 6.08815E-01 1.91283E+00 1.24841E-02 1.65947E+00 8.45529E-03-7.71741E-03
 -1      1182 9.22723E+00-1.33158E+00 2.47476E-02-2.26283E+00-3.57829E-02-7.02136E-04
 -1      1183 9.22767E+00-1.29691E+00-6.85018E-03 2.21301E+00 6.75217E-02-2.89329E-02
 -1      1184 7.48654E+01 2.08146E+01-1.05598E+00 4.61995E+01 4.03294E+00 3.64812E-01
 -1      1185 1.03470E+02 5.31000E+00 5.10139E-01 2.94732E+01 3.25379E+00 2.16043E-01
 -1      1186 7.16536E+01 2.25281E+01 6.14103E-01-4.78345E+01-2.24319E+00-8.08618E-01
 -1      1187 1.06114E+02 5.57802E+00 4.20065E-01-3.11402E+01-2.22590E+00-9.00725E-01
 -1      1188 2.12839E-02-4.65043E-02-5.33988E-04-3.65545E-03 9.02047E-05-1.07969E-03
 -1      1189 1.89534E+02-1.51764E+00-1.33362E-01-1.07764E+01 1.99246E-01 8.64610E-02
 -1      1190 1.89910E+02 4.77248E-01 4.84996E-02-6.92934E+00-2.84761E-02 3.26281E-02
 -1      1191 4.44952E+01-5.71522E+00-3.12801E+00-2.01479E+01 2.02437E-01 9.99481E-01
 -1      1192 4.36243E+01-6.40539E+00-4.78989E+00 1.96622E+01 2.21041E-01 6.35621E-01
 -1      1193 1.64793E+02 2.42475E+01 1.26671E-01-1.12094E+01 1.08066E+00-4.97796E-01
 -1      1194 1.66064E+02 2.39537E+01 3.21929E-01 1.10187E+01-1.37662E+00-8.69138E-01
 -1      1195 1.91970E+02-1.42595E-01-1.49104E-02 3.31116E+00 2.30861E-03-4.97955E-03
 -1      1196 1.96136E+02-4.25671E+00-1.14562E-02 5.51809E+00 6.01348E-03 3.09084E-02
 -1      1197 5.74410E+00 3.27341E+00 3.05580E-01 7.23961E+00 3.96508E-01 3.67490E-01
 -1      1198 4.75675E+00 3.92499E+00 3.52342E-01-7.38234E+00-2.11690E-01 5.17491E-02
 -1      1199 1.35680E+01-6.81321E+00 2.13655E-01-4.65191E+00-4.08652E-01 2.76786E-02
 -1      1200 1.37209E+01-7.16090E+00 1.49531E-01 4.86160E+00 4.10579E-01 7.65613E-02
 -1      1201-4.91827E-01 2.61106E+00 2.16585E-02-2.72986E+00-6.19198E-02-4.93040E-02
 -1      1202-5.32488E-01 2.64721E+00 4.09509E-02 2.74851E+00 7.36895E-02-7.19050E-02
 -1      1203-3.61827E-01 1.23915E+00 9.83607E-03 6.90885E-02-1.13985E-02-3.45741E-02
 -1      1204-1.66802E-02-4.62135E-02-4.19995E-03 7.93158E-02 3.10144E-03-3.60088E-03
 -1      1205 2.53374E+01-1.18295E+01-4.83759E-01-4.69708E+00 4.07678E-01 2.80712E-01
 -1      1206 2.50595E+01-1.15448E+01-6.44363E-01 4.68236E+00-5.03708E-01 1.31179E-01
 -1      1207-3.49116E-01 1.34573E+00 3.23989E-02 1.08883E-02 4.69894E-03-4.27899E-02
 -1      1208-6.52442E-01 1.75731E+00 1.60850E-02 1.97998E-01 1.39477E-02-3.52018E-02
 -1      1209-7.19766E-01 1.80735E+00 1.26462E-02-2.03033E-01-2.36745E-02-3.60859E-02
 -1      1210 1.43216E+00 1.61749E+00 5.94434E-02 4.82934E+00 1.28091E-01-5.28367E-02
 -1      1211 1.48951E+00 1.62722E+00 5.24910E-02-4.75178E+00-1.17936E-01-7.35488E-02
 -1      1212-4.65467E+00 9.28131E+00 1.05649E-01 8.27730E-01-4.23039E-02 1.53083E-01
 -1      1213-2.21692E-01 1.06772E+00 6.72081E-03-1.67394E-03-2.35117E-03-2.93306E-02
 -1      1214-8.85105E-01 2.37429E+00 7.79342E-03-1.01927E+00-3.31643E-02-4.05920E-02
 -1      1215-9.06162E-01 2.38911E+00 1.43007E-02 1.01205E+00 1.84279E-02-5.07838E-02
 -1      1216 5.56744E+00-1.11443E+00 1.24858E-01-6.01388E+00-2.01631E-01-6.71411E-02
 -1      1217 5.61723E+00-1.18184E+00 5.86861E-02 6.12398E+00 1.93411E-01-5.48368E-02
 -1      1218 1.96497E+02-4.77490E+00 5.27581E-02-5.75529E+00 3.87528E-03-1.31448E-02
 -1      1219-6.28194E-03-2.94985E-03-1.52675E-03-3.26268E-03-2.72003E-05-7.87233E-04
 -1      1220 1.02131E-04-2.07987E-04 6.48135E-05-9.96889E-05 3.44578E-05 1.85784E-05
 -1      1221-1.02002E-04 9.65974E-05 5.40483E-06 1.74550E-05-5.47288E-06-3.46517E-06
 -1      1222-5.00499E-05 1.04932E-04 5.87766E-06-1.21085E-05-1.79468E-06 1.27066E-06
 -1      1223-6.22551E-05 7.12707E-05 3.75738E-06-1.93403E-05-2.39726E-07 1.82914E-06
 -1      1224-8.72910E-05 1.23671E-04 7.23634E-06-4.37081E-05 2.30365E-07-1.23573E-06
 -1      1225-3.34592E-04-1.95915E-04-1.10606E-05 1.50856E-04 1.52442E-05-7.65431E-05
 -1      1226-3.02934E-04-3.26860E-04 6.73647E-05-2.42702E-04-6.07818E-05-9.06759E-05
 -1      1227-2.21728E-05-1.95856E-04 3.60436E-05 3.11989E-05-3.71235E-06-1.86724E-05
 -1      1228-8.64940E-05-7.75030E-05 1.62461E-05 1.14428E-04-1.38433E-05 4.56917E-06
 -1      1229-7.95355E-05 7.31655E-05 7.92700E-06-1.45873E-04-2.18185E-06 1.03503E-05
 -1      1230-8.73052E-05 2.66666E-05 1.03463E-05 1.16439E-04-5.31033E-06 8.69622E-06
 -1      1231-6.57167E-03-3.03744E-03-1.61022E-03 2.85004E-03-5.03083E-05-7.38752E-04
 -1      1232 5.25112E-05-2.43686E-05 3.12403E-05-2.19840E-04 1.46091E-05-9.63259E-06
 -1      1233 1.83752E+02 8.19524E+00 1.67970E-02-4.65093E-02 3.48032E-02 1.64724E-02
 -1      1234 1.43700E+02 6.62091E-01-9.25497E-01-3.02239E-01-1.30090E+00-2.07274E+00
 -1      1235 1.45312E+02 3.30888E-01-2.77852E-01 4.33216E-01 1.72454E+00-2.06559E+00
 -1      1236 4.20534E+01 9.51263E-01 2.23158E+00 3.88692E+01-7.30954E-01-4.06484E-01
 -1      1237 3.94400E+01 2.96550E+00 2.46010E+00-3.87437E+01 3.15790E+00 3.63382E-01
 -1      1238 1.72349E+02 1.31279E+01-1.69533E-01-1.58317E+00-1.78870E-02-4.31655E-01
 -1      1239 1.71657E+02 1.28565E+01 4.94026E-02 1.48625E+00-5.92995E-02-7.56849E-01
 -1      1240 1.75448E+02-2.22955E+00 1.28410E+00 2.90240E+01 1.17183E+00 5.23457E-01
 -1      1241 1.72161E+02-1.64385E+00-3.46421E-01-2.75915E+01-7.16585E-01 4.37094E-02
 -1      1242 2.11845E+02-1.54334E+01 7.11969E-01 1.37600E+01 6.23397E-02 8.43118E-01
 -1      1243 2.10849E+02-1.45788E+01-2.14675E-01-1.37391E+01 7.73303E-02 8.49142E-01
 -1      1244 1.85540E+02 6.71775E+00 1.86800E-01-6.89142E+00 9.50962E-02-1.53135E-01
 -1      1245 1.90392E+02 1.24027E+00 1.96796E-01 8.34002E+00 1.41692E-01-8.57481E-02
 -1      1246 1.90159E+02 1.68442E-01 6.59021E-02 6.87485E+00 5.43335E-02 8.60845E-02
 -1      1247-1.49351E+01 2.37146E+01 3.12020E-01 1.12282E+01 3.19891E-02 8.48506E-01
 -1      1248-1.60990E+01 2.41028E+01 1.04522E+00-1.10828E+01 6.86596E-02 1.12809E+00
 -1      1249 1.47713E+01-2.18442E-01-7.78658E-02 5.65047E+00 3.48138E-02 1.02599E-02
 -1      1250 1.47592E+01-2.41363E-01-4.58674E-03-5.68696E+00 2.42171E-02-1.89811E-02
 -1      1251 2.30123E+01 2.05503E+01 1.27210E-01 2.37229E+01 9.99106E-01-1.78341E+00
 -1      1252 2.30889E+01 2.12379E+01-3.05312E-02-2.46039E+01-1.05658E+00-1.87564E+00
 -1      1253 3.85654E+00 9.92293E-01-1.60983E-02-2.71375E+00-1.33492E-02-1.72150E-02
 -1      1254 3.84907E+00 9.84039E-01-1.19613E-02 2.70279E+00-4.85383E-03-8.60557E-03
 -1      1255-5.63414E-03 1.75900E+00-4.37017E-03-6.18817E-01 2.48442E-03-7.05864E-04
 -1      1256-9.43314E-03 1.76218E+00 4.09553E-03 6.22971E-01-2.09775E-04-3.34519E-04
 -1      1257 1.85390E+02 7.04429E+00 1.20220E-01 6.27109E+00-4.25152E-02-1.99263E-01
 -1      1258 1.89020E+02-2.29487E+00-3.67488E-01 1.46077E+01 2.53470E-02 2.86921E-02
 -1      1259 6.42186E-02-8.62852E-02-4.08591E-04 4.39544E-02 1.11573E-03 1.19274E-03
 -1      1260 1.62936E+02 1.67200E+01-3.51895E-01 1.48411E+00 4.64217E-01-3.08427E-01
 -1      1261 1.62752E+02 1.63177E+01-9.30549E-03-1.65133E+00-4.14402E-01-3.18054E-01
 -1      1262 1.92051E+02-7.76580E-01 5.42955E-02-4.66528E+00 2.41776E-02 3.96277E-02
 -1      1263-1.69415E+00 6.34449E+00-5.52157E-02-3.41215E+00-1.18067E-01 3.09078E-02
 -1      1264 2.22104E-01 1.21232E-02 2.57174E-02-1.71476E-02-2.70653E-02 4.46859E-02
 -1      1265 2.64262E-01 2.57903E-02 5.88916E-02-3.22985E-02 5.89150E-02 6.32242E-02
 -1      1266 1.58644E+02 3.24593E+01-6.07257E+00-4.73773E+01-7.63223E-01 7.19635E+00
 -1      1267 1.79951E+02 1.61019E+01-1.06451E+01-2.59200E+01 3.82956E+00 1.20380E+00
 -1      1268 1.89443E+02 5.56517E+00-2.48437E-01-1.40098E+01 2.43024E-01-2.89754E+00
 -1      1269 2.06458E+02 9.46646E+00-3.60677E-02-2.49013E+01 1.67154E+00-3.64097E+00
 -1      1270 1.76006E+02 3.37287E+01 2.58810E+00-2.45802E+01 2.21538E+00-1.27931E-01
 -1      1271 1.86723E+02 4.10804E+01-3.91162E-01 5.43947E+01-8.28578E-01 9.62661E+00
 -1      1272 1.78549E+02 1.10505E+01-1.20893E+01 2.71669E+01-5.62828E+00-8.06367E-02
 -1      1273 1.89662E+02 5.77737E+00-3.53227E-01 1.43325E+01-3.80798E-01-2.88276E+00
 -1      1274 2.05433E+02 1.10080E+01 2.08064E-01 2.54186E+01-1.43396E+00-3.26858E+00
 -1      1275 1.75096E+02 3.12562E+01 2.61447E+00 2.41311E+01-2.15353E+00-6.65651E-01
 -1      1276-5.10156E-02-1.80214E-02 9.06235E-05 5.87114E-02 2.09832E-03-5.19257E-03
 -1      1277-4.20323E-02-2.53235E-02-1.07475E-02 3.57918E-02 9.45673E-04-1.42304E-03
 -1      1278-1.83190E-03-1.81097E-03-6.69777E-04-2.05544E-03-1.65157E-04-3.83205E-04
 -1      1279-8.26581E-03 6.03309E-04-6.11697E-04-6.72023E-04 2.54972E-04-3.11654E-04
 -1      1280-3.58341E-03-2.77006E-02 2.45705E-03 4.82694E-02-7.57959E-04 1.53558E-03
 -1      1281-1.38283E-02-1.01619E-02-2.08652E-03 1.72218E-02 7.18146E-06-2.58207E-03
 -1      1282-1.37373E-02-1.68420E-02-6.42119E-03 1.13616E-02 7.49896E-04-2.60285E-03
 -1      1283-7.93689E-02-2.31527E-02-6.85432E-03-5.90538E-02 1.39752E-03-2.17228E-03
 -1      1284-4.33447E-02-2.28099E-02-9.27791E-03-3.82392E-02-2.87456E-03-1.71106E-03
 -1      1285-1.92486E-03-1.85133E-03-7.94788E-04 1.96890E-03 2.67805E-04-4.41345E-04
 -1      1286-9.63981E-03 4.46734E-05-1.03793E-03 1.03201E-03-1.39474E-04-6.59296E-04
 -1      1287-4.08254E-03-2.68900E-02 4.08851E-03-5.31307E-02-2.36825E-03 9.94967E-04
 -1      1288-1.52277E-02-1.01351E-02-1.46065E-03-1.71924E-02-7.73934E-04-2.16820E-03
 -1      1289-1.02807E-02-1.43542E-02-3.78743E-03-1.15322E-02-6.82037E-04-1.56109E-03
 -1      1290-2.62005E+01 2.58611E+01-1.65200E+00-1.86844E+01-2.09397E+00 1.81045E+00
 -1      1291-1.89223E+01 2.95128E+01 1.65333E+00-5.59181E+00-6.02921E-01 8.23682E-01
 -1      1292-2.41238E+01 2.48787E+01-1.14185E+00 1.87295E+01 1.78229E+00 1.60156E+00
 -1      1293-1.92310E+01 2.86196E+01 9.66505E-01 5.95440E+00 3.16187E-01 5.65360E-01
 -1      1294-1.44136E+01 2.12247E+01 3.83071E-02 5.74017E+00 1.89705E-01 7.22523E-01
 -1      1295-1.81747E+01 2.41945E+01-4.66573E-01 4.31375E-01 2.59731E-01 3.52995E-01
 -1      1296-1.45943E+01 2.20971E+01 7.97555E-01-4.90372E+00 1.38196E-01 1.00136E+00
 -1      1297 3.37863E+01 2.74181E+01 3.09931E+00-2.81909E+01-8.14695E-01 1.19179E-01
 -1      1298 5.63292E+01 4.08108E+01 6.38313E-01-4.63388E+01-5.42326E+00 1.64873E+00
 -1      1299 1.54484E+02 3.49558E+01 3.62807E+00-6.26773E+01-5.48585E+00 1.16600E+01
 -1      1300 7.41353E+01 3.32578E+01-1.29739E+01-5.29538E+01-9.95927E+00 8.25830E+00
 -1      1301 9.71251E+01 1.27846E+01-6.32992E+00-4.78748E+01-2.63840E+00 2.80074E+00
 -1      1302 1.87925E+02 2.99332E+01 1.90566E+01-8.16110E+00 5.54982E+00 2.72761E+01
 -1      1303 2.01782E+02 5.07287E+01 3.42683E+01-2.83583E-01 2.63569E+00 3.27610E+01
 -1      1304 1.83273E+02 2.48700E+01 1.06829E+01 8.92994E+00-5.59069E+00 2.36127E+01
 -1      1305 1.98378E+02 4.74989E+01 2.96149E+01-6.77322E-01-1.73042E+00 3.18777E+01
 -1      1306 1.70693E+02-1.41251E+00-2.25046E+01-3.25426E+00 4.17941E-01-3.69227E+00
 -1      1307 1.95101E+02 3.86002E+01 2.94145E+01-4.04363E-01-7.35862E-01 2.60547E+01
 -1      1308 1.73689E+02-3.44789E-01-1.94028E+01 3.63420E+00-2.94784E-01-1.62897E+00
 -1      1309-4.24736E-05 2.27261E-04-6.44413E-06-2.17022E-05 4.27405E-06-3.01270E-06
 -1      1310-2.50193E-05 9.47581E-05 5.09540E-06-1.06670E-05 1.72293E-06-9.04782E-06
 -1      1311-2.61055E-05-7.03780E-05-1.32100E-06-1.04955E-06-1.05902E-06-1.75118E-06
 -1      1312-3.84221E-05 2.29799E-04-1.20910E-06-9.13291E-06-1.88407E-06-3.21960E-06
 -1      1313-2.44387E-05-8.45384E-05 3.47767E-06-1.49061E-05 4.73968E-07 3.33469E-07
 -1      1314-5.61709E-05-1.07023E-04 4.45909E-06-7.15272E-05 1.41092E-06 4.67618E-06
 -1      1315-4.32544E-05-6.30728E-05 7.02067E-06 4.70173E-05-7.09076E-06-2.52479E-06
 -1      1316 1.27674E+01 1.61187E+01 2.46708E-01-1.61700E+01 1.38163E-01-6.15834E-01
 -1      1317 1.51863E+01 1.97496E+01 5.86833E-01-1.81411E+01 5.97135E-01-1.28409E+00
 -1      1318 5.46952E+01 2.20666E+01-1.12405E+00-4.06321E+01-1.15671E+00 1.04488E+00
 -1      1319 2.12037E+01 2.08277E+01 8.35893E-01-2.41755E+01-2.04815E-01 1.37235E+00
 -1      1320 3.38360E+01 1.91127E+01-8.87430E-01-2.87318E+01-2.00339E+00-5.25651E-01
 -1      1321 1.22908E+01 9.15183E+00-3.30898E-01-1.39535E+01-2.20621E-01-1.63592E-02
 -1      1322 1.21327E+01 1.23607E+01-1.46921E-01-1.45729E+01-4.66872E-01 3.37980E-01
 -1      1323 2.20761E+01 1.78970E+01-4.18595E-02-2.26906E+01-1.11248E+00-8.77955E-01
 -1      1324 1.46500E+01 2.63191E+00 1.41489E-01-8.32210E+00 1.02765E-02 1.36435E-01
 -1      1325 1.31659E+01 4.82807E+00 1.82715E-03-9.61619E+00 6.46774E-02-1.18200E-01
 -1      1326 2.25262E+01 7.78971E+00 1.77390E-01-1.89752E+01-9.46103E-01-2.64586E-01
 -1      1327 1.46537E+01 5.59056E+00 8.05547E-02-1.27262E+01-4.29049E-01 4.84661E-01
 -1      1328 1.80068E+01-1.17310E-01-4.52614E-01-1.23127E+01 1.41625E-01 3.20450E-01
 -1      1329 1.43655E+01 8.47921E-01 6.66172E-02-5.14133E+00-5.86758E-02 1.56516E-03
 -1      1330 1.38752E+01 1.81011E+00-1.10023E-01-6.60877E+00 6.59205E-02-9.01031E-02
 -1      1331 1.49974E+01-1.92566E-01-1.81092E-01-7.10966E+00 6.45177E-02-9.95850E-02
 -1      1332 1.32315E+01-8.84344E-01-2.88043E-02-2.03451E+00 4.13516E-02 1.27540E-02
 -1      1333 1.37970E+01-4.60948E-01-1.51879E-01-3.46148E+00 6.75176E-02-1.55028E-02
 -1      1334 1.47094E+01-1.13693E+00 1.34878E-01-3.92884E+00 9.26697E-02 2.60885E-02
 -1      1335 9.91143E+00-6.52671E-01 3.22447E-02 1.04731E+00 4.33469E-02 4.99008E-03
 -1      1336 1.11518E+01-6.15760E-01-1.19186E-03 6.17747E-02 2.24195E-02-5.06604E-02
 -1      1337 1.01228E+01-2.21745E+00-2.71554E-02 2.03817E+00 1.02620E-01-1.22613E-02
 -1      1338 1.19553E+01-1.35192E+00-4.35496E-03-2.72308E-01 1.88729E-02 1.61488E-02
 -1      1339 1.29024E+01-2.44358E+00 1.18634E-01-1.32641E-01 5.89252E-02 1.87366E-02
 -1      1340 8.61471E+00-4.99072E-01-2.57197E-02 1.76257E+00 2.81340E-02 5.43095E-04
 -1      1341 5.39349E+00 5.84842E-01 5.00696E-02 2.50486E+00 2.89129E-02 6.35814E-03
 -1      1342 6.54634E+00 2.74446E-01 3.55295E-02 2.25741E+00 2.02229E-02-4.36832E-02
 -1      1343 7.65858E+00-7.19168E-01 3.02395E-02 2.98042E+00 2.75504E-02-2.20553E-02
 -1      1344 7.13949E+00-1.06038E-01 7.45457E-03 2.39282E+00 1.07663E-02 9.65226E-03
 -1      1345 5.32524E+00 6.04588E-04-7.18483E-02 3.39855E+00 3.83947E-02-2.71511E-02
 -1      1346 3.99303E+00 1.03622E+00 3.41071E-02 2.38467E+00-9.99982E-04-8.69779E-03
 -1      1347 4.93041E+00 7.62528E-01 1.11303E-02 2.34600E+00 5.81731E-03-1.52460E-02
 -1      1348 4.23112E+00 7.62842E-01-5.22126E-02 2.92013E+00 2.15680E-02-2.56299E-02
 -1      1349 2.47773E+00 1.44265E+00-9.86561E-03 2.26743E+00 1.34745E-02 6.30186E-03
 -1      1350 3.17974E+00 1.21056E+00 5.41267E-03 2.37000E+00 1.22380E-02-1.35913E-02
 -1      1351 3.02058E+00 1.22649E+00-6.77742E-04 2.68187E+00-3.51825E-03 8.18466E-03
 -1      1352 1.14307E+00 1.75459E+00 1.47070E-02 1.65507E+00 4.77276E-03-1.22944E-03
 -1      1353 1.64029E+00 1.68088E+00 1.14609E-02 1.85537E+00-1.66936E-03-1.17819E-02
 -1      1354 6.39378E-01 1.89468E+00-2.87776E-02 1.90962E+00 7.29232E-03-1.44624E-02
 -1      1355 1.73161E+00 1.64510E+00-4.61508E-03 2.05832E+00 1.17120E-02-4.89157E-03
 -1      1356 1.46425E+00 1.74667E+00-1.31080E-02 2.39173E+00 4.11332E-03-3.20122E-03
 -1      1357 7.68136E-01 1.81778E+00-7.31592E-03 1.45111E+00 1.23771E-02 1.76631E-03
 -1      1358 2.34808E-01 1.80794E+00 1.67955E-02 8.72975E-01 7.22792E-03-5.29940E-03
 -1      1359 4.47853E-01 1.81619E+00 1.23100E-02 1.06911E+00-3.13342E-03-1.93890E-02
 -1      1360 2.61577E-01 1.95255E+00 3.12098E-03 1.35105E+00 3.10381E-03-6.95005E-03
 -1      1361 4.42525E-01 1.83541E+00-6.06088E-03 1.18408E+00 3.40837E-03-3.22788E-03
 -1      1362-5.83721E-02 1.87139E+00-1.25020E-02 9.47139E-01 3.71055E-03-1.20992E-02
 -1      1363 9.49968E-02 1.76429E+00 5.73658E-04 6.01367E-01-1.28588E-03 1.50327E-03
 -1      1364 2.17975E-01 1.77301E+00 7.26810E-03 7.71713E-01-2.98455E-03-8.38433E-03
 -1      1365-3.19227E-02 1.78510E+00 2.38127E-03 7.10632E-01 5.24757E-03-6.46492E-04
 -1      1366-6.76744E-02 1.70568E+00-3.89902E-03 3.24144E-01 2.17662E-03-6.60798E-04
 -1      1367-1.19260E-03 1.71657E+00 2.49190E-03 4.70979E-01-2.58708E-03-5.24140E-03
 -1      1368-9.61491E-02 1.70772E+00-7.35405E-04 4.87557E-01 1.67139E-03-2.71074E-04
 -1      1369-1.07484E-01 1.65669E+00 1.20290E-02 1.62555E-03 5.25565E-04-3.82720E-03
 -1      1370-9.44014E-02 1.66902E+00 1.98653E-03 1.33800E-01-1.10388E-03-2.16070E-03
 -1      1371-2.35736E-01 1.51225E+00-6.43126E-03 6.18004E-02-3.89081E-03-4.48557E-03
 -1      1372-1.13775E-01 1.61923E+00 1.96735E-03 1.95696E-01 2.87742E-03-6.41232E-03
 -1      1373-2.08582E-01 1.56325E+00 1.48313E-03 2.29480E-01-1.24211E-04-3.02993E-03
 -1      1374-9.29895E-02 1.66623E+00 3.89537E-03-1.33005E-01 7.54777E-03-5.64254E-03
 -1      1375-4.71968E-03 1.71307E+00 6.55696E-03-4.71180E-01 4.91832E-04-7.22493E-03
 -1      1376-6.77292E-02 1.70810E+00-3.47644E-03-3.22352E-01-6.06401E-03-3.97392E-03
 -1      1377-2.32776E-01 1.51079E+00-8.30053E-03-5.49775E-02 1.62669E-03-5.20113E-03
 -1      1378-1.16160E-01 1.62396E+00-1.44213E-03-1.96990E-01-8.15373E-04-2.79120E-03
 -1      1379-2.22985E-01 1.56563E+00-4.60526E-03-2.25471E-01-1.86404E-03-2.48510E-03
 -1      1380 2.18491E-01 1.78134E+00 5.28529E-03-7.74745E-01 3.04977E-03-4.93267E-03
 -1      1381 9.47627E-02 1.77114E+00 1.13632E-02-5.99842E-01 8.95592E-04-2.24266E-03
 -1      1382-9.33150E-02 1.70137E+00-1.30407E-03-4.81514E-01-1.64354E-03 3.40792E-03
 -1      1383 4.45858E-01 1.81781E+00 1.24361E-02-1.06776E+00 3.77096E-03-9.62823E-03
 -1      1384 2.28425E-01 1.80698E+00 1.50044E-02-8.68679E-01-6.85209E-03-3.06083E-03
 -1      1385-2.84949E-02 1.78192E+00-1.19619E-02-7.05552E-01 3.14157E-04-6.71724E-03
 -1      1386 1.15111E+00 1.75985E+00 2.23194E-02-1.65701E+00-6.40032E-03-1.34755E-04
 -1      1387 7.66519E-01 1.81319E+00-7.18077E-03-1.45384E+00-1.03037E-02-4.73229E-05
 -1      1388 2.68490E-01 1.95548E+00 1.14088E-02-1.35532E+00-3.30733E-03-7.89405E-03
 -1      1389 4.36636E-01 1.83699E+00-1.36092E-03-1.18790E+00-1.97585E-03-3.10432E-03
 -1      1390-7.62382E-02 1.86612E+00-2.24142E-02-9.48795E-01-2.42106E-04-1.27360E-02
 -1      1391 1.64776E+00 1.68440E+00 1.37368E-02-1.85537E+00 4.20407E-03-1.03633E-02
 -1      1392 3.17008E+00 1.21590E+00-2.55728E-03-2.36916E+00-1.05429E-02-2.42964E-02
 -1      1393 2.47691E+00 1.44374E+00-1.22076E-02-2.27058E+00-1.45485E-02 4.08660E-03
 -1      1394 6.26189E-01 1.88823E+00-3.89403E-02-1.91453E+00-5.85651E-03-1.61676E-02
 -1      1395 1.73601E+00 1.65131E+00-1.60296E-03-2.06996E+00-1.35074E-02-4.03022E-03
 -1      1396 1.46355E+00 1.74823E+00-3.73036E-03-2.39846E+00-3.35763E-03 1.46656E-03
 -1      1397 4.92063E+00 7.51348E-01-2.05797E-04-2.33253E+00-6.60188E-03-2.13104E-02
 -1      1398 4.01022E+00 1.06019E+00 2.91512E-02-2.38821E+00-6.64866E-03-7.62864E-03
 -1      1399 3.03393E+00 1.25192E+00 7.89902E-03-2.67831E+00 2.46543E-03 6.36269E-04
 -1      1400 6.59115E+00 2.99973E-01 3.32302E-02-2.26946E+00-5.64966E-03-1.20188E-02
 -1      1401 5.39259E+00 5.62284E-01 3.86560E-02-2.50460E+00-7.93687E-03 1.11555E-02
 -1      1402 4.22670E+00 7.42186E-01-3.48227E-02-2.93179E+00-2.44863E-02-2.16886E-02
 -1      1403 9.91156E+00-6.84908E-01 1.87890E-02-1.06345E+00-1.20102E-02-3.13478E-03
 -1      1404 8.61958E+00-5.20351E-01-3.16366E-02-1.77486E+00-1.64057E-02 1.20328E-02
 -1      1405 5.33121E+00-2.60070E-02-7.94605E-02-3.41784E+00-4.48500E-02-2.63613E-02
 -1      1406 7.14271E+00-7.93780E-02-1.53376E-03-2.41381E+00-1.58703E-02 3.37912E-03
 -1      1407 7.65744E+00-7.24175E-01 4.21664E-02-3.00083E+00-2.92241E-02-1.11793E-02
 -1      1408 1.12502E+01-6.35786E-01 3.76776E-02-9.70891E-02-1.76531E-02-2.43969E-02
 -1      1409 1.38908E+01-4.48900E-01-2.67134E-02 3.54380E+00 2.79561E-02 3.69947E-02
 -1      1410 1.32494E+01-1.03034E+00-6.92985E-02 2.04005E+00-1.80903E-03 6.38511E-02
 -1      1411 1.29386E+01-2.53270E+00 1.02622E-01 5.21035E-02-7.90899E-02-6.31491E-03
 -1      1412 1.20563E+01-1.24071E+00-1.29160E-02 2.63409E-01-4.35697E-02 1.06787E-02
 -1      1413 1.01809E+01-2.23487E+00-1.04038E-01-2.04827E+00-1.01611E-01-1.62359E-02
 -1      1414 1.42001E+01 1.90501E+00-1.06667E-01 6.65965E+00-3.91684E-02-2.87791E-02
 -1      1415 1.42256E+01 6.46598E-01-6.55788E-02 5.11305E+00 3.03293E-02-6.32880E-04
 -1      1416 1.45739E+01-1.19024E+00 1.26527E-01 3.88307E+00 5.83366E-05 3.88113E-02
 -1      1417 1.34391E+01 5.14003E+00 3.21860E-01 9.62054E+00-9.70961E-02 3.06649E-02
 -1      1418 1.44701E+01 2.44147E+00-1.20220E-02 8.51904E+00 1.44583E-01 2.62886E-01
 -1      1419 1.50141E+01-6.16830E-01-6.53530E-01 7.23416E+00 2.51217E-01 6.67442E-02
 -1      1420 1.15297E+01 1.21359E+01 1.79908E-02 1.47550E+01 5.47164E-01-3.50423E-04
 -1      1421 1.25002E+01 9.29930E+00-1.35786E-01 1.43118E+01 3.24397E-01 7.59738E-02
 -1      1422 2.28160E+01 7.70349E+00 4.73430E-01 1.87759E+01 7.54574E-01-1.57269E-01
 -1      1423 1.45556E+01 5.20663E+00-3.05254E-01 1.23591E+01 2.08657E-01 3.61250E-01
 -1      1424 1.78988E+01-3.86791E-01-7.34486E-01 1.27455E+01 7.01696E-02 2.00876E-01
 -1      1425 1.57131E+01 1.94566E+01 1.31026E+00 1.78713E+01-2.81724E-01-1.05771E+00
 -1      1426 1.30904E+01 1.63253E+01 4.20739E-01 1.58968E+01-5.68178E-02-8.57368E-01
 -1      1427 2.19381E+01 1.77918E+01-7.04468E-02 2.30073E+01 1.06242E+00-1.08194E+00
 -1      1428 3.42034E+01 2.61398E+01 2.02984E+00 2.93134E+01 2.19181E+00 2.83752E-01
 -1      1429 5.37044E+01 3.54473E+01-2.28440E+00 4.54790E+01 6.38373E+00 1.98025E+00
 -1      1430 5.78372E+01 2.22758E+01-1.56505E+00 4.00298E+01 3.25207E+00-3.94925E-01
 -1      1431 2.12590E+01 2.03474E+01 8.49480E-01 2.39887E+01 7.81239E-02 8.37988E-01
 -1      1432 3.37604E+01 1.94384E+01-2.48436E-01 2.80928E+01 1.59235E+00-8.70124E-01
 -1      1433 1.58687E+02 3.20237E+01 2.91390E+00-2.38058E+01-6.41461E-01 2.21248E+00
 -1      1434 1.57524E+02 4.01292E+01 6.60518E+00 6.78463E+01 4.08256E+00 1.51784E+01
 -1      1435 7.70779E+01 3.45884E+01-7.57861E+00 5.31236E+01 1.21036E+01 9.12976E+00
 -1      1436 1.67529E+02 3.04112E+01 4.32998E+00 2.60256E+01-2.74150E-01 4.98822E+00
 -1      1437 1.89122E+02 1.35063E+00 4.25891E-01-8.02888E+00 7.55322E-02-9.88197E-02
 -1      1438 1.90438E+02 2.01386E+00 4.80778E-01-9.38384E+00-2.65719E-01-5.48636E-01
 -1      1439 1.84826E+02 6.67337E+00-2.48339E-02-1.24957E+01 6.70427E-01-4.69988E-01
 -1      1440 1.86172E+02 3.64074E+00-6.73941E-01-1.27717E+01 3.53559E-01-1.24015E+00
 -1      1441 1.82886E+02 1.26828E+01-1.11798E+00-1.97630E+01 1.94302E-01-2.28811E+00
 -1      1442 1.89000E+02 4.06240E-01 6.06794E-02-7.13670E+00 2.39497E-02 7.42901E-02
 -1      1443 1.89028E+02 4.68425E-01 1.03497E-01-6.98235E+00 2.55332E-02 2.02107E-01
 -1      1444 1.89173E+02 1.59283E+00-1.78637E-01-7.87832E+00-2.24143E-02-6.80630E-02
 -1      1445 1.85733E+02-2.37896E-01-2.89188E-01-9.49255E+00-2.01719E-02 1.28588E-01
 -1      1446 1.87767E+02-6.27561E-01-3.38409E-01-8.76087E+00 2.27078E-01 7.89139E-02
 -1      1447 1.90273E+02-5.54878E-01-4.79921E-02-6.96651E+00-9.44251E-03 7.59988E-04
 -1      1448 1.89016E+02-3.52083E-01 3.86615E-03-7.40034E+00 3.08134E-02 3.64513E-02
 -1      1449 1.90690E+02-1.33614E+00 5.31582E-02-8.96195E+00 7.41566E-02 3.20784E-02
 -1      1450 1.75541E+02-1.95166E+00-3.58187E-01-1.57741E+01-2.79137E-01 1.70813E-01
 -1      1451 1.83168E+02-2.57265E+00-7.93313E-01-1.37165E+01 1.62262E-01 3.85874E-01
 -1      1452 1.89542E+02-2.61136E+00 4.72554E-02-1.49954E+01-2.78902E-01-9.41081E-02
 -1      1453 1.48531E+02-2.11078E-01-2.93428E-01-1.74866E+01-9.66515E-01-4.96830E-01
 -1      1454 1.67392E+02-5.74541E-01-2.22601E-01-1.79242E+01-1.08808E-03-6.47949E-01
 -1      1455 1.83194E+02-1.84334E+00 5.84107E-01-2.45683E+01-3.36856E-01 1.67412E-01
 -1      1456 1.25124E+02 1.81168E+00-2.08503E+00-1.28214E+01-1.13061E+00 3.77465E+00
 -1      1457 1.40761E+02 3.99466E+00 5.90700E-02-2.02374E+01-1.04175E+00-8.35169E-01
 -1      1458 1.65613E+02 3.60094E+00-1.89596E-01-3.20162E+01-1.34741E+00-5.61914E-01
 -1      1459 8.56961E+01-9.75342E+00-1.22886E-01-2.89268E+01 6.61667E-01-5.99761E+00
 -1      1460 1.07659E+02 3.34285E+00 9.53523E-01-2.25337E+01 1.98118E+00-6.86116E+00
 -1      1461 1.51200E+02 5.55978E+00 3.72437E+00-4.76495E+01-1.32567E+00-1.18787E+01
 -1      1462 5.58272E+01 4.37375E+00 8.23791E-01-2.24438E+01 1.40393E+00-1.48203E+00
 -1      1463 8.53697E+01 9.45493E-01 2.35875E+00-1.61171E+01 2.42147E+00 2.38967E+00
 -1      1464 2.77763E+01-8.37174E+00-4.99503E+00-5.78691E+01 4.64568E+00-9.19174E+00
 -1      1465 1.48302E+01 5.80523E+00 4.68990E-01-1.30218E+01 3.18787E-01 5.78750E-01
 -1      1466 3.30797E+01 5.09757E+00 4.52009E-01-1.79604E+01-9.63684E-02 4.53230E-01
 -1      1467 1.65761E+01 7.36696E+00-8.63419E-01-3.32079E+01 2.16889E-01 3.88809E-02
 -1      1468 4.74564E+00 1.75418E+00 7.21649E-01-3.87645E+00 2.70652E-01-1.58800E-01
 -1      1469 1.23891E+01 2.94382E+00 7.57263E-01-5.55024E+00-2.93770E-01-1.05140E-01
 -1      1470 5.15664E+00 6.91140E+00-8.05926E-01-1.44400E+01-1.53385E-02 1.12100E+00
 -1      1471 6.38980E-01 4.48087E-01 2.35329E-01-6.87099E-01 6.48049E-03 6.87059E-02
 -1      1472 2.50182E+00 9.06530E-01 2.86903E-01-1.20310E+00-1.61924E-01 9.68210E-02
 -1      1473 1.88751E+00 1.97056E+00-3.54676E-01-4.14795E+00-2.05952E-01 1.49094E-01
 -1      1474-1.92921E-01-1.84467E-02 2.39394E-02 1.08710E-01-1.59431E-02 6.23434E-03
 -1      1475-2.26073E-01 2.99322E-02 1.91990E-02 4.06058E-02-3.74650E-02 1.13662E-01
 -1      1476 5.86091E-01 4.42709E-01-2.05805E-02-6.78892E-01-8.43599E-02 4.52790E-02
 -1      1477-4.34469E-02-5.44632E-02 2.71349E-02 1.75448E-01 6.31881E-03-1.18095E-02
 -1      1478-1.72251E-01-3.81953E-02 7.36098E-03 2.16369E-01 8.39796E-03-1.12197E-02
 -1      1479 2.14545E-01-7.59928E-02-2.16702E-02 1.56363E-01-4.39536E-02 6.61720E-03
 -1      1480-1.22979E-01-1.44414E-02 3.27719E-03 8.61117E-02 2.40462E-03 5.88913E-03
 -1      1481 1.25893E-01-9.47385E-02-1.00021E-02 1.84143E-01-1.03667E-02-8.79755E-03
 -1      1482-1.44291E-01-5.77303E-02-2.21327E-02 1.25698E-01-5.17186E-04-2.20836E-03
 -1      1483-9.84229E-03-9.42844E-02-2.66099E-02 1.10844E-01 6.89439E-03-6.58487E-03
 -1      1484 1.89704E+02 5.69602E-01 3.48029E-01 7.48581E+00-3.83720E-02 1.22803E-02
 -1      1485 1.90423E+02 5.60070E-01 8.33379E-02 8.36253E+00-1.54723E-01-8.26672E-02
 -1      1486 1.81623E+02 1.40260E+01-1.39457E+00 1.95870E+01-6.94305E-01-2.38145E+00
 -1      1487 1.85252E+02 3.46020E+00-1.04150E+00 1.27780E+01-7.11680E-01-7.85327E-01
 -1      1488 1.82999E+02 8.60297E+00-2.50423E-01 1.33967E+01-7.85845E-01-5.88403E-01
 -1      1489 1.90233E+02 2.98601E+00 6.65660E-01 1.06236E+01 1.74220E-01 3.42185E-01
 -1      1490 1.89544E+02 3.24928E+00 1.10785E-01 9.72887E+00 2.57502E-01-6.09738E-02
 -1      1491 1.89464E+02 2.91734E-01 6.24017E-02 7.10626E+00 6.34205E-03 7.98006E-02
 -1      1492 1.89225E+02 3.16755E-01-3.86896E-02 6.99132E+00 4.15313E-02 1.31167E-01
 -1      1493 1.90040E+02 4.33022E-01-6.13104E-02 7.49092E+00 7.45204E-02-6.05321E-02
 -1      1494 1.87208E+02-4.37717E-01-4.10206E-01 9.21946E+00-8.19955E-02-1.43747E-02
 -1      1495 1.88888E+02-2.22675E-01-7.72083E-02 8.46611E+00-1.02102E-01-2.13208E-02
 -1      1496 1.92199E+02-6.31995E-01 4.74370E-01 7.91143E+00-1.18693E-01 2.00469E-02
 -1      1497 1.89932E+02-4.36358E-01-1.44000E-01 7.02532E+00-4.91433E-02 8.79356E-02
 -1      1498 1.90839E+02-1.09799E-01 2.69275E-02 6.67973E+00 1.14648E-02 8.09561E-02
 -1      1499 1.78846E+02-8.28531E-01-2.60796E-01 1.31042E+01 4.70293E-01-4.71612E-01
 -1      1500 1.85891E+02-7.46008E-01-3.05384E-01 1.13962E+01 5.76838E-02-1.73558E-01
 -1      1501 1.90861E+02-1.01445E+00 3.65762E-01 1.21602E+01 8.51689E-02-3.50807E-02
 -1      1502 1.50873E+02 5.08548E-01 1.31498E+00 1.94003E+01 5.71621E-01-2.20313E-01
 -1      1503 1.68759E+02-1.49178E+00-4.35619E-02 1.83215E+01 5.57685E-01-8.24104E-01
 -1      1504 1.86375E+02-3.48169E+00 2.52780E+00 2.59614E+01 2.41916E-01 7.87249E-01
 -1      1505 1.78074E+02-2.23393E+00-5.92261E-01 1.74698E+01 2.34447E-01 2.77586E-01
 -1      1506 1.89738E+02-4.56323E+00-8.32662E-01 1.84095E+01-1.50752E-01 5.12973E-01
 -1      1507 1.23922E+02 5.71420E+00-3.85419E+00 1.06283E+01 2.76467E+00 1.04249E+00
 -1      1508 1.44855E+02 5.41646E+00-3.12880E-01 2.14111E+01 1.73042E+00 4.53333E-01
 -1      1509 1.70302E+02 1.44176E+00-2.48421E+00 3.29214E+01 1.68244E+00 8.87381E-01
 -1      1510 8.70471E+01-9.29306E+00-2.62787E+00 2.78825E+01-2.63450E+00-4.40679E+00
 -1      1511 1.10858E+02 9.75251E+00 6.02591E+00 2.23680E+01-4.16404E+00-5.66313E+00
 -1      1512 1.43753E+02 6.41063E+00 5.43339E-01 4.78806E+01 5.47980E+00-1.32430E+01
 -1      1513 5.29974E+01 2.26079E+00 2.80716E-01 2.17271E+01 2.87616E-02-1.13698E+00
 -1      1514 8.53888E+01-1.05654E-01 8.90387E-01 1.73958E+01-7.61743E-01 1.84514E+00
 -1      1515 2.82819E+01-7.99992E+00-7.57296E+00 5.80484E+01 7.36621E-01-1.11030E+01
 -1      1516 1.51154E+01 6.58126E+00 1.74081E+00 1.33062E+01-2.16651E-01 5.21385E-02
 -1      1517 3.19696E+01 6.14601E+00 8.95560E-01 1.82194E+01-4.50246E-01 7.80784E-01
 -1      1518 1.59781E+01 7.76116E+00-1.56599E+00 3.33083E+01-1.11449E-01 9.64087E-02
 -1      1519 4.95289E+00 1.57636E+00 5.89162E-01 3.28691E+00 3.97576E-02 7.68784E-02
 -1      1520 1.19194E+01 1.60637E+00 4.22217E-01 4.98944E+00 3.24240E-03 3.91405E-01
 -1      1521 7.15303E+00 7.59335E+00 1.33906E+00 1.50028E+01-6.42785E-01 1.35873E-01
 -1      1522 9.14787E-01 7.97172E-01 3.99685E-01 9.21324E-01-5.05356E-02 3.42897E-03
 -1      1523 2.18794E+00 1.01677E+00 2.44114E-01 1.66035E+00 1.34928E-02 6.84191E-02
 -1      1524 2.60400E+00 1.83245E+00-3.34992E-01 4.31538E+00 2.88730E-01 5.72191E-02
 -1      1525-1.80145E-01-1.57777E-03 5.16330E-02-1.27218E-01 2.82665E-02 3.56440E-02
 -1      1526-2.26386E-01-2.46168E-03 2.90714E-02-1.12624E-01 1.98413E-02 1.24254E-01
 -1      1527 6.84440E-01 7.99171E-01 8.71647E-02 9.63280E-01 4.66546E-03 2.02950E-02
 -1      1528-1.29031E-01-7.02727E-02-4.20009E-02-1.88798E-01 1.30535E-02 2.45533E-02
 -1      1529-2.70128E-01-5.20641E-02-3.42116E-02-2.18326E-01 1.16565E-02 3.58831E-03
 -1      1530 2.69982E-01 4.11479E-04 1.09702E-02-1.42119E-01 5.64115E-02 7.09000E-03
 -1      1531-5.44265E-02-5.46673E-02 2.20274E-03-1.00660E-01-4.46910E-03-5.52312E-03
 -1      1532-1.52941E-01-6.91265E-02 1.01341E-02-1.47090E-01-5.17883E-04 1.33795E-02
 -1      1533 1.34000E-01-1.19184E-01-2.08189E-02-2.13284E-01 1.64841E-02 1.96862E-02
 -1      1534 6.99241E-03-7.36660E-02-3.31581E-03-1.19787E-01 5.13719E-03-1.51053E-03
 -1      1535 3.25361E-04 5.88798E-05-1.73482E-05-1.85132E-04 3.50473E-05-6.56563E-05
 -1      1536-3.68981E-04-7.79683E-05-6.79784E-05 1.25108E-04 1.06718E-05-1.64541E-04
 -1      1537-1.34870E-03-3.50875E-04 1.57918E-04 9.63744E-04 1.22698E-04-4.32697E-04
 -1      1538-1.77729E-03-6.49373E-04-7.93829E-05 1.03939E-03 2.42613E-04-3.20433E-04
 -1      1539-4.08576E-03-1.74482E-03-6.14679E-04 2.83373E-03 2.53944E-04-9.26812E-04
 -1      1540 5.91352E-04 1.61559E-05 1.00807E-05-1.99051E-04 1.51883E-05-2.78990E-05
 -1      1541 6.59603E-04-8.94163E-05 2.88996E-05 1.13204E-05-2.94547E-06-1.42753E-05
 -1      1542 6.82870E-04-4.96069E-05 4.58472E-05-1.65923E-04-2.52256E-05 1.50545E-05
 -1      1543-2.38324E-04-2.38851E-04-5.73941E-05 4.05612E-05 1.04351E-05-5.29147E-05
 -1      1544 4.07546E-04-1.36618E-05 1.94791E-05 1.82429E-04-1.36349E-06 5.26866E-06
 -1      1545 5.84489E-04-8.43534E-05-5.04525E-06 8.92404E-05-9.55478E-06 3.85114E-06
 -1      1546-6.65399E-04-1.23860E-04 9.55166E-06 4.53720E-05-1.63778E-05-2.05848E-07
 -1      1547 4.55565E-05-1.25625E-04-2.42367E-05 4.92756E-05-1.02695E-05 1.23207E-05
 -1      1548-6.00404E-04-6.22227E-05-5.64727E-06 5.53844E-05-1.27437E-05 8.34636E-06
 -1      1549 2.43569E-04 1.13583E-04 1.95008E-05 2.42819E-04-2.72897E-06 9.79668E-06
 -1      1550 3.70495E-04 3.22584E-05-3.24967E-06 2.09626E-04 7.66947E-07 4.29606E-06
 -1      1551-1.15199E-04-4.81543E-05 4.14660E-06 1.22464E-04-6.28236E-06 6.74668E-06
 -1      1552 1.22735E-04 1.85391E-04 2.52020E-06 2.18585E-04-9.73923E-06-6.45506E-07
 -1      1553 4.74341E-07 2.24722E-04 4.76061E-06 1.09249E-04 1.75178E-07-1.67095E-06
 -1      1554 5.21657E-05 2.02116E-04-6.49869E-07 1.60792E-04-8.28735E-07-2.28958E-07
 -1      1555-6.01811E-05 5.65311E-05-7.14274E-07 5.20980E-05 2.81133E-06 1.33699E-05
 -1      1556-2.08520E-04-6.61179E-05-7.83543E-06-1.06512E-04 3.06874E-06 4.63824E-06
 -1      1557-2.41171E-04-9.26865E-05 9.42903E-06-9.62943E-05 2.15522E-06 1.09540E-05
 -1      1558-2.98992E-05 2.24147E-04-9.87300E-07 6.11805E-05-8.45659E-07 1.10685E-07
 -1      1559-2.70264E-05 2.17448E-04 8.89693E-06 3.41414E-05 3.62546E-06 2.19092E-06
 -1      1560-9.09821E-05 5.96330E-05-5.85274E-06-9.93497E-06-3.88203E-06-2.76054E-06
 -1      1561-1.92339E-05 2.32028E-04 9.21700E-06-5.26684E-05-1.94605E-06 7.10269E-08
 -1      1562 1.14429E-05 2.50198E-04 5.05080E-06-1.01602E-04-4.18089E-06 1.06763E-06
 -1      1563 7.43717E-05 2.35485E-04-1.83127E-07-1.87705E-04 3.26236E-06 2.47626E-09
 -1      1564 1.48187E-05 2.51392E-04 6.59631E-06-1.27354E-04 2.38960E-06-1.78699E-06
 -1      1565-8.44049E-05 9.08345E-05-7.69204E-06-1.48502E-05 2.32703E-07 1.54356E-06
 -1      1566 2.59024E-04 1.50891E-04 1.25048E-05-2.79383E-04-6.30795E-06 1.81483E-05
 -1      1567 1.38195E-04 2.23483E-04-1.23663E-06-2.46896E-04-1.39902E-06 3.67459E-06
 -1      1568-1.93799E-04-2.73571E-05-1.46256E-05 7.32440E-05-9.89563E-06 1.22057E-05
 -1      1569-2.56478E-05 1.07257E-04 5.18446E-06-8.94919E-05-2.34582E-06 1.65947E-05
 -1      1570-2.33078E-04-4.79744E-05 8.89852E-06 4.56029E-05-8.28782E-06 1.18074E-05
 -1      1571 5.07615E-04 1.55719E-05 1.74435E-05-2.55448E-04 6.44900E-06 1.27021E-06
 -1      1572 3.59423E-04 9.23619E-05 9.55755E-06-2.92529E-04 1.09741E-05-4.79172E-06
 -1      1573-7.85317E-05 5.44631E-06-7.85769E-07-1.73312E-04 9.05760E-06-4.57130E-06
 -1      1574 6.54559E-04-8.12541E-05-1.08317E-05-1.70617E-04-2.81163E-06-1.29102E-05
 -1      1575 7.69266E-04-7.21008E-05 4.79237E-05 1.04704E-04 2.89336E-05 2.51246E-05
 -1      1576 7.87023E-04-8.87740E-05 3.87530E-05-6.10246E-05 8.67686E-06-6.83365E-06
 -1      1577 1.72888E-04-1.19976E-04-1.71711E-05-1.15345E-04 1.75297E-05 3.79913E-05
 -1      1578-4.67114E-04-1.36672E-04 1.75787E-05-1.05259E-04 3.05846E-05 3.38711E-05
 -1      1579-4.17471E-04-2.39334E-05 1.37583E-05-1.34348E-04 1.44045E-05 1.58657E-05
 -1      1580 3.27919E-04-4.36800E-05-5.26253E-05 1.23828E-04-2.35035E-05-4.22698E-05
 -1      1581 6.87425E-04-5.46994E-05-3.17201E-05 1.19314E-04-1.75722E-05-4.43381E-05
 -1      1582-1.22980E-04-2.80827E-04 1.27665E-05-1.39172E-04-1.05532E-05-6.77276E-05
 -1      1583 1.62922E-04-1.32801E-04 2.15212E-04-1.20804E-04 2.11595E-05-1.52005E-04
 -1      1584-1.14803E-03-2.83756E-04 1.81896E-04-1.03874E-03-4.03760E-05-2.33105E-04
 -1      1585-3.64566E-03-1.43248E-03-3.30883E-04-3.19552E-03-2.72330E-04-1.21197E-04
 -1      1586-1.20303E-03-2.91854E-04 3.15042E-04-9.60867E-04-1.42542E-04-2.23616E-04
 -1      1587 1.45331E+02-2.08108E+00 1.95852E+00-1.30743E+01 3.11169E+00 1.08787E+01
 -1      1588 1.81604E+02 3.36759E+01 2.93561E+01-1.23625E+01 4.22908E+00 2.67721E+01
 -1      1589 1.59879E+02-1.60387E+00-1.96901E+01 2.37609E+00-9.47229E-01-2.70705E+00
 -1      1590 5.76416E+01-2.17610E+01 2.65777E+00-8.37956E+00 3.36705E+00 4.22786E+00
 -1      1591 9.21827E+01-1.15404E+01 1.27123E+01-1.85036E+01 5.98031E+00 1.01135E+01
 -1      1592 1.21159E+02-7.00563E+00-1.57196E+01-9.26341E+00-2.43272E+00-3.12325E+00
 -1      1593 1.26883E+02 1.54337E+00 1.46229E+01-1.74039E+01 3.73669E+00 1.17202E+01
 -1      1594 8.06683E+01 2.44920E+00-1.01110E+01-2.22151E+01-2.10551E+00-3.49266E-01
 -1      1595 9.62382E+01-1.27982E+00 1.28623E+01-1.97029E+01 5.16258E+00 7.26936E+00
 -1      1596 4.95190E+01 3.42140E+00-7.08434E+00-2.33178E+01-1.48401E+00-6.57019E-01
 -1      1597 2.80672E+01-1.67896E+01 1.28839E+00 4.48855E+00 1.22043E+00 8.03040E-01
 -1      1598 4.69638E+01-2.03063E+01 5.57395E+00-8.67471E-01 2.92251E+00 2.93722E+00
 -1      1599 3.25635E+01-1.07930E+01-3.09837E+00-1.17871E+01 1.07205E+00-8.51473E-02
 -1      1600 2.01266E+01-9.84684E+00 1.01071E+00 6.05651E+00 7.35277E-01 7.20505E-01
 -1      1601 8.27117E+00-2.22374E+00 8.76330E-01 8.30841E+00 6.82549E-01 1.94413E-01
 -1      1602 1.17998E+01-7.48899E+00 6.30145E-01 9.60794E+00 6.63592E-01 8.12911E-02
 -1      1603 1.86072E+01-1.09234E+01-4.51677E-01 1.39616E+00 4.46880E-01 4.38827E-01
 -1      1604 1.90502E+00 2.17668E+00 4.70583E-01 6.20104E+00 3.63223E-01-2.41571E-02
 -1      1605 3.47345E+00 6.67651E-02 5.59800E-01 8.19023E+00 3.90719E-01-1.19605E-01
 -1      1606 8.70179E+00-4.44599E+00-3.28834E-01 5.94610E+00 2.41544E-01 1.02903E-01
 -1      1607-8.21234E-01 3.56899E+00 3.95874E-01 3.61412E+00 2.84828E-01-1.01267E-01
 -1      1608-4.63579E-01 3.00698E+00 4.09672E-01 5.34125E+00 2.38714E-01-1.17232E-01
 -1      1609 2.92059E+00 4.80829E-02-3.16301E-01 5.55957E+00 1.37039E-01 6.22570E-02
 -1      1610-1.38962E+00 3.33668E+00 2.85515E-01 1.34495E+00 1.90548E-01-1.34837E-01
 -1      1611-1.86103E+00 3.56902E+00 2.65993E-01 2.46312E+00 1.66373E-01-1.36146E-01
 -1      1612 1.29874E-01 2.14369E+00-7.86271E-02 3.76856E+00 1.25199E-01-2.27214E-02
 -1      1613-9.19638E-01 2.28502E+00 1.83165E-01 4.75852E-02 7.44310E-02-1.09789E-01
 -1      1614-1.55832E+00 2.82776E+00 1.95135E-01 4.93723E-01 6.87392E-02-1.20251E-01
 -1      1615-9.60706E-01 2.48780E+00-7.57543E-02 1.79006E+00 6.61430E-02-4.24824E-02
 -1      1616-3.29928E-01 1.33674E+00 1.48712E-01-3.01493E-01 3.23657E-02-8.07077E-02
 -1      1617-8.26881E-01 1.76496E+00 1.46027E-01-3.07006E-01 3.20469E-02-8.34006E-02
 -1      1618-9.14789E-01 1.98380E+00-7.44278E-02 5.31907E-01 4.16155E-02-2.13665E-02
 -1      1619 1.06549E-03 6.33857E-01 8.02724E-02-1.52375E-03 1.33126E-02-6.88812E-02
 -1      1620-3.54816E-02 8.68865E-01 9.37985E-02-2.72988E-01 2.22197E-02-8.05008E-02
 -1      1621-5.36084E-01 1.49468E+00-2.97446E-02 6.91780E-02 3.27973E-02-2.91016E-02
 -1      1622-2.50734E-01 9.67506E-01 9.39012E-02-3.11882E-01 6.31441E-03-7.22669E-02
 -1      1623-2.98798E-01 1.13970E+00-1.20723E-02-3.51941E-03-1.67091E-02-4.25201E-02
 -1      1624-2.42644E-01 9.36033E-01 9.38372E-02 3.78433E-01-1.11559E-02-7.44701E-02
 -1      1625 6.52631E-02 8.06656E-01 1.18609E-01 1.21305E-01-1.72490E-02-8.84107E-02
 -1      1626-3.09026E-01 1.05171E+00-4.09848E-02 5.66378E-02-2.48026E-02-2.88272E-02
 -1      1627-9.02167E-01 1.80046E+00 1.33980E-01 3.16931E-01-3.44241E-02-8.62806E-02
 -1      1628-3.43208E-01 1.37396E+00 1.57586E-01 3.26079E-01-4.89197E-02-8.87140E-02
 -1      1629-5.83205E-01 1.45210E+00-3.94429E-02-1.58898E-02-3.48835E-02-2.83556E-02
 -1      1630-1.59098E+00 2.82252E+00 1.79815E-01-4.89970E-01-6.55270E-02-1.05053E-01
 -1      1631-9.26758E-01 2.31215E+00 1.86662E-01-4.78342E-02-8.08442E-02-8.76126E-02
 -1      1632-9.38947E-01 2.01221E+00-9.77854E-02-5.60138E-01-4.87417E-02-1.34505E-02
 -1      1633-1.82716E+00 3.58750E+00 2.62978E-01-2.46973E+00-1.36790E-01-1.19447E-01
 -1      1634-1.41805E+00 3.34798E+00 3.03765E-01-1.35483E+00-1.60575E-01-1.02320E-01
 -1      1635-9.27204E-01 2.47369E+00-9.62523E-02-1.78772E+00-6.66907E-02-1.79871E-02
 -1      1636-4.34043E-01 3.02374E+00 3.95707E-01-5.35032E+00-2.54904E-01-1.29368E-01
 -1      1637-7.66077E-01 3.60254E+00 4.17187E-01-3.61200E+00-2.54173E-01-7.71367E-02
 -1      1638 1.11189E-01 2.10751E+00-1.59391E-01-3.73289E+00-1.03391E-01 7.54491E-03
 -1      1639 3.44967E+00 4.68362E-02 5.62794E-01-8.18447E+00-3.73739E-01-1.00876E-01
 -1      1640 1.84194E+00 2.20094E+00 6.78128E-01-6.26950E+00-4.29679E-01-2.11250E-02
 -1      1641 3.02030E+00 1.18149E-01-2.34638E-01-5.48413E+00-1.69824E-01 7.05978E-03
 -1      1642 1.18972E+01-7.31910E+00 6.06604E-01-9.51260E+00-6.51470E-01 1.71827E-02
 -1      1643 8.35497E+00-2.09821E+00 1.14734E+00-8.30672E+00-6.79462E-01 1.79240E-01
 -1      1644 8.66757E+00-4.20584E+00-3.11948E-01-5.88372E+00-3.00758E-01 1.19045E-01
 -1      1645 2.78334E+01-1.67525E+01 9.75077E-01-4.46705E+00-1.39066E+00 6.83164E-01
 -1      1646 2.02358E+01-9.92283E+00 1.59208E+00-6.29139E+00-6.92001E-01 7.36160E-01
 -1      1647 1.87669E+01-1.02811E+01-3.95805E-01-1.22593E+00-5.24914E-01 4.85408E-01
 -1      1648 4.71263E+01-2.09077E+01 4.20167E+00 9.58692E-01-3.39991E+00 2.71101E+00
 -1      1649 9.19920E+01-1.20831E+01 1.11994E+01 1.81001E+01-5.76472E+00 9.32517E+00
 -1      1650 5.65482E+01-2.31783E+01 7.58377E-01 8.19271E+00-3.16856E+00 3.91824E+00
 -1      1651 3.24847E+01-9.95518E+00-3.41906E+00 1.16187E+01-6.07717E-01-1.98396E-01
 -1      1652 1.77201E+02 2.95778E+01 2.32342E+01 1.26002E+01-4.12882E+00 2.67062E+01
 -1      1653 1.43116E+02-3.98172E+00 9.59064E-02 1.28009E+01-3.70186E+00 1.28256E+01
 -1      1654 4.90622E+01 2.97300E+00-7.93728E+00 2.38680E+01 1.72620E+00-1.07601E+00
 -1      1655 9.60824E+01-1.03872E+00 1.31478E+01 1.99808E+01-5.17157E+00 6.89750E+00
 -1      1656 8.04669E+01 6.80711E-01-1.18882E+01 2.25058E+01 2.13031E+00-1.71461E+00
 -1      1657 1.25574E+02-1.32939E+00 1.00274E+01 1.66839E+01-3.46039E+00 1.08035E+01
 -1      1658 1.27089E+02-4.00850E+00-1.21153E+01 7.29573E+00 1.94046E+00-1.76396E+00
 -1      1659 1.60278E+02-2.98675E+00-2.34840E+01-1.73916E+00 1.17510E+00-4.11846E+00
 -1      1660-4.35113E-04-6.27537E-05 6.91899E-06-1.05155E-04-2.78772E-06 1.25423E-05
 -1      1661-4.96660E-04-9.23786E-05 9.84263E-06-9.35821E-05-1.35551E-05 3.93150E-06
 -1      1662-9.77326E-05-8.97884E-05 1.14151E-05-7.09849E-05-5.05634E-06-9.23554E-07
 -1      1663-7.08747E-05-4.81892E-05 2.01170E-05 4.43078E-05 5.12409E-07-1.56200E-06
 -1      1664-3.93557E-04-2.25302E-05-9.26207E-06 6.66572E-05-8.66173E-07 2.00961E-05
 -1      1665-3.29088E-04-3.16929E-05 4.43085E-05-1.26849E-05 3.67148E-06-7.21417E-06
 -1      1666-7.51622E-04-1.68356E-04 1.15607E-04-3.63702E-04 6.14629E-05-1.45576E-05
 -1      1667-1.09248E-03-5.04419E-04 4.15087E-05-5.31910E-04-5.93538E-05-6.28519E-05
 -1      1668-4.58862E-03-2.99649E-03-3.01499E-04-2.31543E-04 3.40372E-04-8.49585E-04
 -1      1669 2.57357E-03-2.87615E-02 4.48224E-04 1.07715E-02 1.09287E-03 9.70213E-05
 -1      1670 9.70944E-04-1.31815E-02 4.07726E-04 1.16620E-02 3.33545E-04 8.38410E-04
 -1      1671 1.73401E-03-1.27017E-02 8.39093E-04-1.16315E-02-5.04499E-04-1.86691E-04
 -1      1672 2.35767E-03-2.93211E-02 3.72518E-04-1.09439E-02-2.28083E-04-3.12072E-05
 -1      1673 7.05052E-03-3.93668E-02-1.78735E-03-1.70342E-02-8.50838E-04-2.05727E-03
 -1      1674 6.20831E-03-4.11132E-02-1.42065E-04-1.69620E-03-3.97642E-04-5.14890E-04
 -1      1675 9.31802E-03-3.98973E-02-8.60599E-04 1.36632E-02 4.16381E-04-1.10860E-03
 -1      1676-5.01595E-03-3.24156E-03-3.10047E-04 5.68449E-04-9.32891E-06 2.31267E-04
 -1      1677-1.09822E-03-2.85614E-04 1.63166E-05 4.35808E-04 1.76194E-05-3.35283E-05
 -1      1678-8.17344E-04-1.43726E-04 5.58844E-05 2.77983E-04-2.65833E-05-2.24924E-05
 -1      1679-8.39349E+00 1.25050E+01 2.62637E+00-3.66006E+01 1.63599E+00 1.22743E+00
 -1      1680-1.12016E+01 2.41487E+01 4.15371E+00-2.55311E+01-6.64314E-01 1.80902E+00
 -1      1681-3.73101E+00 2.05963E+01 1.61867E+00-1.83299E+01 2.94423E-01 1.49716E+00
 -1      1682 2.31306E+02 1.33514E+01 7.68244E+00-2.97235E+01-3.63278E+00 1.46303E-01
 -1      1683 2.70740E+02-2.12072E+01-7.01654E+00 9.26180E+00 3.14498E+00 6.26290E+00
 -1      1684 2.69461E+02-1.16078E+01-9.37376E+00-6.96943E+00-1.78297E+00 7.34247E+00
 -1      1685 2.43090E+02-3.08169E+01-8.22669E+00-2.38998E+01 1.42287E+00 7.21108E+00
 -1      1686 2.36155E+02-1.26516E+01-4.65821E+00-3.44279E+01-1.21446E+00 7.24157E+00
 -1      1687 1.94184E+02 3.05466E+00 3.71110E+00-3.93532E+01-2.86017E-01-7.03411E-02
 -1      1688 2.31109E+02 1.03257E+01 2.68665E+00 2.76376E+01 4.81565E+00-1.88323E+00
 -1      1689 2.37785E+02-3.34412E+01-6.26492E+00 2.29682E+01 1.42008E+00 5.03226E+00
 -1      1690 2.37432E+02-1.20039E+01-8.06532E-01 3.47455E+01-2.78831E-01 2.90569E+00
 -1      1691 1.96753E+02-1.37080E+00 4.02221E+00 3.62326E+01-5.95776E-01 2.76055E+00
 -1      1692-4.66278E+00 1.29587E+01 2.18091E+00 3.88111E+01-1.54785E+00-1.03871E-01
 -1      1693-1.03100E+01 2.24189E+01 2.76975E+00 2.62196E+01 1.31580E+00 1.60824E+00
 -1      1694-4.98153E+00 1.97364E+01 6.55204E-01 1.77955E+01-1.46892E-01 1.32725E+00
 -1      1695 1.81262E+02 9.92972E+00 2.36060E-01 1.84619E+00-1.57710E-02-1.61497E-01
 -1      1696 1.79886E+02 1.00457E+01 9.95426E-02 3.63207E-01-2.29742E-02-2.15369E-01
 -1      1697 1.82238E+02 9.34145E+00 2.70499E-01 1.16352E+00-2.56248E-02-1.83348E-01
 -1      1698 1.83588E+02 8.36030E+00 4.08370E-02 1.32094E+00 3.10360E-03-5.02744E-02
 -1      1699 1.82119E+02 9.06635E+00 5.34023E-02-7.56761E-02 7.09908E-02-9.95229E-02
 -1      1700 1.80435E+02 1.04486E+01 1.31184E-01-9.04590E-01-6.14040E-02-2.83616E-01
 -1      1701 1.79044E+02 9.07716E+00-3.19419E-01-1.35028E-01 5.95054E-02-6.85158E-01
 -1      1702 1.79290E+02 1.03325E+01 3.67694E-01-5.83611E-01-3.98057E-02-7.71960E-01
 -1      1703 1.81945E+02 9.59621E+00 4.68716E-02-1.19087E+00 1.31113E-02-9.24150E-02
 -1      1704 1.78644E+02 9.73480E+00 2.66923E-02 8.68452E-02 1.03734E-01-5.95012E-01
 -1      1705 3.68833E-01-6.67758E-02 2.60941E-02-8.97050E-02 6.44125E-03-1.28217E-02
 -1      1706 2.55890E-01-1.35956E-01-8.35957E-03-9.47157E-02 3.23947E-03 4.07443E-03
 -1      1707 1.56090E-01-1.25717E-01 3.99273E-03-7.85492E-02 2.77210E-03 6.13683E-04
 -1      1708 3.07388E-01-1.18190E-01-8.47981E-03 1.63465E-03 8.47988E-03 5.20007E-03
 -1      1709 3.26183E-01-4.20382E-02 2.61276E-02 8.56127E-02-8.52348E-03 4.40125E-03
 -1      1710 4.91415E-01 1.84471E-01-1.74940E-02-1.70880E-03 7.95110E-03 5.21076E-03
 -1      1711 4.49159E-01 1.29605E-01-1.29238E-02 6.50514E-02 2.72993E-03 7.17474E-03
 -1      1712 2.27334E-01-1.39662E-01 3.30943E-03 9.74296E-02-4.11775E-03-1.05959E-03
 -1      1713 4.36224E-01 1.78592E-01 1.08530E-02-7.60659E-02-2.96799E-03-1.86794E-02
 -1      1714 3.02388E-02-6.08153E-02-1.09418E-03-3.16522E-02-2.69686E-03-1.55897E-03
 -1      1715 4.88438E-02-6.64141E-02-4.28283E-04-1.76148E-02 3.31370E-04-3.17533E-04
 -1      1716 4.72642E-02-6.22447E-02 3.40625E-03 1.94585E-02 5.31063E-04 7.98883E-05
 -1      1717 6.90114E-02-9.52920E-02-1.39727E-03 6.88242E-03-1.84149E-03 5.00632E-04
 -1      1718 2.39620E-02-5.40622E-02-2.65713E-04 3.52866E-02 2.11838E-03 4.49063E-04
 -1      1719 1.89383E+02 1.35472E+00-1.72160E-02-6.15264E+00-1.51079E-02 7.20823E-03
 -1      1720 1.88805E+02 3.54021E+00-8.87258E-02-7.35262E+00-1.24588E-01-7.09701E-02
 -1      1721 1.91158E+02 1.98045E-01 2.95489E-01-5.89720E+00-2.89845E-02 6.09070E-03
 -1      1722 1.90464E+02 9.44694E-01-2.15712E-02-4.91512E+00 6.16795E-02 6.97222E-02
 -1      1723 1.91645E+02-1.33580E+00-4.77231E-02-6.01129E+00 1.90234E-02 2.77267E-02
 -1      1724 3.22349E+01 3.60178E+00-1.68130E-03 2.10032E+01 4.78696E-01 3.08825E-01
 -1      1725 3.72025E+01 9.41940E+00-1.77830E+00 2.60453E+01 1.52981E+00-9.21641E-01
 -1      1726 3.34163E+01-3.95419E+00-1.59285E-01 1.80984E+01 1.32434E-01 7.82182E-01
 -1      1727 2.60342E+01-6.23605E+00 2.61565E-01 1.06213E+01-2.14824E-01 1.63396E-01
 -1      1728 1.67168E+02 2.08305E+01 3.69112E-01-8.44649E+00 6.97743E-01-5.13100E-01
 -1      1729 1.74708E+02 2.03860E+01 8.96418E-01-1.48624E+01 3.86360E-01-9.27552E-01
 -1      1730 1.74499E+02 1.57148E+01 2.22882E-01-1.10864E+01 4.04155E-01-6.22607E-01
 -1      1731 1.73540E+02 2.22054E+01 2.00647E-01-1.85341E+01 1.67951E+00-2.48129E+00
 -1      1732 1.60080E+02 2.52782E+01-1.25108E+00-1.32595E+01 2.55105E+00 1.14514E+00
 -1      1733 1.60936E+02 2.19180E+01-5.45603E-01-6.49507E+00 1.07547E+00 2.31513E-01
 -1      1734 1.60276E+02 2.49463E+01-1.02972E+00-8.34144E+00 2.37348E+00 1.94582E+00
 -1      1735 1.62921E+02 2.04540E+01-5.96158E-01-3.89207E+00 3.20908E-01-4.84315E-01
 -1      1736 1.66171E+02 1.77764E+01 1.36588E-02-2.23953E+00 3.04747E-01-2.61873E-01
 -1      1737 1.60296E+02 1.77753E+01-1.04099E+00 1.80031E-01 7.44988E-01-6.89241E-02
 -1      1738 1.96369E+02-1.15009E+01-7.60700E-01-3.30395E+01-7.18403E-01 5.04045E-01
 -1      1739 2.01456E+02-1.30388E+01-1.42658E+00-2.53637E+01-7.31716E-01 3.92254E-01
 -1      1740 3.61207E-02-7.61641E-02 8.66608E-04-6.72595E-02-2.00007E-03 3.08483E-03
 -1      1741 1.88094E+02 4.18710E+00 7.67014E-02-2.13413E+00 6.25419E-02-3.15536E-02
 -1      1742 1.87270E+02 4.71141E+00-3.96679E-02-4.26756E+00-8.54366E-03 2.78735E-02
 -1      1743 1.89884E+02 2.21963E+00 6.83931E-02-3.31816E+00 1.99736E-03 6.45209E-03
 -1      1744 1.91294E+02 2.00536E-01-1.16371E-02-2.97588E+00 2.25631E-02-1.56527E-02
 -1      1745 1.85465E+02 6.78762E+00 4.69739E-02-4.85989E+00 1.48191E-02-8.44673E-02
 -1      1746 1.87525E+02 4.84568E+00 2.50027E-01-6.11169E+00 4.45642E-02-8.52923E-02
 -1      1747 1.86728E+02 5.43448E+00-8.75717E-02-8.37188E+00-2.17404E-03-2.16250E-01
 -1      1748 5.94925E-01 1.18602E+00 7.66338E-03 1.00009E+00 7.86950E-02 1.43572E-01
 -1      1749 2.28385E-01 3.35465E+00 2.24117E-01 1.40847E+00 4.32120E-02 3.06503E-02
 -1      1750 6.35369E-02 1.67409E+00-6.68492E-03 3.06891E-01 2.28328E-02-4.15967E-03
 -1      1751 5.60558E-01 6.21366E-01 9.22532E-02 1.14581E-01 7.91248E-04 7.70344E-03
 -1      1752 3.78535E-02 1.81988E+00-3.19084E-02 4.78589E-03 2.51851E-03-9.90103E-03
 -1      1753-3.24733E-01 3.21192E+00-1.40498E-01-2.44149E+00-1.23667E-01 3.02237E-03
 -1      1754 2.47029E-01 2.96266E+00 2.31310E-01-1.18168E+00-7.66178E-02 1.91226E-02
 -1      1755-1.83282E+00 4.54450E+00-3.33920E-01-1.66145E+00-6.62766E-02 5.14876E-02
 -1      1756 6.36892E-01 7.92335E-01-8.09881E-02-8.83651E-01-1.22995E-01 6.89216E-04
 -1      1757 1.23196E-01 1.86871E+00 3.97727E-03-3.86320E-01-6.61988E-02 8.75368E-02
 -1      1758-2.17038E+00 5.23614E+00-2.24678E-01 2.00758E+00-4.03286E-02 3.23643E-01
 -1      1759-2.00356E+00 6.30412E+00 1.63788E-01 3.97118E-01 1.32432E-01 7.13871E-03
 -1      1760 6.48299E-01 5.94464E-01 9.03490E-02-8.75096E-02-3.83576E-02-9.65334E-03
 -1      1761-3.29475E+00 7.90938E+00-9.66110E-02-1.44886E+00-5.11331E-02 6.71804E-02
 -1      1762 1.93115E+02-3.87407E+00-2.93432E-01-8.65002E+00 3.92591E-02 8.31589E-02
 -1      1763 1.93959E+02-2.73773E+00 1.02003E-01-6.77271E+00 1.82443E-02-3.43961E-03
 -1      1764 1.94175E+02-2.84125E+00-3.47901E-02-5.20107E+00-3.11318E-02-5.09056E-02
 -1      1765 1.48824E+02 6.00764E+00 6.73917E-01-9.88950E+00-5.32139E-01 1.42390E-01
 -1      1766 1.44743E+02 4.84771E+00 3.24994E-01-5.68628E+00-3.36985E-01 2.78695E-01
 -1      1767 1.39528E+02 5.79231E-01 1.00358E-01-1.51941E+01-4.20000E-01-2.11350E-01
 -1      1768 1.20084E+02 1.03352E+00 6.28833E-01-2.69609E+01 1.11445E+00-3.94590E-02
 -1      1769 1.18867E+02 3.05742E+00-3.72293E-01-1.94155E+01-9.23425E-01-4.49921E-02
 -1      1770 1.53577E+02 8.54791E+00 3.57704E-01 8.06691E-01 1.00459E-01 2.74945E-01
 -1      1771 1.46865E+02 3.83960E+00-1.09532E-01-1.38535E+00-7.65238E-01-2.02889E-01
 -1      1772 1.07254E+02 3.41498E+00-1.39583E-01-2.15590E+01-3.76290E+00-1.58704E+00
 -1      1773 1.21589E+02 1.50173E-02 1.50455E-01-1.28547E+01-1.75224E+00-1.44549E+00
 -1      1774 1.49438E+02 3.31291E+00-7.17364E-01 2.20025E+00-6.16984E-01-1.12101E+00
 -1      1775 1.41002E+02 3.68886E-01-3.86399E-01-4.44129E+00-1.04283E+00-1.23994E+00
 -1      1776 1.26688E+02-8.89744E-01-2.13997E+00-7.68051E+00-1.56032E+00-2.77980E+00
 -1      1777 1.40301E-01-1.23174E-01-2.02119E-03-1.44372E-02-4.93540E-03-5.10304E-05
 -1      1778 8.30838E-02-1.06512E-01 3.94861E-03-9.05687E-02 1.39874E-03-2.20784E-03
 -1      1779 1.29311E-01-1.23562E-01-7.71748E-03 2.53255E-02-1.76168E-03 3.36534E-03
 -1      1780 3.96929E-01 3.30184E-01 8.14012E-02 1.00197E-01 2.57673E-02 3.46360E-03
 -1      1781 3.12818E-01 2.39533E-01 3.03231E-02 7.31603E-03 1.24308E-02-1.34697E-02
 -1      1782 2.04194E+02-1.34926E+01-9.65098E-01 2.60207E+01 1.68189E-02 6.65920E-01
 -1      1783 1.98967E+02-9.92356E+00 3.56785E-01 3.37091E+01 1.36329E+00 3.45602E-01
 -1      1784-1.74092E-01 2.11701E+00 2.88598E-03 1.35892E+00 9.77134E-03-2.18320E-02
 -1      1785-1.88696E-01 2.19521E+00-4.62112E-02 1.63138E+00-2.45440E-03-2.33664E-02
 -1      1786-4.10031E-01 2.17278E+00 4.37050E-02 1.05456E+00 1.44498E-02-1.71744E-02
 -1      1787 1.88826E+02 3.34897E+00 7.91261E-02 6.53276E-01 3.98044E-02 6.93522E-03
 -1      1788 1.86250E+02 5.95053E+00 7.39435E-02-3.47413E-01 3.17585E-02-5.30143E-02
 -1      1789 1.91240E+02 5.90624E-01-6.58128E-02 1.07236E+00-1.48463E-02-1.96772E-02
 -1      1790 1.89675E+02 2.60800E+00 6.79939E-02 2.89433E+00 1.78595E-02-8.93445E-03
 -1      1791 1.93071E+02-9.50644E-01 5.26184E-02-5.63025E-01 3.31657E-02-5.74786E-02
 -1      1792 1.93949E+02-1.79476E+00 6.54392E-02 1.73524E+00-1.91023E-02-1.05991E-02
 -1      1793 1.94300E+02-1.96086E+00 1.78700E-01-2.51545E+00 2.50204E-02-4.29336E-02
 -1      1794-2.40539E-01 1.30281E+00-8.33664E-04 2.62646E-03-7.35759E-04-1.07559E-02
 -1      1795-2.48411E-01 1.29986E+00 4.03271E-03 3.61606E-02-1.95057E-03-9.21251E-03
 -1      1796-2.38828E-01 1.27822E+00 7.81102E-03-3.52888E-02 5.52054E-03-1.30152E-02
 -1      1797 1.80068E+02 1.27547E+01 1.65927E-01-1.12495E+01 3.31676E-01-5.32025E-01
 -1      1798 1.76073E+02 1.66207E+01 1.17682E+00-7.09856E+00 3.06732E-01-4.87785E-01
 -1      1799 1.83352E+02 7.18391E+00-2.87946E-01-8.71707E+00 1.92098E-01-1.14182E-01
 -1      1800 9.92483E+01 1.13604E+01-6.26975E+00 4.55997E+01 3.67693E+00 4.14109E+00
 -1      1801 1.53074E+02 1.75681E+01-1.47682E+00-6.62644E+00 1.73707E+00 1.52433E+00
 -1      1802 1.54437E+02 1.66431E+01-3.68963E-01-1.33799E+01 8.92655E-01 3.09714E+00
 -1      1803 1.41748E+02 3.62843E+00-3.78588E+00-3.41278E+01-5.21873E+00 3.67297E+00
 -1      1804 1.55286E+02 1.47710E+01 6.43776E-01-2.97270E+00 7.96373E-01 7.90836E-01
 -1      1805 1.46719E+02 5.33075E+00 6.05319E-01 1.02792E+01 4.54730E-01 1.54129E+00
 -1      1806 1.39488E+02 1.21288E+00 8.65057E-02 1.53250E+01 9.75396E-01 5.46208E-01
 -1      1807 1.45222E+02 4.17238E+00 8.94343E-02 5.25128E+00 3.27810E-01 4.36031E-02
 -1      1808 1.20666E+02 5.06954E+00-2.94085E-02 2.74770E+01 1.66309E+00 4.45788E-01
 -1      1809 1.21269E+02 2.58658E+00 3.50313E-01 2.03973E+01 1.17080E+00 3.80119E-02
 -1      1810 1.48666E+02 3.02863E+00-4.21104E-01-2.17503E+00 9.99630E-01-1.25604E+00
 -1      1811 1.47104E+02 3.37253E+00 2.06188E-01 2.01094E+00 6.53454E-01-8.24148E-01
 -1      1812 1.41021E+02-3.53317E-01-3.82321E-01 4.95489E+00 1.07235E+00-7.70641E-01
 -1      1813 1.53306E+02 7.98463E+00 4.23241E-01-1.45806E+00 3.04698E-02-6.61772E-01
 -1      1814 1.24384E+02-2.56598E+00-2.66314E+00 7.86561E+00 1.24516E+00-2.87564E+00
 -1      1815 1.19097E+02-5.26938E-01-7.95261E-02 1.28827E+01 3.45763E-01-1.32977E+00
 -1      1816 1.03937E+02 1.23604E+00-7.58227E-01 2.24370E+01 3.57955E+00-1.74406E+00
 -1      1817 7.63211E+00-1.32598E+00 1.87667E-02 4.05034E+00 1.20107E-01-1.66327E-02
 -1      1818 8.37878E+00-2.43546E+00-5.70436E-02 4.25027E+00 1.63044E-01-1.89193E-02
 -1      1819 1.41670E+01-4.63118E+00 1.32132E-01 8.09300E-01 1.96909E-01 5.22688E-02
 -1      1820 1.25475E+01-4.29166E+00 1.82168E-01 2.98574E+00 1.62198E-01 1.70090E-01
 -1      1821 9.63378E+01 1.56332E+01 1.69068E+00-3.98845E+01-7.49936E-01-1.84986E+00
 -1      1822 1.06456E+02 1.26371E+01 4.52728E-01-3.67462E+01-1.17142E+00-3.11454E-01
 -1      1823-7.92108E+00 1.51150E+01 9.81588E-01 7.00991E-01-1.42934E-01 2.70760E-01
 -1      1824-1.02673E+01 1.60145E+01-8.55150E-02-4.17219E+00 6.91857E-02 3.50034E-01
 -1      1825-6.17578E+00 1.09457E+01-4.03738E-01-2.96088E+00-2.70243E-02 1.40592E-01
 -1      1826-9.77709E+00 1.88379E+01 1.35928E+00-9.31373E+00 6.94249E-04 6.39988E-01
 -1      1827-1.95221E+00 7.94956E+00-2.09325E-01-7.84226E+00-2.43893E-01 1.35831E-01
 -1      1828-1.46900E+00 1.35002E+01 3.90535E-01-1.46818E+01-2.10091E-01 2.39998E-01
 -1      1829 1.21919E+00 6.13077E+00 4.23622E-01-5.71903E+00-1.20115E-01-9.78257E-02
 -1      1830-3.32437E+00 9.99093E+00 1.94642E-01-5.34839E+00-1.36824E-01 1.58166E-01
 -1      1831 1.65148E+02 3.70278E+00-8.26826E-01-5.69067E+00 9.12119E-01-2.77477E+00
 -1      1832 1.56177E+02-6.06768E-01-4.20087E+00-2.65282E+00 1.49658E+00-4.50258E+00
 -1      1833 1.62566E+02 1.11514E+00-4.27133E+00-3.80765E+00 1.18489E+00-4.45016E+00
 -1      1834 1.49390E+02 1.74980E-01-3.34940E+00-2.15491E+00 2.46500E+00-1.53315E+00
 -1      1835 1.68902E+02-5.51528E-01-5.92038E+00-2.92222E+00 6.07990E-03-4.67123E+00
 -1      1836 2.38464E+02-3.33683E+01-5.13957E+00-1.42656E+00 1.24297E+00 4.66810E+00
 -1      1837 2.29956E+02-1.72234E+01 2.11519E+00-1.40605E+01-1.26203E+00 1.75391E+00
 -1      1838 2.28691E+02-1.86352E+01-2.17796E-01 1.51226E+01 6.79987E-01 1.24055E+00
 -1      1839 1.44993E+02-2.99418E+00-3.14288E+00 1.50962E+00-2.58135E+00-2.31178E+00
 -1      1840 1.57800E+02 6.51305E-01-6.25350E-01 3.25951E+00-1.52297E-01-3.07748E+00
 -1      1841 1.65926E+02 3.07840E+00-1.11900E+00 4.99024E+00-8.70435E-01-3.03761E+00
 -1      1842 1.65931E+02 3.30906E+00-2.31122E+00 3.63542E+00-7.84784E-01-4.20721E+00
 -1      1843 1.70507E+02-3.45439E-01-4.78526E+00 2.53226E+00-7.10000E-01-4.76996E+00
 -1      1844 1.67590E+02 2.12625E+01 6.28194E-01 7.86328E+00-7.70266E-01-7.34100E-01
 -1      1845 1.75049E+02 1.77706E+01 4.05284E-01 1.06774E+01-7.11112E-01-8.47585E-01
 -1      1846 1.74927E+02 2.08739E+01 3.69073E-01 1.42094E+01-4.09907E-01-1.18662E+00
 -1      1847 1.74965E+02 1.59643E+01 2.39698E-01 5.93177E+00-5.19500E-01-4.61348E-01
 -1      1848 1.78636E+02 1.35495E+01-1.19587E-02 1.06570E+01-3.70249E-01-7.05412E-01
 -1      1849 1.63616E+02 2.10085E+01-7.05395E-02 4.00838E+00-1.00098E+00-4.89276E-01
 -1      1850 1.66552E+02 1.76803E+01 4.80219E-01 1.67075E+00-4.47719E-01-2.93324E-01
 -1      1851 1.71917E+02 1.59553E+01 1.79687E-01 1.73206E+00-3.14758E-01-4.66998E-01
 -1      1852 1.74768E+02 1.34347E+01-3.24273E-01 2.34556E+00-2.19745E-01-3.02191E-01
 -1      1853 1.66946E+02 1.39919E+01-3.93313E-01-2.03852E+00-2.24499E-01 1.07622E-02
 -1      1854-2.92746E-01 1.50772E+00-1.04362E-03 1.92767E-01-6.80092E-04-1.65622E-02
 -1      1855-2.38179E-01 1.66442E+00-8.40908E-03 3.82793E-01 5.65636E-04-6.83624E-03
 -1      1856-3.56545E-01 1.52463E+00-1.95745E-03 1.93533E-01 1.91173E-03-1.86133E-02
 -1      1857-1.60265E-01 1.70942E+00-8.89943E-03 5.10151E-01 4.50168E-03-2.00785E-03
 -1      1858-3.56543E-01 1.78487E+00-3.44761E-03 5.26058E-01 5.79559E-03-1.34877E-02
 -1      1859-4.45142E-01 1.71391E+00 1.01176E-02 3.11031E-01 1.18933E-02-2.50527E-02
 -1      1860-1.58681E-01 1.77812E+00 5.33079E-03 5.99942E-01 8.17991E-03-5.90036E-03
 -1      1861-3.01411E-01 1.39254E+00 1.02723E-02 7.30785E-02 7.45534E-03-1.44940E-02
 -1      1862 1.50903E+02 1.64636E+00-5.86932E-01 3.01168E+00-1.12913E+00-1.97369E+00
 -1      1863 1.37534E+02-1.67945E+00-2.26843E+00-2.04454E+00-2.00956E+00-2.17656E+00
 -1      1864 1.56677E+02 4.84258E+00-8.19929E-01 4.58555E+00-6.08256E-01-1.11421E+00
 -1      1865 1.59746E+02 9.33755E+00-8.38173E-02 4.78744E+00-1.51627E-01-2.33889E-01
 -1      1866 1.61599E+02 5.53961E+00-5.00108E-01 6.30710E+00-7.03805E-01-1.04884E+00
 -1      1867 1.68341E+02 6.10684E+00-4.39597E-01 5.05569E+00-5.84355E-01-1.62554E+00
 -1      1868-3.03915E-01 1.44146E+00-2.22566E-03-1.56395E-01-5.05931E-03-1.30955E-02
 -1      1869-3.89952E-01 1.46518E+00 1.62778E-03-1.42708E-01 9.01502E-03-1.38996E-02
 -1      1870-2.47158E-01 1.66305E+00-6.00844E-03-3.72436E-01 2.72523E-03-4.29165E-03
 -1      1871-1.65713E-01 1.71102E+00-1.42090E-02-5.01597E-01 5.12148E-03 2.24839E-03
 -1      1872-3.74167E-01 1.80091E+00-1.24648E-03-5.37662E-01-6.00553E-03-1.26464E-02
 -1      1873-1.61309E-01 1.78134E+00 9.77931E-03-5.93540E-01-1.85349E-04-7.29885E-03
 -1      1874-4.88436E-01 1.72854E+00-2.25486E-03-3.08286E-01-9.54061E-03-2.19459E-02
 -1      1875 1.49998E+02 7.67749E-01-4.47764E-01-2.82610E+00 1.42800E+00-1.98657E+00
 -1      1876 1.55238E+02 3.57214E+00-1.28108E+00-4.71432E+00 1.21618E+00-1.29284E+00
 -1      1877 1.60791E+02 5.54420E+00-5.70608E-01-6.08309E+00 7.14357E-01-1.60716E+00
 -1      1878 1.59722E+02 8.90327E+00 5.69232E-04-5.41904E+00 2.44294E-01-4.67426E-01
 -1      1879 1.68398E+02 6.41089E+00-9.66625E-01-5.49188E+00 4.45423E-01-1.62831E+00
 -1      1880 1.42113E+02-8.67542E-01-1.38332E+00 1.65694E+00 1.66427E+00-1.28633E+00
 -1      1881 1.93774E+02-4.93294E+00-2.65741E-01 1.27799E+01 2.71880E-03-1.03405E-01
 -1      1882 1.97994E+02-6.35438E+00 5.28083E-01 1.62283E+01 2.10125E-01 1.14223E-01
 -1      1883 1.94816E+02-4.27694E+00 1.58705E-01 1.01727E+01-1.77824E-02-2.82688E-02
 -1      1884 8.38781E-01 1.97102E+00-1.29991E-02 2.72374E+00 3.74882E-02-2.46220E-02
 -1      1885 2.26646E+00 1.43297E+00-1.20949E-03 2.99337E+00 1.57201E-02 3.83792E-03
 -1      1886 7.75196E-01 1.99729E+00-6.10479E-02 3.13762E+00 9.32487E-03-3.20414E-02
 -1      1887 3.05421E+00 1.18020E+00-3.47304E-02 3.00918E+00-1.31957E-02 1.96859E-02
 -1      1888 3.18512E+00 9.93988E-01 3.64778E-02 3.95144E+00 5.03201E-02-3.30113E-02
 -1      1889 1.93705E+00 1.53753E+00 7.65839E-02 3.97107E+00 7.04363E-02 3.68641E-04
 -1      1890 3.53278E+00 1.04209E+00-9.34957E-03 3.25991E+00 1.79920E-02-8.37470E-03
 -1      1891 1.98589E+02-1.00280E+01-3.97673E-01-1.77300E+01 2.93970E-03 4.73508E-01
 -1      1892 2.17942E+02-1.64654E+01 9.71701E-01-2.09548E+01-1.40730E+00 9.91948E-01
 -1      1893 2.20250E+02-1.92073E+01-8.77641E-01-7.33263E+00 2.92220E-01 1.36799E+00
 -1      1894 1.56633E+02 1.41165E+01-2.65459E-01 1.05860E+00 7.96614E-01-3.48097E-01
 -1      1895-1.53529E-01 2.09988E+00-2.16448E-03-1.37061E+00-1.28890E-02-1.49590E-02
 -1      1896-1.76318E-01 2.20854E+00-4.32406E-03-1.63508E+00 7.83118E-03-2.24510E-02
 -1      1897-4.08743E-01 2.17977E+00 1.65874E-02-1.07338E+00-1.56496E-02-2.77441E-02
 -1      1898 5.98367E+00-6.12419E-01 8.92801E-02 4.69930E+00 7.33608E-02 1.72019E-02
 -1      1899 3.16345E+00 9.52569E-01 2.57775E-02-3.93207E+00-5.27735E-02-2.22201E-02
 -1      1900 3.82272E+00 5.59504E-01 1.73512E-02-4.36638E+00-4.17761E-02-5.43903E-02
 -1      1901 7.42925E+00-1.38379E+00 2.28656E-02-4.08326E+00-6.92542E-02-7.94591E-05
 -1      1902 5.96248E+00-5.80283E-01 5.77973E-02-4.72239E+00-1.12678E-01 2.01534E-04
 -1      1903 1.74051E+02 2.08682E+01-3.43200E-01 1.74771E+01-2.05533E+00-3.08950E+00
 -1      1904 1.81658E+02 8.88154E+00-1.50248E-01 8.86915E+00-1.20032E-01-4.96878E-01
 -1      1905 1.85404E+02 6.82424E+00 7.50737E-02 1.11971E+00 1.51048E-02 7.69698E-03
 -1      1906 1.85349E+02 7.09158E+00 1.54991E-01 2.60362E+00 2.34880E-02-6.59536E-02
 -1      1907 1.84376E+02 8.16514E+00 9.00617E-02 4.52585E+00-2.22773E-02-1.12846E-01
 -1      1908 1.86194E+02 6.10827E+00-1.82811E-03 4.33691E+00-4.04866E-03 2.80707E-02
 -1      1909 1.81344E+02 1.07671E+01 2.07903E-01 4.31633E+00-1.45297E-01-1.43033E-01
 -1      1910 1.78595E+02 1.22209E+01 1.71474E-01 3.04906E+00-1.62958E-01-1.97909E-01
 -1      1911 1.82289E+02 1.00417E+01 2.91939E-01 6.50065E+00-4.39820E-02-2.96317E-01
 -1      1912 1.74298E+02 6.82128E+00-2.47275E-01-3.61051E+00 4.13997E-01-1.85857E+00
 -1      1913 1.74318E+02 3.54956E+00-1.82162E+00-1.93205E+00 8.15816E-01-3.67270E+00
 -1      1914 1.75170E+02 5.38393E+00-1.09774E+00-3.74193E-01 4.36743E-01-2.85925E+00
 -1      1915 1.77676E+02 8.60031E+00-5.65092E-02-7.83713E-01 1.51324E-01-1.41964E+00
 -1      1916 1.73972E+02 4.60997E+00-2.19260E+00 1.25676E-01 1.15507E-01-3.16891E+00
 -1      1917 1.72818E+02 7.40843E-01-5.77019E+00-7.93356E-02 3.22819E-01-5.24361E+00
 -1      1918 1.75084E+02 4.39170E+00-1.72209E+00 1.70611E+00-5.25975E-01-4.16690E+00
 -1      1919 1.72277E+02 6.26093E+00-1.22426E+00 3.34490E+00-3.15239E-01-2.11216E+00
 -1      1920 1.74732E+02 5.95334E+00-7.57476E-01 6.01639E-01-1.74046E-01-2.52203E+00
 -1      1921 1.77326E+02 8.59099E+00 8.64943E-02 7.22755E-01-2.06305E-02-9.59763E-01
 -1      1922 1.84716E+02 7.52803E+00 1.42980E-01-1.52138E+00 5.11610E-02-4.77264E-02
 -1      1923 1.90469E+02 1.22844E+00-5.98547E-02 5.00114E+00 2.58693E-02-5.76496E-02
 -1      1924 1.88148E+02 3.88553E+00-1.81559E-02 4.66944E+00-1.84522E-02 5.66264E-03
 -1      1925 1.87551E+02 4.65755E+00 4.67845E-02 6.54855E+00-1.20722E-01-7.76443E-02
 -1      1926 1.53313E+01-3.68493E+00 1.50385E-01-2.78735E+00 1.06924E-01 3.48252E-02
 -1      1927 1.53170E+01-6.66110E+00-6.23887E-02 7.57538E-01 2.88043E-01 7.28105E-02
 -1      1928 1.57454E+01-2.44948E+00 1.74460E-02-4.85202E+00 1.31838E-01-2.68375E-02
 -1      1929 1.99961E+01-5.32012E+00 2.12969E-01-7.26561E+00 2.08372E-01 1.19563E-01
 -1      1930 2.06912E+01-7.57933E+00 2.67267E-01-4.06365E+00 2.34030E-01 5.46018E-01
 -1      1931 1.71627E+01-1.55962E+00 3.41290E-01-6.59970E+00 1.13541E-01-7.60674E-02
 -1      1932 7.86489E+01 6.69319E+00-3.07564E-01 2.94902E+01 2.49866E+00-1.42277E+00
 -1      1933 3.87461E+01 1.30075E+01-1.56266E+00 2.71769E+01 1.73998E+00-1.47454E+00
 -1      1934 7.48083E+01 1.33505E+01-1.76319E+00 3.37972E+01 3.16575E+00-2.50118E+00
 -1      1935 5.75734E+01 1.39802E+01 7.54494E-01 3.07550E+01 2.54395E+00-1.21569E+00
 -1      1936 2.02705E+02-1.13892E+01 4.15685E-01 1.84471E+01 1.61424E-01 4.72343E-01
 -1      1937 2.04228E+02-1.16699E+01-2.24228E-01 1.23268E+01 5.24917E-02 3.39951E-01
 -1      1938 2.01039E+02-7.57872E+00 1.00493E-01 3.39078E+00-1.22138E-01 3.90865E-02
 -1      1939 2.03071E+02-9.70996E+00-1.68840E-01 6.06624E+00-2.25518E-01-1.46969E-01
 -1      1940 1.97674E+02-5.44246E+00 3.44003E-01 8.15863E+00-5.05719E-03 3.45148E-02
 -1      1941 2.10090E+02-1.27610E+01 5.71737E-01 6.06901E+00-6.11296E-02 3.75328E-01
 -1      1942 1.93638E+02-3.57193E+00-2.22327E-01 7.91188E+00-1.89987E-01 5.12424E-02
 -1      1943 1.56016E+02 1.61465E+01-1.20299E+00 6.55866E+00-2.64685E+00 9.54571E-01
 -1      1944 1.54514E+02 1.58030E+01 1.49686E+00 1.73017E+01-2.50920E+00 2.63802E+00
 -1      1945 9.57814E+01 1.49786E+01 2.39655E+00 3.69381E+01 4.43933E+00 1.16315E+00
 -1      1946 1.07424E+02 1.26005E+01-1.37363E+00 3.66405E+01 2.64111E+00 6.09427E-01
 -1      1947 1.40203E+02 8.89922E+00-7.44578E-01 3.25264E+01 3.32240E+00 4.48597E+00
 -1      1948-7.27434E-01 6.66832E+00-5.72981E-01 8.67607E+00 1.09308E-01 3.43022E-02
 -1      1949-2.03260E-01 6.69970E+00 1.84895E-01 5.28362E+00 4.28704E-02 3.31023E-01
 -1      1950-5.12188E+00 1.02839E+01 2.62690E-02 4.37580E+00-1.02153E-01 2.70679E-01
 -1      1951-8.09059E-01 1.29123E+01 2.28553E-01 1.49409E+01-3.35675E-01 3.38857E-01
 -1      1952-8.34243E+00 1.85212E+01 6.19853E-01 9.83615E+00 2.05913E-01 6.14295E-01
 -1      1953-9.09700E+00 1.55696E+01 1.22573E-02 4.93076E+00 9.58442E-02 6.93509E-01
 -1      1954-2.89396E-01 1.37498E+00 6.46229E-03-4.95290E-02-4.04888E-03-1.92844E-02
 -1      1955 1.97339E+01-5.29471E+00-8.85780E-02 7.23522E+00-1.38960E-01 2.64610E-01
 -1      1956 2.16525E+02-1.69506E+01-5.35356E-01 2.17158E+01 2.43935E-02 1.09848E+00
 -1      1957 2.21510E+02-1.93709E+01-1.21815E-01 7.69020E+00-1.24212E-01 1.26262E+00
 -1      1958 3.70178E+00 4.55970E-01-9.67114E-02 4.38766E+00 2.94193E-02-4.75484E-02
 -1      1959 7.87101E+01 1.41360E+01 2.86923E-01-3.48984E+01-2.60914E+00-3.24048E+00
 -1      1960 7.67732E+01 6.61574E+00-2.43915E+00-3.04259E+01-3.25964E+00-1.89925E+00
 -1      1961 5.64910E+01 1.31598E+01 3.13187E-01-3.01769E+01-2.67316E+00-1.26255E+00
 -1      1962 3.88667E+01 1.32285E+01-8.54256E-01-2.75489E+01-1.48882E+00-1.25107E+00
 -1      1963 1.71326E+02 8.22943E+00-5.62939E-01-3.77411E+00 3.58985E-01-1.11112E+00
 -1      1964 1.74559E+02 1.09866E+01-1.42537E-01-1.72327E+00 1.10571E-01-9.76869E-01
 -1      1965 1.76975E+02 9.45343E+00-4.38407E-01-6.11180E-01 9.13797E-02-5.54372E-01
 -1      1966 1.75910E+02 1.22123E+01-5.47491E-02-2.20395E-01 7.51785E-02-4.54204E-01
 -1      1967 1.59967E-01-1.43629E-01-5.11420E-03 9.09894E-02 8.14738E-03 6.13667E-03
 -1      1968 6.76783E-02-1.03445E-01-1.14312E-02 9.41170E-02 9.19460E-03 1.25226E-03
 -1      1969 2.22120E-02-6.30219E-02-2.15471E-04 6.67303E-02 1.37887E-03 3.82092E-03
 -1      1970 1.82514E+02 8.94144E+00-5.34437E-03-2.70724E+00 5.57599E-02-2.46479E-01
 -1      1971 1.79680E+02 1.17985E+01 2.10367E-01-4.44762E+00 2.23569E-01-4.31683E-01
 -1      1972 1.82601E+02 8.95571E+00-4.45766E-02-4.93142E+00-5.70666E-02-8.70646E-02
 -1      1973 1.82456E+02 8.68225E+00-1.33830E-01-7.20198E+00 1.79894E-01-1.31461E-01
 -1      1974 1.95251E+02-5.95466E+00 1.08393E-02-1.52899E+01-7.22869E-02 7.57656E-02
 -1      1975 1.94933E+02-4.17344E+00 2.69707E-01-1.09617E+01 7.94253E-02-3.24096E-02
 -1      1976 1.98241E+02-5.87682E+00 2.73683E-01-8.24817E+00-8.37054E-04-3.23581E-02
 -1      1977 3.21197E-01 3.04031E-01 7.33793E-03-1.36838E-01-3.35318E-02 1.75346E-02
 -1      1978 1.70814E+02 1.59502E+01 1.44317E-01-1.93216E+00-3.12490E-02-3.89590E-01
 -1      1979 1.75204E+02 1.38449E+01 3.91540E-01-3.03593E+00 1.30547E-01-4.36980E-01
 -1      1980 1.67366E+02 1.49124E+01-1.17091E-01 1.60540E+00 2.41293E-01-4.25380E-01
 -1      1981 3.13786E-01 1.59020E-01-2.90781E-03 3.36226E-02-5.12764E-02 1.16463E-03
 -1      1982 2.04151E+02-1.12952E+01-6.88084E-01-1.23295E+01 4.90218E-02 3.87008E-01
 -1      1983 1.56851E+02 1.49276E+01-5.57977E-01-1.11001E+00-4.37782E-02-2.16339E-01
 -1      1984 1.55243E+02 1.47918E+01-9.02024E-01 2.17237E+00-7.16159E-01 3.88827E-01
 -1      1985 1.58957E+02 1.22197E+01 4.05491E-01-3.12623E+00 4.94611E-02-3.48707E-01
 -1      1986 1.64219E+02 1.27693E+01-1.03493E-01-3.36743E+00-9.19442E-02-6.12835E-01
 -1      1987 1.59552E+02 1.87931E+01-1.08975E+00-2.71980E-01-9.32735E-01-2.22401E-02
 -1      1988 1.59335E+02 1.29810E+01 4.43811E-02 2.90768E+00 4.00973E-01-2.05923E-01
 -1      1989 1.63999E+02 1.31258E+01 3.88901E-01 3.86723E+00 4.15597E-01-1.33339E-01
 -1      1990 1.95776E+02-4.41933E+00-2.13861E-01 2.73208E+00 3.28234E-02 2.96914E-04
 -1      1991 2.00255E+02-6.98968E+00 6.82987E-02 4.20599E-03-4.84891E-02-9.43077E-02
 -1      1992 2.01414E+02-8.04106E+00 1.47229E-01-3.25432E+00 2.89317E-02-1.75022E-01
 -1      1993 2.03111E+02-1.01656E+01-2.42476E-01-5.90737E+00-4.72828E-02-2.67344E-01
 -1      1994 2.09444E+02-1.36242E+01-5.62772E-02-6.05031E+00 2.41821E-02 6.04822E-01
 -1      1995 1.96080E+02-4.37251E+00 4.95689E-02-2.70272E+00 7.43519E-02-5.84495E-02
 -1      1996 2.15443E+02-1.60455E+01-6.24841E-01 1.75360E-01 4.22215E-02 5.32845E-01
 -1      1997 1.68596E+02 1.10666E+01-5.59112E-01-3.66574E+00 1.87597E-01-4.95174E-01
 -1      1998 1.70636E+02 7.93161E+00-1.04576E+00 3.04508E+00-3.53278E-01-2.02664E+00
 -1      1999 1.73724E+02 1.06346E+01 8.51225E-02 1.67462E+00-2.26723E-02-6.84066E-01
 -1      2000 1.69106E+02 1.14123E+01 5.99298E-01 3.64205E+00 5.14323E-02-7.38901E-01
 -1      2001 1.61025E+02 2.49701E+01-2.82558E-01 1.34738E+01-2.21462E+00 5.24507E-01
 -1      2002 1.77908E+02 1.05056E+01 6.55215E-01 1.05301E-01-7.37470E-03-4.55413E-01
 -1      2003 1.76144E+02 1.27944E+01 7.79011E-01-4.82564E-01-2.43033E-02-5.22423E-01
 -1      2004 1.36805E+01-4.88001E+00-2.12410E-02-1.01293E+00-1.37723E-01 7.94220E-02
 -1      2005 1.58830E+01-6.18048E+00 9.36683E-02-5.53735E-01-2.26600E-01-9.39166E-02
 -1      2006 1.52467E+01-3.90005E+00-2.84583E-01 2.94357E+00-1.82939E-01 2.14502E-02
 -1      2007 1.57916E+01-2.23850E+00-3.00457E-02 4.80116E+00-1.24499E-01-9.52886E-02
 -1      2008 1.24548E+01-4.43279E+00 1.13141E-01-3.09551E+00-2.07608E-01 8.75001E-02
 -1      2009 3.21286E+01 3.45027E+00 7.47310E-01-2.09236E+01-5.29212E-01 2.19833E-01
 -1      2010 3.75547E+01 9.13198E+00-8.96020E-01-2.56357E+01-1.37583E+00-7.82704E-01
 -1      2011 3.33836E+01-3.47970E+00 2.24293E-01-1.83736E+01 1.52956E-02 9.94282E-01
 -1      2012 8.54248E-01 1.94575E+00-1.89320E-02-2.70928E+00-3.05743E-02-8.66804E-03
 -1      2013 8.00977E-01 1.99835E+00-2.45776E-02-3.13438E+00-6.62273E-03-2.42921E-02
 -1      2014 2.26933E+00 1.45620E+00-3.40149E-03-2.98845E+00-1.03438E-02-4.37660E-03
 -1      2015 3.04334E+00 1.19572E+00-4.22646E-02-3.01937E+00-2.93858E-03 1.60318E-03
 -1      2016 2.53208E-01 2.30753E+00 3.10306E-02-2.41219E+00-4.13353E-02-2.92642E-02
 -1      2017 2.50255E-01 2.30026E+00 7.05600E-02 2.40578E+00 3.52315E-02-2.12666E-02
 -1      2018 1.93973E+02-2.21449E+00 1.38403E-02 6.00318E+00 3.27550E-02 3.07923E-02
 -1      2019 1.72424E+01-1.77279E+00 1.21886E-01 6.57315E+00 2.54845E-02-1.58567E-02
 -1      2020 2.07914E+01-7.65713E+00 8.39223E-02 3.93807E+00-4.06802E-01 3.62578E-01
 -1      2021 2.53960E+01-6.63508E+00-4.89845E-01-1.04435E+01 4.20594E-01 3.83496E-01
 -1      2022-4.50678E-01 1.88420E+00-1.74226E-02 6.46805E-01 1.18015E-03-9.39009E-03
 -1      2023-4.63260E-01 1.91731E+00 1.97600E-03-6.58592E-01 3.89566E-03-1.14265E-02
 -1      2024 3.54417E+00 1.03939E+00 3.35510E-02-3.27543E+00-3.13286E-02-8.43756E-03
 -1      2025 1.89926E+00 1.55507E+00 2.42399E-02-3.97776E+00-7.22262E-02-2.52751E-02
 -1      2026 1.60889E+02 2.54601E+01-1.01883E+00 8.03120E+00-2.21396E+00 1.29859E+00
 -1      2027 8.61812E+00-2.28868E+00 1.38722E-02-4.16852E+00-8.70192E-02-9.41473E-02
 -1      2028 1.61378E+02 2.30954E+01-8.65344E-02 6.77826E+00-1.79481E+00-5.03283E-01
 -1      2029 1.94319E+02-2.16326E+00 1.20739E-01 4.36152E+00 1.51705E-02 7.90507E-02
 -1      2030 1.91689E+02-6.84671E-01-7.91511E-02 4.81123E+00 2.46849E-02 3.67328E-02
 -1      2031 1.90752E+02 8.66162E-01 4.11659E-02 6.27222E+00 1.42616E-02 9.07400E-02
 -1      2032 1.89807E+02 1.04177E+00-2.65029E-02 6.87047E+00 6.64905E-02 1.15724E-01
 -1      2033 1.88068E+02 3.85186E+00-1.56391E-01 8.45289E+00-5.79067E-02-2.43033E-01
 -1      2034 1.89751E+02 2.11644E+00 3.50225E-02 7.65672E+00 1.18793E-01-7.44759E-03
 -1      2035 1.86332E+02 7.03522E+00 5.16740E-01 8.57066E+00 4.14050E-03-4.62731E-01
 -1      2036 1.42403E+02 8.49031E+01 1.72596E+01-1.00464E+02 9.16982E+00-1.25779E+01
 -1      2037 2.76200E+02 6.27778E+01 4.17974E+01-9.14775E+01-2.68464E+00 7.21840E+00
 -1      2038 1.45210E+02 8.54249E+01 1.94549E+01-9.81852E+01-1.03659E+01 1.31447E+01
 -1      2039 2.77130E+02 6.18657E+01 4.15360E+01-1.05683E+02 1.78518E+00-3.91380E+00
 -1      2040 2.27888E+02 7.67452E+01 4.46620E+01-9.50449E+01 3.76671E+00-1.93764E+00
 -1      2041 2.32591E+02 7.29230E+01 4.56094E+01-9.90097E+01 4.18383E-01 2.55148E-01
 -1      2042 2.28535E+02 7.04503E+01 4.29096E+01-9.40633E+01-4.05654E+00 3.95555E+00
 -1      2043 1.61870E+02 8.30194E+01 2.32651E+01 9.67730E+01-7.70328E+00-1.11183E+01
 -1      2044 2.96921E+02 6.24206E+01 4.82298E+01 9.53637E+01 5.10015E+00 7.49625E+00
 -1      2045 2.91147E+02 5.73119E+01 4.37299E+01 8.62157E+01-3.31402E+00-6.95134E+00
 -1      2046 2.26712E+02 7.95121E+01 4.49556E+01 9.35955E+01 3.28266E+00 2.47489E+00
 -1      2047 2.24036E+02 6.36401E+01 3.78207E+01 9.58815E+01 3.30621E-01-1.27911E+00
 -1      2048 1.27498E+02 8.07900E+01 1.24244E+01 1.00732E+02 1.12644E+01 1.11150E+01
 -1      2049 2.36512E+02 6.41959E+01 4.37166E+01 8.97713E+01-3.71763E+00-4.81456E+00
 -1      2050 1.80776E+02 9.87353E+00 3.74281E-02-1.42207E-01 2.88841E-02 1.44237E-01
 -1      2051 1.65055E+02 9.01271E+00-4.73000E-02 6.17104E+00-9.62619E-02 8.03350E-01
 -1      2052 1.65609E+02 9.66331E+00 2.22712E-01-6.04676E+00-1.27055E-01 5.70086E-01
 -1      2053 1.95502E+02-3.42273E+00 1.18007E-01-1.16233E-01-3.25132E-02-3.18799E-02
 -1      2054 1.36136E+02 1.59132E+00-9.37960E-01-9.03758E+00 1.16030E+00 7.77664E-01
 -1      2055 1.38194E+02 8.21807E-02 1.45277E-01 8.52877E+00-3.18697E-01-1.41567E-01
 -1      2056-7.15740E-01 3.53567E+00 4.16234E-02-9.68578E-04-2.97691E-02 3.96485E-02
 -1      2057 2.30114E+02-2.34440E+01-1.42179E+00-6.45292E-02-2.25481E-01-1.36760E+00
 -1      2058 3.91158E-01-4.46369E-02-4.24745E-04 6.95115E-03-1.05038E-03-7.06053E-03
 -1      2059 1.58485E+02 2.02809E+01 1.65501E-01-2.73774E+00-9.65892E-01-7.64152E-01
 -1      2060 1.79376E+02 1.21561E+01 1.62979E-01-7.19530E+00-3.26804E-01 4.17718E-01
 -1      2061 1.59008E+02 2.06328E+01-1.46358E-01 2.96572E+00 3.81961E-01-2.14483E-01
 -1      2062 1.78661E+02 1.31749E+01 1.07931E-01 6.30340E+00 7.71262E-02 1.81765E-01
 -1      2063 1.76071E+02 4.94649E+00 2.15166E-01 3.92556E-02-7.59185E-02 1.06168E+00
 -1      2064 1.87016E+02 5.20302E+00 6.46656E-02 2.44858E+00 1.82188E-02 1.55797E-02
 -1      2065 8.18435E-02-1.01990E-01 1.86763E-03-3.19521E-02 7.11278E-04 8.97748E-04
 -1      2066 1.80192E+02 1.39763E+01-2.45271E-01 1.62171E+01 7.05934E-01 9.75111E-01
 -1      2067 1.81520E+02 1.26593E+01-2.03046E-01-1.57783E+01-4.82756E-01 7.58900E-01
 -1      2068 1.88984E+02 2.59833E+00 1.72481E-02-5.22364E+00 3.27801E-02 5.39557E-02
 -1      2069 5.68263E+01 7.70602E+00-5.68417E+00-2.71748E+01 2.11973E+00 1.63068E+00
 -1      2070 5.81688E+01 8.53583E+00-4.20234E+00 2.78276E+01-1.96358E+00 7.62003E-01
 -1      2071 1.98638E+02-7.18604E+00 1.69442E-01 1.10201E+01-4.76439E-02-3.61968E-02
 -1      2072 1.99605E+02-7.70760E+00-2.95600E-01-1.11080E+01 1.42734E-02 1.08588E-01
 -1      2073 1.42738E+02 3.70753E+00-6.12444E-01 2.36943E+01-1.25375E+00-2.61381E+00
 -1      2074 1.42156E+02 2.48837E+00-1.44266E+00-2.26078E+01 9.94221E-01-9.07128E-01
 -1      2075-4.25361E+00 1.13697E+01 1.22190E-03 8.13757E+00 1.83278E-01-6.77648E-02
 -1      2076-6.63964E+00 1.34586E+01 2.44144E-01-7.61041E+00 1.10303E-02-3.71121E-01
 -1      2077 1.70619E+02 1.37625E+00-1.25966E+01-3.53530E+00-1.12060E+00 1.52164E+00
 -1      2078 1.73341E+02 1.34402E+00-1.56801E+01 3.30799E+00 9.30588E-01-8.84759E-02
 -1      2079-3.04786E-01 1.69540E+00-1.54895E-03 4.05160E-01-2.31862E-03 1.16469E-02
 -1      2080-3.21412E-01 1.68346E+00-1.68284E-04-3.93503E-01 9.20941E-03-8.76353E-04
 -1      2081 2.29217E+00 1.40025E+00 7.98831E-03 3.36408E+00 6.30111E-03-3.23065E-03
 -1      2082 2.29656E+00 1.46084E+00-5.95144E-03-3.38009E+00 2.04931E-02 2.27479E-02
 -1      2083 1.70633E+01-4.70470E+00-5.76517E-02-3.87454E+00-3.03710E-02-8.32278E-02
 -1      2084 1.71361E+01-4.67968E+00-1.41167E-02 3.75902E+00 1.62470E-01-5.75125E-02
 -1      2085 1.91775E+02-7.34055E-01 3.80415E-03 6.43365E+00 2.32224E-02-2.59738E-02
 -1      2086 1.13951E+01-2.76230E+00 1.79934E-02-1.69984E+00 1.05445E-01 1.52462E-02
 -1      2087 1.14925E+01-2.79574E+00 1.83283E-03 1.58342E+00-5.48162E-02-9.37224E-03
 -1      2088 7.80966E-01 1.95551E+00-2.74988E-03-2.17383E+00 8.73783E-03 1.51619E-02
 -1      2089 7.82960E-01 1.96028E+00 3.03879E-04 2.16465E+00-6.33599E-03 2.27498E-02
 -1      2090-2.51382E-01 1.49509E+00-1.34692E-03-1.17660E-01 9.60289E-04 3.34927E-03
 -1      2091 2.27773E+01 7.85146E-01-2.45297E-01 1.62077E+01-4.84286E-01-1.58990E-01
 -1      2092 2.23051E+01 1.31224E+00-1.75579E-01-1.62664E+01 3.93558E-01-3.27298E-01
 -1      2093 2.18185E+02-2.63215E+01-4.05295E+00 3.89532E+01-8.18435E-01-4.29438E+00
 -1      2094 2.21129E+02-1.64757E+01 6.58136E-02-3.33876E+01 1.10106E+00-2.44455E+00
 -1      2095 4.55464E-01 4.69638E-01-1.01990E-03-1.85946E-01 5.97513E-02-1.04981E-02
 -1      2096 5.48646E-01 4.39178E-01 3.04039E-02 2.61527E-01-1.82483E-02-8.81283E-02
 -1      2097-2.50597E-01 1.48317E+00 4.49212E-03 1.10903E-01-6.22216E-04 7.68017E-03
 -1      2098-4.72138E-02 1.95389E+00-4.77717E-04-1.09986E+00 4.36472E-03-1.71321E-03
 -1      2099-5.22644E-02 1.96683E+00 1.66452E-03 1.09178E+00-2.48928E-03 1.18901E-02
 -1      2100 6.13228E+00-3.28245E-01 8.82906E-04-3.62695E+00 4.03878E-02 2.63673E-02
 -1      2101 6.15731E+00-3.33267E-01-7.15559E-03 3.56647E+00-1.41259E-02 3.51136E-03
 -1      2102 4.70336E+01 1.90429E+01-1.25761E+00-3.36415E+01 2.25946E+00 1.45787E+00
 -1      2103 4.83543E+01 2.14586E+01-5.60301E-01 3.62059E+01-1.31275E+00 5.86536E-01
 -1      2104 1.76443E+02 9.02221E+00-1.40814E-01-1.81197E+00 1.26958E-02 9.91420E-01
 -1      2105 1.76430E+02 9.17963E+00 2.44333E-01 1.43321E+00 3.54404E-02 8.04570E-01
 -1      2106 5.65070E-02-1.06568E-01-1.04675E-02 1.57855E-01-2.84195E-03 6.11104E-04
 -1      2107-2.21673E-03-2.56842E-02-1.01516E-03 2.80915E-02-1.37578E-03 1.52312E-03
 -1      2108 1.89220E+02 2.55673E+00 8.32026E-02 6.62945E+00 2.06685E-02 5.57197E-02
 -1      2109 1.55134E+02 2.97038E+01-6.44152E-01-1.23386E+01-3.54749E+00 5.78057E-01
 -1      2110 1.58034E+02 2.87081E+01-4.93249E-02 1.27616E+01 3.09315E+00-1.91517E+00
 -1      2111 1.85375E+02 6.65540E+00 8.04041E-02-3.02923E+00-3.08760E-02 5.41253E-02
 -1      2112 1.91264E+02-1.28403E+00 4.28207E-03-7.39222E+00 4.90253E-03-9.06465E-02
 -1      2113 5.56460E-02-1.07877E-01-5.28880E-03-1.60774E-01-3.09451E-03-2.68986E-03
 -1      2114 1.45992E+02-5.17279E+00-1.70940E+01 5.14076E-01 2.09076E+00 1.20237E+00
 -1      2115 1.47893E+02-2.33989E+00-1.48163E+01-6.63978E-03-1.67787E+00-5.69716E-01
 -1      2116 1.17725E+00 1.15430E+00 8.42138E-03-1.57517E+00 7.06299E-02-1.98904E-02
 -1      2117 1.36574E+00 1.85196E+00-3.55505E-02 2.49603E+00-9.55322E-02 2.16041E-03
 -1      2118 1.70101E+02 1.88110E+01-6.49275E-02-6.48945E+00-1.26315E-01 2.28047E-01
 -1      2119 1.69370E+02 1.89524E+01-1.73014E-01 4.88952E+00 1.23435E-01 3.28943E-01
 -1      2120 2.66363E+02-3.72018E+01-7.89993E+00-2.66622E-01-1.07066E+00-5.00602E+00
 -1      2121 1.88655E+02 3.41816E+00 3.35071E-01-9.73723E+00 7.30532E-02 2.69994E-02
 -1      2122 2.21511E-01-1.13397E-01 6.29414E-03 2.08233E-01 7.40055E-03 1.79153E-02
 -1      2123-1.89819E-03-2.37602E-02-2.59526E-04-2.58629E-02 1.98376E-03 7.05714E-04
 -1      2124 1.83301E+02 8.65595E+00 1.13172E-01 2.69361E+00 5.68502E-02 8.85558E-02
 -1      2125 1.88509E+02-4.40756E+00-2.42402E-01-2.03794E+01 1.07879E-01-8.60064E-02
 -1      2126 1.92744E+02-5.96033E+00-2.31685E-01 2.28218E+01-2.71268E-01-3.90090E-01
 -1      2127 1.54988E+02 7.96300E+00-3.35713E-01-3.63019E+00 1.54473E-01 6.73980E-01
 -1      2128 1.54428E+02 7.86256E+00-1.42231E-01 3.59567E+00 5.70756E-02 4.05615E-01
 -1      2129 2.06749E+02-1.13126E+01-2.90544E-01 1.10207E-01 5.17663E-02 2.88884E-01
 -1      2130 1.72264E+02 4.60075E+00-5.17515E-01-4.91125E+00-5.02499E-01 2.60663E+00
 -1      2131 1.71947E+02 4.58144E+00 1.09449E-01 4.53044E+00 1.51902E-01 2.00747E+00
 -1      2132 6.57653E+00 1.28487E+01 7.52918E-01 2.29773E+01 3.72835E-03-7.62046E-01
 -1      2133 6.37137E+00 1.39489E+01 1.22179E+00-2.50044E+01-5.19123E-02-8.66038E-01
 -1      2134 1.89777E+02 1.57914E+01-6.89151E-01-2.36374E+01-1.40895E+00 2.33384E+00
 -1      2135 1.87533E+02 1.91454E+01 3.48293E-01 2.33524E+01 8.14376E-01 3.12457E+00
 -1      2136 1.62809E+02 8.95079E+00-2.29812E-01 3.18039E+01-2.36372E+00 3.48723E-01
 -1      2137 1.63031E+02 1.10166E+01-1.47188E-01-3.19853E+01 1.90080E+00-3.06047E-02
 -1      2138 1.11727E+02 3.48572E+00-3.13287E+00 1.52011E+01-1.47684E+00-5.06829E-01
 -1      2139 1.09447E+02 6.58530E-02-8.81639E+00-1.38146E+01 1.93749E+00 8.12048E-01
 -1      2140 1.79628E+02 1.10264E+01 1.07493E-01-1.98169E+00-7.44837E-02 3.24356E-01
 -1      2141 1.75053E+02 2.13714E+00-1.91933E+00 4.11256E-01-2.30774E-01 4.56018E+00
 -1      2142 3.03934E-01-9.53259E-02 1.34745E-02-2.00491E-01-1.87781E-03 1.28613E-02
 -1      2143 1.58350E+02 1.82561E+00-1.23999E-01-6.09252E+00-7.74615E-01 1.62931E+00
 -1      2144 1.58106E+02 1.93415E+00-3.23069E-01 5.39637E+00 1.09961E+00 2.17770E+00
 -1      2145 1.86795E+02 6.16734E+00 3.25538E-02 1.13085E+01 8.64939E-02 3.31611E-01
 -1      2146 1.39942E+01-2.41476E+00 4.33457E-02 2.07511E+00 3.49232E-02-5.65877E-02
 -1      2147 1.39958E+01-2.32524E+00 2.92056E-02-2.06617E+00-8.84513E-02-6.76963E-02
 -1      2148 1.78841E+02 8.80202E+00 2.54475E-01-3.47584E-02 6.95347E-03 3.80755E-01
 -1      2149 1.79257E+02 1.09620E+01 7.17834E-02 8.88306E-01 1.00260E-01 3.10603E-01
 -1      2150 2.08661E+01 1.29206E+01 2.59230E-01-2.11335E+01 1.05967E+00 5.77307E-01
 -1      2151 2.08558E+01 1.25210E+01 1.48780E-01 2.08460E+01-8.51355E-01 5.53331E-01
 -1      2152 2.24323E+00 1.48531E+00 1.16191E-02-2.62953E+00 7.85830E-03 6.97384E-03
 -1      2153 2.24200E+00 1.46827E+00 1.29155E-02 2.63314E+00-1.84584E-02-6.44540E-04
 -1      2154 1.90468E+02-1.39863E+00-5.55119E-02 9.64307E+00 1.24116E-01-7.55449E-02
 -1      2155-1.74272E-01 1.65083E+00 2.90164E-03-3.48833E-01 9.03299E-04 6.80348E-03
 -1      2156 1.59322E+01 4.11783E-01-3.39642E-02 9.52384E+00-6.24755E-02-1.83195E-01
 -1      2157 1.56591E+01 4.26665E-01-1.46947E-02-9.05547E+00-2.25763E-03 1.23965E-02
 -1      2158-1.72298E-01 1.66391E+00-6.37215E-04 3.62883E-01 7.74444E-04 3.07144E-03
 -1      2159 1.39367E+02 1.73613E+01-8.09246E+00 4.29806E+01-2.81103E+00-5.10733E+00
 -1      2160 1.40801E+02 1.51017E+01-5.30809E+00-3.91714E+01 4.12147E+00-6.13651E+00
 -1      2161-2.34145E-02 1.82512E+00 4.34791E-03 8.14238E-01-5.17240E-03 8.47363E-03
 -1      2162-3.00725E-02 1.83281E+00 5.11903E-03-8.11618E-01 1.86065E-03 9.20966E-03
 -1      2163 4.76693E+00 5.12161E-01 9.09550E-03 3.13162E+00-3.84122E-02 1.69244E-02
 -1      2164 4.77985E+00 4.88027E-01 1.90038E-02-3.14256E+00 2.06531E-02 4.22603E-03
 -1      2165 5.49863E-01 4.96558E-01 7.84282E-03 2.74232E-02-1.45585E-02 1.10034E-02
 -1      2166 2.22241E-01-1.54455E-01-8.46364E-03 1.57608E-02-5.89087E-03-2.47734E-03
 -1      2167-1.26282E+01 1.95182E+01-1.12539E-01 4.22598E-01 3.86276E-02-4.94773E-01
 -1      2168-1.83254E-02-4.41360E-02-6.13519E-03-8.77205E-02-1.75733E-03-3.72269E-03
 -1      2169 1.51189E+02 8.86262E+00 6.93180E-01 2.53212E+00 8.62126E-01-4.50074E-01
 -1      2170 1.50721E+02 9.72260E+00 4.75219E-01-2.65004E+00 4.81147E-02-6.11082E-01
 -1      2171 1.90451E+02 1.52954E+00 3.34446E-03-1.22867E+00 1.91057E-02-2.53144E-02
 -1      2172-2.06037E-01 1.55771E+00 7.08361E-03 4.82148E-03-5.27387E-04 4.48361E-03
 -1      2173 6.13391E-01 1.91327E+00 6.56862E-03-1.65986E+00 6.38509E-03 5.68719E-03
 -1      2174 6.12094E-01 1.90586E+00 1.20890E-02 1.65247E+00-3.68360E-03 2.61131E-03
 -1      2175 9.22562E+00-1.33478E+00 3.00603E-02-2.25794E+00 3.47933E-02 4.27638E-03
 -1      2176 9.18460E+00-1.30473E+00 1.97192E-02 2.26270E+00-7.92341E-02 8.32347E-04
 -1      2177 7.10906E+01 2.25973E+01 2.83349E+00 4.64507E+01-3.02292E+00 4.71378E-01
 -1      2178 1.04096E+02 5.23921E+00 5.87713E-02 2.99576E+01-1.39298E+00 1.01683E+00
 -1      2179 7.37630E+01 2.05384E+01 1.05459E+00-4.69684E+01 4.44488E+00 2.19996E-01
 -1      2180 1.01932E+02 5.27428E+00 1.07803E+00-2.86549E+01 2.85086E+00 3.44669E-02
 -1      2181 2.26322E-02-4.66704E-02 5.33962E-04-1.60258E-03-1.27108E-04 5.63098E-04
 -1      2182 1.89121E+02-1.55035E+00-1.09991E-01-1.06322E+01-2.28679E-01 2.40502E-02
 -1      2183 1.89884E+02 4.51503E-01 1.45540E-01-6.89223E+00-1.25537E-02-3.59747E-02
 -1      2184 4.37974E+01-6.25027E+00-4.38060E+00-2.01427E+01 1.23021E-01-8.50427E-01
 -1      2185 4.48442E+01-5.54437E+00-2.10630E+00 1.99631E+01-9.83108E-03-6.68370E-01
 -1      2186 1.64088E+02 2.50628E+01-5.41413E-01-1.13328E+01-1.32264E+00 7.80793E-01
 -1      2187 1.66256E+02 2.41651E+01 1.26926E-01 1.09420E+01 1.30207E+00 7.61625E-01
 -1      2188 1.91838E+02-6.86976E-02 5.06190E-02 3.38552E+00-2.59879E-02-1.49036E-02
 -1      2189 1.96202E+02-4.37123E+00 1.12137E-01 5.83503E+00-1.02222E-02 2.00745E-02
 -1      2190 5.07045E+00 3.13793E+00 3.97733E-01 6.71060E+00-3.34360E-01-4.96171E-02
 -1      2191 4.39208E+00 3.87268E+00 1.58264E-01-7.95905E+00 2.60725E-01-1.92474E-01
 -1      2192 1.35591E+01-6.86591E+00 1.69497E-01-4.61164E+00 2.85504E-01-3.80232E-02
 -1      2193 1.36842E+01-7.01567E+00 1.69077E-01 4.75633E+00-3.37781E-01-6.24715E-02
 -1      2194-4.96874E-01 2.62720E+00 3.02783E-02-2.72853E+00 8.16899E-02 6.67250E-02
 -1      2195-5.27747E-01 2.62898E+00 4.68080E-03 2.71263E+00-4.31818E-02 3.69148E-02
 -1      2196-3.75673E-01 1.24317E+00 6.74131E-03 8.46769E-02 3.59658E-03 3.62557E-02
 -1      2197-2.06315E-02-4.95255E-02-5.23060E-03 8.37559E-02-3.19322E-03 5.09905E-03
 -1      2198 2.50467E+01-1.17391E+01-6.01084E-01-4.80249E+00-4.40824E-01-2.98241E-01
 -1      2199 2.49920E+01-1.13593E+01-4.44816E-01 4.71503E+00 2.39172E-01 3.27647E-02
 -1      2200-3.60433E-01 1.32168E+00 1.74657E-02 1.38673E-02-2.30200E-03 3.26198E-02
 -1      2201-6.42192E-01 1.75761E+00 1.77270E-02 2.00411E-01-1.44259E-02 4.10723E-02
 -1      2202-7.46158E-01 1.82854E+00 1.21191E-02-1.91087E-01 1.76898E-02 4.78317E-02
 -1      2203 1.46622E+00 1.61673E+00 3.24077E-02 4.80271E+00-9.75048E-02 6.43012E-02
 -1      2204 1.45574E+00 1.61343E+00 5.65120E-02-4.75189E+00 1.34355E-01 4.50303E-02
 -1      2205-4.40546E+00 9.23826E+00 3.32815E-03 9.99712E-01-1.08665E-01-1.47221E-01
 -1      2206-2.23382E-01 1.07282E+00 5.05878E-03 1.04535E-02 7.56986E-04 3.15360E-02
 -1      2207-9.23230E-01 2.40749E+00 2.56592E-02-1.03874E+00 3.04019E-02 5.15562E-02
 -1      2208-8.99717E-01 2.36946E+00 2.03709E-02 9.97719E-01-3.29777E-02 3.95793E-02
 -1      2209 5.53786E+00-1.08526E+00 6.51480E-02-5.98515E+00 1.68503E-01 3.96099E-02
 -1      2210 5.53906E+00-1.14580E+00 9.88384E-02 6.15293E+00-1.93056E-01 5.62256E-02
 -1      2211 1.96433E+02-4.80268E+00 1.43728E-01-5.61281E+00-2.35416E-02-1.15109E-02
 -1      2212-7.39620E-03-2.82151E-03-1.35797E-03-3.53537E-03 8.42670E-05 9.83834E-04
 -1      2213-5.21877E-05-1.94280E-04 6.96948E-05-5.33588E-05-3.46445E-05 8.73913E-07
 -1      2214-7.03478E-05 1.46335E-04 5.58305E-06 4.75282E-05 2.02359E-06-2.00201E-06
 -1      2215-7.07871E-05 1.12371E-04 2.10367E-06 1.45779E-05 4.08709E-06 4.17482E-07
 -1      2216-4.77680E-05 9.92644E-05 1.45929E-06 6.11528E-06-1.11179E-06-1.99243E-07
 -1      2217-1.13074E-04 9.64931E-05 1.12979E-05-1.71370E-06-1.30098E-06-2.72520E-06
 -1      2218-1.40135E-04-3.10469E-04 3.40495E-05 2.36718E-04 1.74864E-05 2.76512E-05
 -1      2219-4.57569E-04-2.24353E-04 2.23225E-05-2.42721E-04 6.99864E-05 8.53489E-05
 -1      2220 9.21547E-05-2.00873E-04 6.10800E-05 1.06000E-04 3.43590E-05-3.99498E-05
 -1      2221 3.06927E-05-6.42888E-05 2.59739E-05 2.00183E-04 2.98036E-06-6.64422E-06
 -1      2222-1.32597E-04 2.92794E-05 1.38504E-05-8.43231E-05-2.87022E-06-2.80635E-06
 -1      2223-1.27299E-05 8.67897E-05 5.31201E-06 1.90014E-04-2.46714E-06-8.26883E-06
 -1      2224-7.31180E-03-3.19494E-03-1.32837E-03 3.03546E-03 1.36320E-04 1.30600E-03
 -1      2225-1.41946E-05-7.55677E-05 1.32081E-05-1.45754E-04-1.76433E-05-3.21084E-06
 -1      2226 1.83775E+02 8.24739E+00 7.59506E-03-8.03652E-02-1.95655E-02 7.36693E-03
 -1      2227 1.43711E+02 5.78885E-01-2.08474E-01-3.00929E-01 1.33953E+00 1.15291E+00
 -1      2228 1.45004E+02 1.14048E+00-7.86932E-01-2.36770E-01-1.28865E+00 1.17143E+00
 -1      2229 3.89638E+01 4.71975E+00 7.74230E-01 3.82864E+01 2.39264E+00-5.06425E-01
 -1      2230 3.83075E+01 3.08853E+00 2.29528E+00-3.97753E+01-2.70771E+00-1.56328E+00
 -1      2231 1.71827E+02 1.30428E+01 3.26395E-02 1.59729E+00-1.50109E-01 5.99865E-01
 -1      2232 1.71910E+02 1.30279E+01 1.41161E-01-1.56298E+00 1.46582E-01 7.69772E-01
 -1      2233 1.73403E+02 6.64296E-01 5.16089E-01 3.00616E+01-5.14760E-01-5.19987E-02
 -1      2234 1.71941E+02-1.89510E+00 1.23075E-02-2.72270E+01 3.54816E-02 4.99730E-02
 -1      2235 2.11604E+02-1.50760E+01 4.22545E-01 1.40058E+01-2.07548E-01-9.37606E-01
 -1      2236 2.11200E+02-1.48105E+01-1.14235E-01-1.39985E+01-1.30197E-02-8.09926E-01
 -1      2237 1.85519E+02 6.62624E+00 5.81295E-02-6.69986E+00-9.74469E-02 2.00506E-01
 -1      2238 1.90063E+02 1.27184E+00 5.56257E-01 8.25792E+00-1.13715E-01-1.36713E-01
 -1      2239 1.90063E+02 3.17705E-01 1.52756E-02 6.92962E+00-1.61349E-02-8.39093E-02
 -1      2240-1.51850E+01 2.39589E+01 6.37785E-01 1.09189E+01-3.66162E-02-1.02591E+00
 -1      2241-1.57506E+01 2.42326E+01 1.03498E+00-1.07236E+01 1.54116E-01-9.43357E-01
 -1      2242 1.47364E+01-2.29614E-01-7.56014E-02 5.61311E+00-9.30221E-03-1.15518E-03
 -1      2243 1.45400E+01 5.66486E-02-9.61702E-02-5.75583E+00-4.85950E-02 1.04513E-01
 -1      2244 2.22096E+01 1.97640E+01 1.18363E+00 2.41627E+01-6.23909E-01 1.74507E+00
 -1      2245 2.28908E+01 2.08540E+01 5.33705E-01-2.39632E+01 8.77120E-01 1.70086E+00
 -1      2246 3.86065E+00 9.90763E-01-1.61219E-02-2.71496E+00 1.49185E-02 1.61304E-02
 -1      2247 3.85282E+00 9.80156E-01-9.03565E-03 2.70321E+00 5.39406E-03 1.22762E-02
 -1      2248-2.83344E-03 1.75899E+00 3.11988E-03-6.18140E-01 1.32442E-03-3.36561E-04
 -1      2249-9.92432E-03 1.76348E+00 3.82829E-03 6.22784E-01 6.91294E-04 9.84553E-05
 -1      2250 1.85218E+02 7.18935E+00 1.65678E-01 6.31538E+00 1.09504E-01 1.38936E-01
 -1      2251 1.87893E+02-2.16332E+00-5.32965E-01 1.43111E+01 5.21672E-02 2.33726E-02
 -1      2252 5.80553E-02-8.38662E-02 6.24576E-04 4.57435E-02-1.64129E-03-9.61089E-05
 -1      2253 1.62691E+02 1.61632E+01 3.65684E-01 1.98065E+00-7.08437E-01 1.48005E-01
 -1      2254 1.62875E+02 1.72318E+01 1.14241E-01-1.62168E+00 3.62914E-01 1.58779E-01
 -1      2255 1.92203E+02-9.81565E-01-1.92953E-02-4.60031E+00-8.77072E-03-4.60255E-02
 -1      2256-1.60458E+00 6.54132E+00-3.70905E-02-3.44995E+00 2.90870E-02-5.06631E-02
 -1      2257 2.06710E-01 3.93834E-02 1.29117E-02 6.37506E-03 6.43994E-03-8.59881E-03
 -1      2258 4.12241E-01 2.65630E-02 1.16041E-01 4.03528E-03-3.57461E-02-7.22619E-02
 -1      2259 3.37062E+01 2.61607E+01 3.36610E+00-2.95005E+01 2.30372E+00-1.58111E-01
 -1      2260 5.64303E+01 3.87074E+01 9.79959E-01-4.75883E+01 6.24723E+00-1.41476E+00
 -1      2261 7.87247E+01 3.52610E+01-1.06546E+01-5.29195E+01 1.02804E+01-8.43853E+00
 -1      2262 1.58183E+02 3.62097E+01 3.75799E+00-6.44057E+01 4.77838E+00-1.34458E+01
 -1      2263 1.00575E+02 1.32774E+01-4.90905E+00-4.70788E+01 3.36937E+00-2.75802E+00
 -1      2264 5.70387E+01 4.07797E+01 6.65783E-01 4.80142E+01-5.01125E+00-1.29046E+00
 -1      2265 3.25954E+01 2.78397E+01 5.38942E+00 2.89894E+01-4.35346E-01 1.09638E+00
 -1      2266 1.62025E+02 3.91330E+01 2.16255E-01 6.52693E+01-2.42290E+00-1.08851E+01
 -1      2267 7.34342E+01 3.24159E+01-1.48874E+01 5.47360E+01-1.02947E+01-8.39749E+00
 -1      2268 1.01911E+02 9.01504E+00-5.53705E+00 4.59579E+01-7.97170E-01-3.16593E+00
 -1      2269 1.69720E+02 2.94277E+01 2.14943E+00-4.60188E+01-1.79529E+00-8.95431E+00
 -1      2270 1.91034E+02 2.34667E+01 8.36152E-01-2.88816E+01-3.82795E+00 2.90667E+00
 -1      2271 2.05789E+02 1.40366E+01-8.08135E-01-2.75958E+01-1.48162E+00 3.33064E+00
 -1      2272 1.87908E+02 4.95834E+00-1.13161E+00-1.34595E+01-1.02655E+00 3.22463E+00
 -1      2273 1.76378E+02 2.71142E+01-7.09212E-02-2.15761E+01-1.22116E+00 1.77001E+00
 -1      2274 1.89141E+02 2.40140E+01 3.64862E+00 3.17801E+01 4.33858E+00 1.60578E+00
 -1      2275 1.76153E+02 3.49993E+01 4.34602E+00 4.56265E+01 1.07264E+00-8.06808E+00
 -1      2276 1.89080E+02 6.22196E+00-9.47036E-01 1.34787E+01 4.67368E-01 3.30729E+00
 -1      2277 2.02803E+02 1.43475E+01-1.06175E+00 2.95842E+01 1.60324E+00 3.32186E+00
 -1      2278 1.74391E+02 2.93212E+01 1.89616E+00 2.14807E+01 2.14724E+00 1.91158E+00
 -1      2279-9.09663E-03 6.79906E-04-3.56721E-04-8.25345E-04-2.63148E-04 4.06076E-04
 -1      2280-2.46243E-03-1.95898E-03-5.94168E-04-2.28655E-03 2.16585E-04 4.91769E-04
 -1      2281-5.96934E-02-2.07921E-02-3.89196E-04 5.97605E-02-5.76624E-04 6.90550E-03
 -1      2282-4.71019E-02-2.63781E-02-1.05131E-02 3.69641E-02-7.78661E-04 2.02123E-03
 -1      2283-6.34182E-03-2.85913E-02 2.68428E-03 5.07897E-02 8.24445E-05-8.94748E-04
 -1      2284-1.57608E-02-1.04518E-02-1.69969E-03 1.76978E-02-1.37901E-04 2.40659E-03
 -1      2285-1.40898E-02-1.66145E-02-5.84471E-03 1.20057E-02-8.46241E-04 2.38410E-03
 -1      2286-4.44313E-02-2.46154E-02-1.39945E-02-4.06233E-02-4.37598E-04-2.94837E-03
 -1      2287-8.68062E-02-2.93211E-02-1.11310E-02-5.86314E-02-2.10526E-03-5.22664E-04
 -1      2288-2.13229E-03-2.26910E-03-5.75722E-04 2.51332E-03-3.63557E-04 4.61485E-04
 -1      2289-8.91312E-03 3.94645E-04-1.23161E-03 9.69420E-04 1.67517E-04 1.18292E-03
 -1      2290-1.47318E-02-8.70122E-03-3.67848E-04-1.67766E-02 9.34910E-04 2.72021E-03
 -1      2291 2.39948E-03-2.71751E-02 4.98825E-04-5.48366E-02 9.09803E-04-4.16226E-03
 -1      2292-1.03067E-02-1.36893E-02-3.22951E-03-1.17321E-02 9.66504E-04 1.63440E-03
 -1      2293-1.90470E+01 2.99511E+01 1.73351E+00-5.84232E+00 3.96145E-01-5.80651E-01
 -1      2294-2.50332E+01 2.58362E+01-1.00564E+00-1.86603E+01 1.45739E+00-1.71932E+00
 -1      2295-2.38033E+01 2.59511E+01-1.92866E-01 1.94493E+01-9.98204E-01-2.24328E+00
 -1      2296-1.89301E+01 2.93748E+01 1.04933E+00 5.82248E+00-4.55649E-01-5.71580E-01
 -1      2297-1.43063E+01 2.17121E+01 1.42836E-01 5.44381E+00 1.08945E-01-8.76296E-01
 -1      2298-1.81998E+01 2.44611E+01-4.50047E-01 3.88969E-01-9.95511E-03-4.51997E-01
 -1      2299-1.43357E+01 2.19991E+01 4.96316E-01-4.79277E+00-8.40125E-02-9.64330E-01
 -1      2300 1.99656E+02 4.66285E+01 3.11024E+01-2.45311E-02-2.32997E+00-3.02880E+01
 -1      2301 1.85573E+02 2.88406E+01 1.51052E+01-9.30377E+00-6.76772E+00-2.73220E+01
 -1      2302 1.88042E+02 2.89420E+01 2.02061E+01 1.04613E+01 5.38245E+00-2.80799E+01
 -1      2303 1.94965E+02 4.30576E+01 2.33892E+01-2.92840E-01 3.20399E+00-2.78901E+01
 -1      2304 1.70768E+02 2.96644E+00-2.98271E+00-3.01856E+00-1.06808E+00 4.84384E+00
 -1      2305 1.83402E+02 2.90957E+01 8.15409E+00-2.60214E-01-2.72085E-01-1.58520E+01
 -1      2306 1.71489E+02 4.58653E+00-3.14381E+00 2.54448E+00 1.21610E+00 3.07424E+00
 -1      2307-2.44814E-05 1.09458E-04 6.16626E-06 1.17268E-05-3.51663E-06 6.81178E-06
 -1      2308-4.57137E-05 2.40643E-04 8.09077E-07 2.07322E-06-3.61377E-06 1.66639E-06
 -1      2309-3.66201E-05-6.05626E-05-4.18707E-06 2.12784E-05 4.41137E-06 7.35350E-07
 -1      2310-3.36532E-05 2.40766E-04-1.86346E-06 1.20005E-05-3.36195E-06 4.74552E-06
 -1      2311-2.30655E-05-5.95027E-05 1.86816E-07 4.47012E-06 4.29488E-06 7.33786E-07
 -1      2312-7.44813E-05-9.08076E-05-1.32099E-07 7.26668E-05 9.95368E-06-6.30614E-07
 -1      2313-4.49590E-05-5.39523E-05 1.95926E-06-4.25559E-05-5.72008E-06-1.54126E-06
 -1      2314 1.28922E+01 1.61789E+01 7.80337E-01-1.57899E+01-1.62832E-01 5.83987E-01
 -1      2315 1.57568E+01 1.98662E+01 1.47753E+00-1.79021E+01-4.99147E-01 1.28661E+00
 -1      2316 2.05520E+01 1.98326E+01-1.04752E+00-2.36668E+01-3.78225E-01-7.65061E-01
 -1      2317 5.79110E+01 2.18329E+01-1.30031E+00-3.95848E+01 3.76268E+00 6.32475E-01
 -1      2318 3.33870E+01 1.96847E+01-5.90460E-01-2.81027E+01 1.42042E+00 9.52905E-01
 -1      2319 1.22827E+01 8.89426E+00-4.35891E-01-1.41123E+01 2.83797E-01-1.20524E-01
 -1      2320 1.16964E+01 1.24218E+01-3.22159E-02-1.48681E+01 6.30686E-01-1.97560E-01
 -1      2321 2.19056E+01 1.75031E+01 1.89243E-01-2.29522E+01 9.53428E-01 9.51832E-01
 -1      2322 1.47017E+01 2.64718E+00 9.40037E-02-8.34610E+00-2.50037E-02-7.22758E-02
 -1      2323 1.33135E+01 4.88544E+00 4.54976E-03-9.62248E+00-5.84773E-02 1.21319E-01
 -1      2324 1.46511E+01 5.49220E+00 4.20042E-02-1.26377E+01 4.05344E-01-3.68089E-01
 -1      2325 2.25165E+01 7.57898E+00-7.35917E-02-1.88748E+01 1.09626E+00 2.68799E-01
 -1      2326 1.79605E+01-1.24018E-01-4.97738E-01-1.22515E+01-6.98404E-02-2.53655E-01
 -1      2327 1.41660E+01 7.31240E-01-4.08508E-02-5.15059E+00-5.90458E-02 3.72950E-02
 -1      2328 1.39588E+01 1.88948E+00-1.27317E-01-6.65995E+00-9.35851E-02 1.75682E-01
 -1      2329 1.50737E+01 2.72746E-02-1.78035E-01-7.17801E+00-6.18973E-02 1.07499E-01
 -1      2330 1.31623E+01-9.69017E-01-1.11490E-01-2.02330E+00-4.58626E-02-1.17660E-02
 -1      2331 1.39774E+01-3.53956E-01 2.00984E-02-3.50166E+00-4.54511E-02-7.41339E-02
 -1      2332 1.45791E+01-1.00855E+00 1.15062E-01-3.94317E+00-4.54664E-02 3.00109E-03
 -1      2333 9.94864E+00-6.70217E-01 7.04791E-02 1.06632E+00-5.99389E-02-9.63331E-03
 -1      2334 1.11420E+01-6.47631E-01 6.74846E-02 6.86140E-02-4.97279E-02 5.82461E-02
 -1      2335 1.20459E+01-1.24620E+00 1.11591E-02-3.57137E-01-1.96530E-02-5.09148E-02
 -1      2336 1.29224E+01-2.44696E+00 9.79377E-02-1.24019E-01-7.04061E-02 3.68044E-02
 -1      2337 1.01390E+01-2.27684E+00-1.57997E-01 1.98878E+00-7.51204E-02 7.65714E-03
 -1      2338 8.60868E+00-5.00048E-01-2.67362E-02 1.78327E+00-2.91267E-02 7.32356E-04
 -1      2339 5.40460E+00 5.79074E-01 4.99062E-02 2.50259E+00-2.77476E-02-7.56806E-03
 -1      2340 6.55376E+00 2.69919E-01 3.47497E-02 2.25688E+00-1.98400E-02 4.28931E-02
 -1      2341 7.15084E+00-1.01194E-01 3.53630E-03 2.38179E+00-1.41565E-02-1.01958E-02
 -1      2342 7.65686E+00-6.79962E-01 2.57770E-02 2.98331E+00-4.76897E-02 2.18922E-02
 -1      2343 5.34431E+00-5.60956E-03-7.89252E-02 3.38367E+00-3.54744E-02 2.16160E-02
 -1      2344 3.99513E+00 1.03478E+00 3.47465E-02 2.38334E+00 2.05278E-03 1.00466E-02
 -1      2345 4.93643E+00 7.59852E-01 1.01627E-02 2.34648E+00-5.53287E-03 1.61583E-02
 -1      2346 4.23802E+00 7.53945E-01-5.01711E-02 2.91937E+00-2.25305E-02 2.67898E-02
 -1      2347 2.47366E+00 1.43672E+00-1.25502E-02 2.26745E+00-1.51240E-02-8.24957E-03
 -1      2348 3.17731E+00 1.20556E+00 6.01914E-03 2.36734E+00-1.18310E-02 1.31285E-02
 -1      2349 3.02253E+00 1.22442E+00 3.86990E-03 2.67901E+00 5.81055E-03-7.01026E-03
 -1      2350 1.14154E+00 1.75150E+00 1.63080E-02 1.65211E+00-4.07713E-03 1.59297E-03
 -1      2351 1.64010E+00 1.68479E+00 1.51312E-02 1.85352E+00 3.17813E-03 1.09504E-02
 -1      2352 6.30738E-01 1.89631E+00-3.39466E-02 1.90739E+00-3.38606E-03 2.01346E-02
 -1      2353 1.72947E+00 1.65409E+00-2.91871E-03 2.06276E+00-1.22653E-02 6.92338E-03
 -1      2354 1.46855E+00 1.75357E+00 8.98282E-04 2.39322E+00-9.09660E-03 6.75317E-03
 -1      2355 7.65751E-01 1.81241E+00-7.56473E-03 1.45099E+00-1.31446E-02-2.62601E-03
 -1      2356 2.36001E-01 1.81011E+00 1.70582E-02 8.73764E-01-7.15304E-03 5.88120E-03
 -1      2357 4.50646E-01 1.81885E+00 1.39314E-02 1.06914E+00 3.36397E-03 1.85278E-02
 -1      2358 4.41964E-01 1.84179E+00-4.94149E-03 1.18598E+00-4.01560E-03 3.68957E-03
 -1      2359 2.65374E-01 1.95455E+00 7.82289E-03 1.35148E+00-5.97531E-03 5.21469E-03
 -1      2360-6.08033E-02 1.87454E+00-1.58858E-02 9.47000E-01-4.52768E-03 1.68370E-02
 -1      2361 9.49910E-02 1.76454E+00 6.49938E-04 6.01101E-01 1.45766E-03-1.71266E-03
 -1      2362 2.17561E-01 1.77435E+00 7.36500E-03 7.71910E-01 3.19996E-03 8.61460E-03
 -1      2363-3.25304E-02 1.78439E+00 1.54561E-03 7.11172E-01-4.85589E-03 6.92212E-04
 -1      2364-6.73617E-02 1.70535E+00-3.64916E-03 3.24298E-01-2.33179E-03 3.89644E-04
 -1      2365-1.12269E-03 1.71566E+00 2.37843E-03 4.71233E-01 2.48488E-03 5.11303E-03
 -1      2366-9.48180E-02 1.70810E+00-1.04503E-03 4.87182E-01-1.68472E-03-7.26316E-04
 -1      2367-1.06231E-01 1.65543E+00 1.25973E-02 1.91698E-03-6.25361E-04 4.68434E-03
 -1      2368-9.24044E-02 1.66955E+00 2.76797E-03 1.33587E-01 8.77894E-04 2.05169E-03
 -1      2369-2.34641E-01 1.51434E+00-6.61424E-03 6.06449E-02 3.81034E-03 5.67791E-03
 -1      2370-1.14726E-01 1.61954E+00 1.15502E-03 1.95753E-01-2.69949E-03 7.03317E-03
 -1      2371-2.08889E-01 1.56230E+00 1.29543E-03 2.31009E-01-2.09693E-04 4.01784E-03
 -1      2372-9.35819E-02 1.66423E+00 4.22563E-03-1.32473E-01-7.85009E-03 6.26217E-03
 -1      2373-1.06950E-02 1.71681E+00 1.45693E-03-4.69139E-01-3.72229E-03 8.22491E-03
 -1      2374-6.02226E-02 1.71233E+00 2.91223E-03-3.18918E-01 3.53573E-03 5.30544E-03
 -1      2375-1.14781E-01 1.62257E+00-1.99280E-03-1.98352E-01 9.56206E-04 3.68401E-03
 -1      2376-2.29116E-01 1.51161E+00-3.24965E-03-5.57502E-02-1.68001E-03 4.88154E-03
 -1      2377-2.21967E-01 1.56336E+00-3.28413E-03-2.25355E-01 1.48206E-03 4.02302E-03
 -1      2378 2.25277E-01 1.78153E+00 2.64423E-03-7.72676E-01-1.06755E-04 1.91795E-03
 -1      2379 9.58675E-02 1.76752E+00 1.17060E-02-5.98817E-01 3.69676E-03-5.17545E-04
 -1      2380-8.54529E-02 1.70760E+00 5.24306E-03-4.84274E-01 1.02574E-04 1.63697E-03
 -1      2381 4.41053E-01 1.81797E+00 1.25735E-02-1.06786E+00-5.90474E-03 1.13484E-02
 -1      2382 2.27254E-01 1.80666E+00 1.75147E-02-8.67091E-01 5.48721E-03 4.09300E-03
 -1      2383-3.09588E-02 1.78882E+00-8.44444E-03-7.02346E-01 8.09436E-04 6.34430E-03
 -1      2384 1.15150E+00 1.76317E+00 2.06913E-02-1.66026E+00 6.09530E-03 5.23778E-03
 -1      2385 7.68164E-01 1.81907E+00-9.90466E-03-1.45292E+00 8.94001E-03 2.95405E-03
 -1      2386 2.60367E-01 1.94644E+00-3.58081E-03-1.35412E+00 2.21367E-03-2.17576E-03
 -1      2387 4.43425E-01 1.83274E+00-2.52809E-03-1.19074E+00 5.65825E-03 1.26404E-04
 -1      2388-7.26420E-02 1.86927E+00-2.07827E-02-9.52007E-01 4.56439E-03 7.59421E-03
 -1      2389 1.64121E+00 1.68406E+00 1.15945E-02-1.85632E+00-4.93218E-03 1.09842E-02
 -1      2390 3.17345E+00 1.21660E+00-1.99933E-03-2.37036E+00 1.13880E-02 2.47348E-02
 -1      2391 2.47778E+00 1.44516E+00-1.17999E-02-2.27180E+00 1.49525E-02-4.52991E-03
 -1      2392 1.73175E+00 1.65120E+00-1.13979E-03-2.06956E+00 1.35486E-02 5.26805E-03
 -1      2393 6.24786E-01 1.89202E+00-3.76003E-02-1.91527E+00 8.04542E-03 1.78203E-02
 -1      2394 1.46026E+00 1.74487E+00-7.44056E-03-2.39945E+00 5.54289E-03 1.80932E-03
 -1      2395 4.92146E+00 7.49201E-01-1.57856E-03-2.33279E+00 7.69953E-03 2.13870E-02
 -1      2396 4.01405E+00 1.06101E+00 2.89840E-02-2.38937E+00 7.23999E-03 7.38289E-03
 -1      2397 3.03817E+00 1.25398E+00 9.26721E-03-2.67874E+00-3.84549E-04-5.83842E-04
 -1      2398 6.59153E+00 3.03171E-01 3.50798E-02-2.26705E+00 5.25576E-03 1.28822E-02
 -1      2399 5.39614E+00 5.62731E-01 4.03158E-02-2.50011E+00 8.65090E-03-1.06210E-02
 -1      2400 4.23182E+00 7.33836E-01-3.60978E-02-2.92841E+00 2.65458E-02 1.91585E-02
 -1      2401 9.90616E+00-6.87314E-01 1.95219E-02-1.05938E+00 1.25341E-02 4.25735E-03
 -1      2402 8.61578E+00-5.20706E-01-2.94236E-02-1.77383E+00 1.70113E-02-9.94403E-03
 -1      2403 7.65532E+00-7.22425E-01 4.90155E-02-2.99950E+00 3.11886E-02 1.17081E-02
 -1      2404 7.14173E+00-7.81302E-02-3.68562E-03-2.41432E+00 1.61894E-02-5.04025E-03
 -1      2405 5.33275E+00-2.40021E-02-7.92018E-02-3.41729E+00 4.38633E-02 2.81782E-02
 -1      2406 1.12316E+01-6.40000E-01 3.38106E-02-8.94226E-02 1.90967E-02 2.32303E-02
 -1      2407 1.38358E+01-4.55341E-01-3.04900E-02 3.52056E+00-2.84259E-02-3.53603E-02
 -1      2408 1.32026E+01-1.02123E+00-6.82689E-02 2.02291E+00 6.67150E-04-6.09482E-02
 -1      2409 1.28868E+01-2.51719E+00 9.01711E-02 4.74050E-02 6.37245E-02-5.82300E-03
 -1      2410 1.20253E+01-1.22769E+00-1.12360E-02 2.75877E-01 3.80232E-02-1.61352E-02
 -1      2411 1.01810E+01-2.22315E+00-8.84546E-02-2.02951E+00 1.00894E-01 1.05581E-02
 -1      2412 1.41847E+01 1.91095E+00-1.05805E-01 6.64558E+00 5.07738E-02 2.96780E-02
 -1      2413 1.41852E+01 6.49381E-01-6.50671E-02 5.09101E+00-2.50246E-02 1.00678E-03
 -1      2414 1.45157E+01-1.20917E+00 1.25804E-01 3.85375E+00 1.03183E-02-2.52940E-02
 -1      2415 1.34585E+01 5.19403E+00 3.68559E-01 9.65024E+00 1.15424E-01-2.85261E-02
 -1      2416 1.44659E+01 2.44573E+00-1.66131E-02 8.51942E+00-1.26341E-01-2.67431E-01
 -1      2417 1.50303E+01-6.05590E-01-6.25081E-01 7.18821E+00-2.07869E-01-4.40031E-02
 -1      2418 1.18135E+01 1.18668E+01-5.67361E-02 1.46868E+01-5.54194E-01-1.47208E-02
 -1      2419 1.26699E+01 9.32250E+00-1.04504E-01 1.41903E+01-2.91776E-01-6.99347E-02
 -1      2420 2.27684E+01 7.57107E+00 3.83047E-01 1.85954E+01-7.90654E-01 2.25587E-01
 -1      2421 1.44276E+01 5.33641E+00-4.00352E-01 1.23869E+01-2.25921E-01-3.86070E-01
 -1      2422 1.78239E+01-2.94846E-01-7.00736E-01 1.27787E+01-1.14346E-01-2.41641E-01
 -1      2423 1.45598E+01 1.89555E+01 1.37701E+00 1.70784E+01 7.59668E-01 1.82970E+00
 -1      2424 1.30380E+01 1.54396E+01 1.95689E-01 1.63831E+01-3.53119E-02 4.26947E-01
 -1      2425 2.23301E+01 1.71515E+01 1.78017E-01 2.26153E+01-1.05280E+00 1.05980E+00
 -1      2426 5.83510E+01 2.40777E+01 2.46038E-01 4.08629E+01-3.37136E+00 1.10035E+00
 -1      2427 2.12307E+01 2.16351E+01-1.51980E+00 2.31639E+01 6.43099E-01-7.65740E-01
 -1      2428 3.21134E+01 2.01329E+01-4.72695E-01 2.96285E+01-5.04385E-01 4.19429E-01
 -1      2429 2.23561E-04 1.29029E-04 1.44247E-05-2.41202E-04-9.75292E-07-1.30366E-05
 -1      2430 9.20781E-05 2.00006E-04 1.85357E-05-2.06175E-04-6.44371E-06 4.91858E-06
 -1      2431 4.40884E-05 2.22341E-04 4.07696E-06-1.65945E-04-5.14545E-06 8.57793E-06
 -1      2432-9.21053E-06 2.28875E-04 1.12672E-05-1.00891E-04-5.52238E-07-2.65710E-07
 -1      2433-2.13817E-04-5.50783E-05-7.86225E-07 1.10747E-04 1.13830E-05-1.44682E-05
 -1      2434-7.57010E-05 6.72691E-05-1.17936E-05-6.09756E-05 9.96126E-06-1.55011E-05
 -1      2435-2.59555E-04-1.01929E-04 9.99873E-07 1.00211E-04 2.48211E-06-1.70488E-05
 -1      2436 4.48860E-04-1.12037E-05 1.38886E-05-2.08418E-04-4.81806E-06 5.09254E-06
 -1      2437 3.03603E-04 5.88730E-05-4.28506E-06-2.44012E-04-4.51409E-06 1.32219E-06
 -1      2438-1.22691E-04-3.30599E-05 3.51602E-06-1.12608E-04-6.56945E-06 5.56759E-06
 -1      2439 6.27332E-04-1.06755E-04-1.14727E-05-1.00272E-04-2.14745E-06 2.05191E-06
 -1      2440 6.36866E-04-5.91599E-05 4.33078E-05 1.43236E-04-2.17187E-05-3.11319E-05
 -1      2441 7.29626E-04-9.18411E-05 5.59545E-05-8.22022E-06-1.37453E-05-1.60684E-05
 -1      2442 7.67912E-05-1.06537E-04 1.96262E-05-6.07669E-05 1.62126E-05 1.14784E-05
 -1      2443-6.34561E-04-1.07363E-04 1.26775E-05-5.79247E-05-2.91099E-05-2.13895E-05
 -1      2444-5.85213E-04-4.09358E-05 1.09652E-05-6.90720E-05-1.35657E-05-2.34923E-05
 -1      2445 2.51916E-04 2.48401E-05-6.31206E-05 1.35660E-04 2.26417E-05 2.92994E-05
 -1      2446 5.75260E-04 9.81129E-06-8.33478E-06 1.52554E-04 2.53410E-05 4.14921E-05
 -1      2447-2.76919E-04-2.19160E-04 6.48598E-06-9.51118E-05 1.57140E-05 8.01007E-05
 -1      2448 1.02527E-04 1.92240E-05 1.32470E-05-1.86324E-04-3.36654E-05 1.10942E-04
 -1      2449-1.48286E-03-4.56081E-04 1.29667E-04-1.15012E-03 7.88877E-05 1.14929E-04
 -1      2450-3.62056E-03-7.12776E-04-2.66720E-04-3.51199E-03 2.86813E-04 1.03149E-03
 -1      2451-1.55910E-03-4.00710E-04 1.92712E-04-9.67635E-04 3.05497E-04 3.03163E-04
 -1      2452-8.99708E+00 1.14026E+01 2.80576E+00-3.63718E+01-9.03766E-01-1.09356E+00
 -1      2453 2.78267E+01-9.00361E+00-5.05718E+00-5.66787E+01-4.29134E+00 7.60887E+00
 -1      2454-1.13950E+01 2.31889E+01 2.05776E+00-2.72802E+01 7.39952E-01-1.97725E+00
 -1      2455 1.51193E+01 7.47174E+00-1.69994E+00-3.42267E+01-5.29484E-01-3.08836E-01
 -1      2456-5.75880E+00 2.02708E+01 4.12041E-01-1.86488E+01 3.22730E-02-1.00121E+00
 -1      2457 1.53076E+02 8.44397E+00 4.80394E+00-4.57980E+01 2.80028E+00 1.17946E+01
 -1      2458 2.27736E+02 1.15608E+01 3.92741E+00-3.07877E+01 6.94760E+00-3.85647E-01
 -1      2459 1.07642E+02 4.09847E+00 1.75023E+00-2.27729E+01-1.93376E+00 5.88285E+00
 -1      2460 8.55830E+01-8.62565E+00 4.39517E-01-2.74761E+01-6.19682E-01 5.16150E+00
 -1      2461 1.25891E+02 1.97912E+00-2.71139E+00-1.23100E+01 1.65330E+00-3.70165E+00
 -1      2462 8.53504E+01 3.54942E-01 1.73010E+00-1.60847E+01-2.14225E+00-2.83458E+00
 -1      2463 2.70820E+02-1.67186E+01-4.03490E+00-9.89389E+00 1.16091E+00-4.65939E+00
 -1      2464 2.68886E+02-1.09827E+01-5.64228E+00 8.93630E+00-5.20887E+00-2.38315E+00
 -1      2465 2.36890E+02-1.27748E+01-1.57274E+00-3.55483E+01 4.08767E+00-4.83562E+00
 -1      2466 2.44899E+02-2.47674E+01-2.77855E+00-2.00858E+01-6.68142E-02-4.60140E+00
 -1      2467 1.94862E+02-6.51760E-01 1.18653E+00-3.85298E+01-1.27050E-01-2.80058E-01
 -1      2468 2.25384E+02 9.30398E+00 4.28772E+00 3.18540E+01-3.61211E+00-1.97245E+00
 -1      2469 1.40715E+02-4.06130E+00-5.02280E+00 4.97837E+01-5.79537E-02 9.85904E+00
 -1      2470 2.45634E+02-3.21581E+01-4.44610E+00 2.29101E+01 1.38248E-01-6.39835E+00
 -1      2471 2.34240E+02-1.38089E+01-9.69328E+00 3.54921E+01-2.18478E+00-5.42274E+00
 -1      2472 1.98154E+02 1.72825E+00 5.72354E+00 3.59191E+01-4.37411E-01-2.43617E-02
 -1      2473 2.94042E+01-4.83045E+00-4.37215E+00 5.79625E+01 3.43850E+00 1.20832E+01
 -1      2474-9.41428E+00 1.22095E+01 8.94352E-01 3.64375E+01 1.26715E+00-1.05682E+00
 -1      2475 8.73601E+01-1.42488E+01-5.60928E+00 3.05860E+01-4.24491E-01 3.48203E+00
 -1      2476 1.09668E+02 4.99313E+00 6.64085E+00 2.21845E+01 4.29709E+00 3.56250E+00
 -1      2477 1.23232E+02 4.35933E+00-4.64011E+00 1.13949E+01-2.63635E+00-2.24213E+00
 -1      2478 8.83860E+01-1.10416E+00 2.41981E+00 1.75235E+01 2.10874E+00-2.37690E+00
 -1      2479 1.64614E+01 8.74062E+00-1.53731E+00 3.35550E+01 3.53322E-01-9.43599E-01
 -1      2480-9.85868E+00 2.41162E+01 1.03852E+00 2.70906E+01-5.64305E-01-2.05004E+00
 -1      2481-3.91000E+00 1.97206E+01 8.95328E-01 1.72683E+01 1.74734E-01-5.32573E-01
 -1      2482 1.82351E+02 3.39199E+01 3.07869E+01-1.22235E+01-4.15788E+00-2.70243E+01
 -1      2483 1.48599E+02-1.52908E-01 6.94693E+00-1.27632E+01-3.32332E+00-1.36541E+01
 -1      2484 1.60677E+02-1.00925E+00-1.95191E+01 1.86552E+00 5.02103E-01 3.06791E+00
 -1      2485 9.19094E+01-1.20838E+01 1.09635E+01-1.84190E+01-5.94652E+00-9.16285E+00
 -1      2486 5.67047E+01-2.28186E+01 5.01381E-01-8.24065E+00-3.39336E+00-3.93982E+00
 -1      2487 1.26548E+02 7.80033E-01 1.35304E+01-1.68827E+01-3.09656E+00-1.20794E+01
 -1      2488 8.03178E+01 3.52267E-01-1.17829E+01-2.17180E+01 2.16081E+00 7.39588E-01
 -1      2489 9.51598E+01-1.43847E+00 1.21791E+01-1.98208E+01-5.05606E+00-6.71894E+00
 -1      2490 4.83330E+01 2.63856E+00-8.45491E+00-2.36801E+01 1.53664E+00 1.07369E+00
 -1      2491 1.23458E+02-3.51077E+00-1.32869E+01-8.78325E+00 1.46426E+00 1.75860E+00
 -1      2492 4.65242E+01-2.07205E+01 4.73760E+00-8.48656E-01-3.32259E+00-2.64601E+00
 -1      2493 2.77699E+01-1.66780E+01 9.04810E-01 4.53091E+00-1.47905E+00-5.43681E-01
 -1      2494 3.25331E+01-1.04694E+01-3.22485E+00-1.16593E+01-7.29417E-01-1.12711E-01
 -1      2495 2.02674E+01-9.60777E+00 1.09591E+00 6.15429E+00-6.69601E-01-6.13470E-01
 -1      2496 1.18104E+01-7.41587E+00 6.15379E-01 9.53594E+00-5.29782E-01 9.78966E-02
 -1      2497 8.45120E+00-1.99953E+00 9.32267E-01 8.20023E+00-5.97473E-01-1.14176E-01
 -1      2498 1.87087E+01-1.06561E+01-4.22442E-01 1.31181E+00-3.11808E-01-6.72189E-01
 -1      2499 3.34507E+00-7.24079E-02 5.07058E-01 8.21076E+00-2.98702E-01 1.23388E-01
 -1      2500 1.82155E+00 2.13918E+00 5.50513E-01 6.21909E+00-4.48048E-01 5.23531E-02
 -1      2501 8.70757E+00-4.33957E+00-3.38881E-01 5.92705E+00-2.11179E-01-2.48728E-01
 -1      2502-4.62130E-01 3.00951E+00 3.98155E-01 5.33316E+00-2.26881E-01 1.59023E-01
 -1      2503-7.49086E-01 3.60236E+00 3.70284E-01 3.57452E+00-2.24196E-01 9.83639E-02
 -1      2504 2.99754E+00 5.51696E-02-2.28273E-01 5.53993E+00-1.58053E-01-2.54223E-02
 -1      2505-1.85988E+00 3.56713E+00 2.62615E-01 2.46097E+00-9.57848E-02 1.02372E-01
 -1      2506-1.39339E+00 3.34015E+00 2.95818E-01 1.35189E+00-1.43041E-01 7.87327E-02
 -1      2507 9.53869E-02 2.12224E+00-1.52180E-01 3.72341E+00-7.36446E-02-3.13392E-02
 -1      2508-1.58167E+00 2.81018E+00 1.87149E-01 4.78399E-01-5.68808E-02 9.97014E-02
 -1      2509-9.40334E-01 2.30163E+00 2.16109E-01 3.66470E-02-9.28596E-02 1.02632E-01
 -1      2510-9.31371E-01 2.47849E+00-1.09466E-01 1.77046E+00-6.71185E-02-8.89557E-03
 -1      2511-8.39813E-01 1.76399E+00 1.36039E-01-3.11439E-01-3.14476E-02 9.47550E-02
 -1      2512-3.20063E-01 1.33811E+00 1.32233E-01-2.96713E-01-4.01199E-02 8.82487E-02
 -1      2513-8.83660E-01 1.99429E+00-6.54874E-02 5.41705E-01-4.40027E-02 3.17303E-02
 -1      2514-5.20341E-02 8.61024E-01 8.06671E-02-2.72047E-01-1.23076E-02 9.03771E-02
 -1      2515 6.94608E-04 6.39456E-01 8.17876E-02 5.42055E-03-5.27112E-03 7.41104E-02
 -1      2516-5.54985E-01 1.47840E+00-5.24858E-02 6.95279E-02-2.93567E-02 3.01857E-02
 -1      2517-2.56714E-01 9.76255E-01 9.59067E-02-3.12040E-01-1.07725E-02 6.74775E-02
 -1      2518-2.91177E-01 1.13291E+00-2.07049E-02 4.30682E-03 6.64159E-03 4.16747E-02
 -1      2519 6.09070E-02 7.96771E-01 1.05851E-01 1.17884E-01 1.96892E-02 9.59339E-02
 -1      2520-2.56803E-01 9.29573E-01 9.07551E-02 3.80954E-01 1.53156E-02 8.37728E-02
 -1      2521-3.10804E-01 1.05275E+00-3.31024E-02 6.69756E-02 1.48739E-02 3.15084E-02
 -1      2522-3.49940E-01 1.35621E+00 1.29719E-01 3.21948E-01 5.40512E-02 1.02919E-01
 -1      2523-9.15996E-01 1.79365E+00 1.30492E-01 3.19387E-01 4.53986E-02 9.86464E-02
 -1      2524-5.95840E-01 1.46403E+00-2.80180E-02-1.94204E-03 2.26479E-02 3.66043E-02
 -1      2525-9.39823E-01 2.29680E+00 1.67760E-01-5.12098E-02 9.27097E-02 1.09152E-01
 -1      2526-1.59321E+00 2.83528E+00 1.79276E-01-5.02343E-01 7.97395E-02 1.15904E-01
 -1      2527-9.61511E-01 2.04558E+00-6.31134E-02-5.61713E-01 3.97543E-02 3.81256E-02
 -1      2528-1.38946E+00 3.33797E+00 2.76025E-01-1.35698E+00 1.98241E-01 1.12726E-01
 -1      2529-1.86701E+00 3.57566E+00 2.42028E-01-2.47964E+00 1.73471E-01 1.29502E-01
 -1      2530-9.67100E-01 2.48027E+00-1.03000E-01-1.79784E+00 7.29602E-02 3.51707E-02
 -1      2531-8.13002E-01 3.61931E+00 4.77077E-01-3.63150E+00 2.98902E-01 9.73731E-02
 -1      2532-4.70858E-01 3.01745E+00 3.99447E-01-5.33488E+00 2.41175E-01 1.30923E-01
 -1      2533 1.70300E-01 2.13521E+00-9.33315E-02-3.73702E+00 1.36733E-01 2.92027E-02
 -1      2534 1.91110E+00 2.25254E+00 7.00483E-01-6.26145E+00 3.40876E-01 3.93213E-02
 -1      2535 3.41252E+00 7.71957E-02 5.37978E-01-8.15714E+00 2.93698E-01 1.29874E-01
 -1      2536 3.01420E+00 1.27609E-01-2.72298E-01-5.49338E+00 1.50931E-01-5.67094E-02
 -1      2537 8.35857E+00-2.15525E+00 1.21251E+00-8.33908E+00 4.91873E-01-1.42403E-01
 -1      2538 1.20465E+01-7.23440E+00 6.79858E-01-9.46344E+00 4.80158E-01 6.57228E-02
 -1      2539 8.71334E+00-4.12702E+00-3.44595E-01-5.83563E+00 2.18760E-01-1.79605E-01
 -1      2540 2.02146E+01-9.68557E+00 1.49835E+00-5.95603E+00 3.13815E-01-5.94005E-01
 -1      2541 2.83139E+01-1.65944E+01 1.49242E+00-4.34718E+00 1.05619E+00-5.95826E-01
 -1      2542 1.83656E+01-1.04427E+01-4.91050E-01-1.29195E+00 2.48166E-01-5.14647E-01
 -1      2543 4.66404E+01-2.04587E+01 5.31739E+00 8.90719E-01 2.91975E+00-3.15842E+00
 -1      2544 5.80605E+01-2.13108E+01 3.82188E+00 8.56433E+00 3.40637E+00-4.20833E+00
 -1      2545 9.22263E+01-1.10800E+01 1.47102E+01 1.82221E+01 5.82302E+00-1.04068E+01
 -1      2546 3.24411E+01-1.04244E+01-2.85902E+00 1.19934E+01 8.31378E-01 4.27892E-01
 -1      2547 1.49926E+02 2.50404E+00 9.97205E+00 1.30942E+01 2.51878E+00-1.45715E+01
 -1      2548 1.83536E+02 3.64155E+01 3.47423E+01 1.28887E+01 4.59759E+00-2.77737E+01
 -1      2549 1.30045E+02 6.00428E+00 2.00785E+01 1.75497E+01 3.61822E+00-1.32816E+01
 -1      2550 1.22642E+02-3.33469E+00-1.40360E+01 9.31176E+00-1.87877E+00-5.69637E-01
 -1      2551 9.65230E+01-4.96109E-01 1.37204E+01 1.97354E+01 5.80151E+00-7.44171E+00
 -1      2552 8.48616E+01 4.26068E+00-4.05755E+00 2.20538E+01-9.16579E-01-1.00928E+00
 -1      2553 5.13603E+01 4.12299E+00-5.55529E+00 2.36344E+01-1.77617E+00 4.09624E-01
 -1      2554 1.63912E+02 1.06970E+00-1.50164E+01-1.55084E+00-4.03617E-01 1.07835E+00
 -1      2555 1.54935E+02 2.54943E+01 2.48327E+00-2.45140E+01-4.74079E-01-2.79426E+00
 -1      2556 1.52040E+02 2.51249E+01-1.97566E+00 2.66591E+01-6.15736E-01-3.70748E+00
 -1      2557 1.89574E+02 2.02366E+00 1.00296E+00-9.55269E+00 2.00438E-01-7.38982E-02
 -1      2558 1.89462E+02 1.53212E+00 3.09867E-01-8.17637E+00 5.77431E-02-4.67928E-02
 -1      2559 1.86328E+02 3.14818E+00-8.62188E-01-1.24432E+01-2.87692E-01 3.89590E-01
 -1      2560 1.85208E+02 7.08588E+00-5.59925E-02-1.25782E+01-6.03776E-01 4.33987E-01
 -1      2561 1.82567E+02 1.12882E+01-1.32409E+00-1.93429E+01-7.35007E-01 1.71094E+00
 -1      2562 1.89101E+02 3.91952E-01 1.95525E-01-6.91952E+00 6.96060E-04-1.51957E-01
 -1      2563 1.88949E+02 2.51257E-01 1.41865E-02-7.12271E+00 4.24932E-02-2.97160E-02
 -1      2564 1.89228E+02 1.63340E+00 5.54855E-02-7.94215E+00-1.29327E-02 1.11392E-02
 -1      2565 1.87969E+02-6.89029E-01-2.93113E-01-8.57095E+00-1.13592E-01 1.79253E-04
 -1      2566 1.85197E+02-4.76434E-01 1.03074E-02-9.47555E+00-2.27835E-01 1.93803E-01
 -1      2567 1.89371E+02-3.20782E-01-1.04396E-02-7.41737E+00 1.15068E-01-1.26166E-01
 -1      2568 1.90694E+02-1.26601E+00 8.12014E-02-8.93498E+00-6.75731E-02-7.90887E-03
 -1      2569 1.90388E+02-4.95668E-01-4.01478E-02-7.06386E+00-1.59743E-02-8.81771E-02
 -1      2570 1.83708E+02-2.00445E+00-6.36881E-01-1.38096E+01-6.27547E-02 9.90522E-02
 -1      2571 1.75229E+02-2.02012E+00-6.68128E-01-1.57440E+01 2.06872E-01 2.49775E-03
 -1      2572 1.89735E+02-2.44679E+00 1.08392E-01-1.49566E+01 2.76020E-01 1.45752E-01
 -1      2573 1.68172E+02-5.64503E-01 4.31873E-01-1.77672E+01-9.64660E-02 6.24906E-01
 -1      2574 1.48301E+02-5.46337E-01-1.59054E-01-1.77128E+01 3.19803E-01 3.53323E-01
 -1      2575 1.83298E+02-1.94878E+00 6.86373E-01-2.44904E+01 1.27657E-01-6.02574E-03
 -1      2576 1.42045E+02 4.98924E+00 3.11481E-01-2.14506E+01-3.40740E-02 3.62746E-01
 -1      2577 1.65783E+02 2.84262E+00 2.07382E-01-3.30831E+01 4.53036E-01 5.22116E-01
 -1      2578 5.41058E+01 3.81564E+00-3.16757E-01-2.21615E+01-1.20222E+00 6.95123E-01
 -1      2579 3.28371E+01 5.75929E+00 8.93898E-01-1.76919E+01-4.41395E-01-6.20891E-01
 -1      2580 1.49517E+01 6.05886E+00 4.18609E-01-1.35696E+01 1.48153E-01-5.09532E-01
 -1      2581 1.13045E+01 2.10599E+00 4.98082E-01-5.34863E+00-2.21915E-02-4.91651E-01
 -1      2582 4.58638E+00 1.47313E+00 2.29680E-01-3.84627E+00 3.74081E-01-2.49745E-01
 -1      2583 5.83259E+00 7.45628E+00 7.32895E-02-1.53260E+01 8.64651E-02-3.60930E-01
 -1      2584 2.58717E+00 7.26019E-01 9.96550E-02-1.16942E+00 1.56708E-01 6.65228E-03
 -1      2585 4.03484E-01 3.29684E-01 1.68315E-01-5.67139E-01-5.32100E-02 1.36949E-02
 -1      2586 1.91825E+00 2.13957E+00-2.39797E-01-4.41117E+00 6.23137E-02-5.94550E-02
 -1      2587-4.09135E-02 9.83408E-02 4.99090E-02 7.44967E-02 1.89077E-02-5.04904E-02
 -1      2588-2.20794E-01 7.90303E-03 4.58407E-02 9.72924E-02-2.95986E-02 9.87364E-03
 -1      2589 5.63029E-01 4.39605E-01-6.37494E-02-6.58683E-01 1.37658E-02-3.24743E-02
 -1      2590-2.09962E-01-6.18030E-02-9.41178E-03 2.11054E-01-1.50056E-02 5.39983E-03
 -1      2591-8.19282E-02-6.93488E-02-1.40385E-03 1.75010E-01-4.60974E-03 2.52585E-02
 -1      2592 2.03365E-01-6.22510E-02-6.71048E-03 1.49377E-01 3.39501E-02 1.83612E-02
 -1      2593-1.48498E-01-2.75281E-02-6.97983E-03 9.46563E-02-6.39078E-03-1.47318E-03
 -1      2594 1.10873E-01-1.04356E-01 1.74058E-03 1.94937E-01 8.30548E-03 1.30959E-02
 -1      2595-1.41451E-01-6.41009E-02-4.74599E-03 1.41513E-01-1.67094E-03 2.48081E-03
 -1      2596-1.49992E-03-9.42801E-02-2.20225E-02 1.19369E-01-8.07559E-03 3.43325E-04
 -1      2597 1.89674E+02 6.67455E-01 3.68608E-01 7.43554E+00 6.28468E-02-1.17201E-01
 -1      2598 1.89444E+02 3.02446E-01 4.87126E-01 8.39413E+00-1.05699E-01-1.15209E-01
 -1      2599 1.86038E+02 3.51114E+00-1.35428E+00 1.28013E+01 5.06572E-01 5.93981E-01
 -1      2600 1.81645E+02 1.47126E+01-8.14279E-01 2.01556E+01 5.55980E-01 2.27938E+00
 -1      2601 1.90806E+02 3.02880E+00 8.81833E-01 1.07922E+01-3.92090E-01-3.22312E-01
 -1      2602 1.83683E+02 9.04378E+00-4.06214E-01 1.36879E+01 8.46437E-01 5.61378E-01
 -1      2603 1.89623E+02 4.13184E+00 9.02366E-01 1.01433E+01-1.82873E-01-4.16202E-02
 -1      2604 1.89332E+02 2.93032E-01 3.13169E-02 7.14520E+00 5.41577E-02-5.77561E-02
 -1      2605 1.89209E+02 3.44592E-01-1.75603E-02 7.00972E+00-1.51308E-02-9.71507E-02
 -1      2606 1.90241E+02 7.80182E-01 2.03269E-01 7.40326E+00-5.59991E-02-9.49928E-02
 -1      2607 1.86656E+02-8.32976E-01-3.62774E-01 9.30780E+00 1.95117E-01 6.17308E-02
 -1      2608 1.88877E+02-4.95330E-01-3.16713E-01 8.40937E+00-1.06850E-01 8.91411E-02
 -1      2609 1.91946E+02-8.46029E-01 3.15573E-01 7.92211E+00 7.73810E-02-8.85774E-02
 -1      2610 1.89811E+02-5.55054E-01-1.29625E-01 7.10045E+00 8.40624E-02-1.61994E-02
 -1      2611 1.90827E+02-1.74756E-01 3.32313E-02 6.79870E+00-8.55360E-03-5.26247E-02
 -1      2612 1.78386E+02-3.08093E-01-4.92290E-02 1.29235E+01-3.67412E-01 4.19552E-01
 -1      2613 1.85488E+02-7.29759E-01-3.20983E-01 1.12936E+01-1.76353E-01 5.29367E-02
 -1      2614 1.90656E+02-6.88016E-01 6.87965E-01 1.19335E+01-3.38947E-03-3.36723E-01
 -1      2615 1.50023E+02 1.70134E+00 7.30562E-01 1.87397E+01-4.25184E-01 2.42686E-01
 -1      2616 1.65905E+02-1.41388E+00-3.10996E-01 1.88562E+01 9.19244E-01 5.71027E-01
 -1      2617 1.86088E+02-2.18827E+00 9.76273E-01 2.70565E+01-3.59539E-01-8.01130E-02
 -1      2618 1.79028E+02-1.26286E+00 1.54889E-02 1.76574E+01-2.66946E-01-3.10890E-01
 -1      2619 1.89127E+02-4.65546E+00-8.07925E-01 1.83715E+01 2.37250E-01-5.48911E-01
 -1      2620 1.44768E+02 4.87931E+00-3.01329E-02 1.98960E+01-1.29144E+00 1.57365E+00
 -1      2621 1.67003E+02 3.53030E+00-1.89556E+00 3.22280E+01-1.65436E+00 9.40024E-01
 -1      2622 4.92009E+01 3.38238E+00-8.76573E-01 2.17870E+01 1.22206E+00 1.43468E+00
 -1      2623 1.48148E+01 6.51193E+00 1.14746E+00 1.33562E+01-3.92020E-02-3.76167E-01
 -1      2624 3.28037E+01 7.14554E+00 7.75262E-01 1.84718E+01 6.19628E-01-2.92886E-01
 -1      2625 4.52051E+00 1.31312E+00 6.61576E-01 3.26629E+00 5.87201E-02-3.94675E-02
 -1      2626 1.17621E+01 1.53160E+00 4.78916E-01 4.74334E+00-9.40290E-02-1.39796E-01
 -1      2627 6.57422E+00 6.99839E+00 1.08106E+00 1.46011E+01 4.68147E-01 1.50145E-01
 -1      2628 1.08618E+00 8.06947E-01 3.07814E-01 9.16876E-01 1.91113E-02-5.48163E-02
 -1      2629 2.22283E+00 1.14499E+00 2.09189E-01 1.73990E+00-9.98837E-02 2.95618E-02
 -1      2630 2.25769E+00 1.98834E+00-1.84018E-01 4.23942E+00-1.58918E-01-5.94360E-02
 -1      2631-1.35842E-01 2.76290E-02 3.94483E-02-1.41692E-01 7.69026E-03-4.97531E-02
 -1      2632-1.24399E-03 2.57354E-02 1.12587E-01-1.13593E-01 3.64453E-02-1.20582E-01
 -1      2633 7.79409E-01 7.11434E-01-9.70193E-02 9.82207E-01-7.83355E-02-6.35529E-02
 -1      2634-1.09589E-01-9.87863E-02-2.11190E-02-1.78713E-01-6.54344E-03 2.58425E-02
 -1      2635-1.48530E-01-3.73433E-02-6.88916E-03-2.38979E-01 2.51502E-02 3.66078E-02
 -1      2636 2.93689E-01-8.88645E-02 2.87262E-02-1.25751E-01 1.16552E-02 2.06393E-02
 -1      2637-6.37972E-02-5.98742E-02-1.75026E-02-9.98429E-02-2.48520E-03 7.79291E-03
 -1      2638-1.58920E-01-7.16427E-02-1.86322E-02-1.46019E-01 7.38213E-03-4.91201E-03
 -1      2639 1.51448E-01-9.50261E-02 1.41766E-02-2.00465E-01-6.53325E-03 1.04388E-02
 -1      2640 1.99130E-02-5.04597E-02 9.81454E-03-1.17260E-01-2.68776E-03 1.77941E-04
 -1      2641 4.45482E-04-6.15915E-05-7.16655E-06-1.16351E-04-1.35587E-05 4.66184E-05
 -1      2642 5.29824E-05-2.77300E-04 1.78226E-04 7.87748E-05 3.39745E-05 1.31461E-04
 -1      2643-1.29809E-03-5.68405E-04-2.77362E-04 1.02136E-03-2.56490E-04 2.44552E-04
 -1      2644-1.42366E-03-5.49727E-04 6.50160E-05 1.18120E-03-2.84299E-04 2.67672E-04
 -1      2645-3.58552E-03-1.61062E-03-4.60788E-04 2.96993E-03-2.95248E-04 1.25497E-03
 -1      2646 7.06778E-04-7.03146E-05-1.04478E-05-1.39225E-04-9.35832E-06 1.39800E-05
 -1      2647 7.92903E-04-1.03995E-04 1.37242E-05 6.87354E-05 1.05997E-05-3.08707E-05
 -1      2648 7.67224E-04-8.50028E-05 4.56775E-05-1.04638E-04 2.97240E-05-3.67710E-05
 -1      2649-7.68480E-05-2.74362E-04-3.36867E-05 1.37907E-04 9.38151E-07 5.92468E-06
 -1      2650 4.67337E-04 1.10822E-05 7.77316E-06 2.29607E-04-8.78030E-08-2.65931E-06
 -1      2651 6.33535E-04-6.32859E-05 1.10497E-05 1.58646E-04-1.19739E-06 3.68233E-06
 -1      2652-4.19408E-04-1.03261E-04 6.14652E-05 1.50105E-04 1.27213E-05-4.97447E-05
 -1      2653 1.81785E-04-9.85760E-05 1.17831E-05 1.34092E-04-1.72082E-07-1.09536E-05
 -1      2654-4.84327E-04-6.92421E-05 1.12336E-05 1.66019E-04 9.43752E-06-3.22807E-05
 -1      2655 2.72553E-04 1.63038E-04 1.36932E-05 2.90937E-04-3.53621E-06-1.05103E-05
 -1      2656 4.05961E-04 7.67045E-05-4.39117E-06 2.65083E-04-5.87745E-06-1.49412E-05
 -1      2657-5.39432E-05 8.55875E-07-1.37034E-05 1.95354E-04 4.37083E-06 3.71645E-06
 -1      2658 1.48190E-04 2.31381E-04-5.10672E-06 2.68746E-04 3.03554E-06-1.56694E-06
 -1      2659 1.67067E-05 2.57657E-04 5.72930E-06 1.28750E-04-1.45636E-06-2.17505E-06
 -1      2660 6.95019E-05 2.46972E-04 2.84893E-06 1.83268E-04 3.28926E-06 3.25159E-06
 -1      2661-3.82193E-05 1.21564E-04 4.25923E-06 8.86114E-05-7.01970E-06-1.62390E-05
 -1      2662-1.60486E-04 4.25065E-06 1.11135E-06-5.57648E-05-1.01302E-05-1.38514E-05
 -1      2663-2.02414E-04-3.77820E-05-1.15930E-05-2.16651E-05-1.47571E-05-1.38773E-05
 -1      2664-1.60545E-05 2.57973E-04 1.82024E-07 8.09196E-05 1.36616E-06-1.70917E-06
 -1      2665-1.91690E-05 2.36935E-04 4.98397E-06 5.07978E-05-5.27869E-06-1.70446E-06
 -1      2666-6.77104E-05 1.01716E-04-4.50768E-06 1.79766E-05 1.72338E-06-3.10947E-07
 -1      2667-2.90074E-05 2.42795E-04 5.43664E-06-3.60622E-05 3.72768E-06-1.72261E-06
 -1      2668-6.12976E-06 2.43282E-04-1.47354E-06-8.26137E-05 3.68139E-06 4.18964E-07
 -1      2669-1.08538E-04 8.87795E-05-4.96512E-06 1.69272E-05 2.44778E-06-5.57591E-06
 -1      2670-8.99739E-05-8.60313E-05 1.22842E-05 7.35587E-05 5.35567E-06-3.24252E-06
 -1      2671-4.47300E-04-4.70534E-05 8.84104E-06 1.25912E-04-1.01107E-05-1.21745E-05
 -1      2672-4.63262E-04-9.55528E-05 1.78253E-05 7.09047E-05-9.03153E-06-1.91353E-05
 -1      2673-9.35102E-04-1.83463E-04 7.96198E-05-3.41346E-04-4.17567E-05 7.72758E-05
 -1      2674-1.30388E-03-4.42040E-04-2.87843E-05-5.52701E-04 1.02295E-04 1.48869E-04
 -1      2675-4.75831E-03-3.03459E-03 1.50594E-04-1.01513E-04-3.87606E-04 4.50164E-04
 -1      2676 1.97677E-04-1.36424E-02 1.34620E-04 1.28572E-02-3.09629E-04-8.61658E-04
 -1      2677 2.11865E-03-2.96689E-02-6.09607E-04 1.11758E-02-6.87375E-04 2.12215E-04
 -1      2678 2.86754E-03-2.78197E-02 5.86993E-04-1.07282E-02 9.11476E-04-4.18772E-04
 -1      2679 2.24601E-03-1.11938E-02 1.33035E-03-1.15037E-02 8.57462E-04-4.09711E-04
 -1      2680 6.61112E-03-4.16007E-02-2.20909E-04-8.21965E-04-3.82402E-04 2.66316E-05
 -1      2681 9.34131E-03-3.74619E-02-9.55180E-04-1.50990E-02 9.99655E-04 1.23381E-03
 -1      2682 1.12287E-02-3.90706E-02 5.13622E-04 1.53967E-02-9.10032E-04 1.34486E-03
 -1      2683-5.06127E-03-2.94994E-03-4.26038E-04 4.45536E-04-6.93848E-05 2.60692E-04
 -1      2684-7.50915E-04-2.75626E-04 5.60755E-05 4.02056E-04 5.95408E-05-3.01907E-05
 -1      2685-8.21988E-04-2.33118E-04 3.62746E-05 3.52629E-04 3.73067E-05-3.02110E-05
 -1      2686-3.10402E-04-1.94375E-05 5.35638E-05 1.28614E-05-1.42982E-05-8.14060E-06
 -1      2687-3.38708E-04 2.04068E-06 1.31130E-05-3.59659E-05-1.92141E-05-2.29393E-05
 -1      2688-6.26398E-05-2.19634E-05 1.21770E-05-3.31199E-05-1.37574E-06-1.44086E-07
 -1      2689 8.28489E-01 2.03428E+00 2.61321E-03-3.13481E+00 9.81089E-03 4.65809E-02
 -1      2690 8.43179E-01 1.95242E+00-1.20568E-02-2.70247E+00 3.34871E-02 1.34570E-02
 -1      2691 2.26843E+00 1.45836E+00-1.15217E-02-2.99170E+00 1.62567E-02 1.08156E-02
 -1      2692 3.04837E+00 1.19997E+00-4.56713E-02-3.02608E+00 6.27629E-03 5.10917E-03
 -1      2693 3.55146E+00 1.04487E+00 3.40073E-02-3.27396E+00 3.19611E-02 8.08450E-03
 -1      2694 3.19595E+00 9.43465E-01 2.31638E-02-3.91971E+00 5.13168E-02 1.66336E-03
 -1      2695 1.91756E+00 1.55745E+00 9.53541E-03-3.97747E+00 9.46799E-02 2.70137E-02
 -1      2696-3.88951E-01 1.47154E+00-1.22598E-02-1.43742E-01-2.46841E-03 1.73540E-02
 -1      2697-3.06043E-01 1.44653E+00 7.03045E-04-1.46032E-01-1.38056E-03 1.52982E-02
 -1      2698-2.45276E-01 1.66870E+00-7.58453E-04-3.73326E-01 6.37327E-03 1.62600E-03
 -1      2699-1.66767E-01 1.70717E+00-8.70441E-03-5.07809E-01 1.17586E-03-4.86921E-03
 -1      2700-1.77136E-01 1.76872E+00-6.04498E-03-5.93649E-01 4.81404E-03 5.25761E-03
 -1      2701-3.87242E-01 1.81879E+00 3.32140E-03-5.30284E-01-1.52444E-03 2.32230E-02
 -1      2702-4.93507E-01 1.72083E+00 2.15484E-02-3.07648E-01 1.58145E-02 1.41385E-02
 -1      2703 3.85558E-02-7.99046E-02-1.92459E-03-6.50331E-02 2.49387E-03-3.02575E-03
 -1      2704 3.36731E-02-5.83512E-02 2.58892E-04-2.82713E-02 3.54139E-03 1.38787E-03
 -1      2705 4.80584E-02-6.59113E-02 1.29706E-04-1.44709E-02-9.52447E-04-5.69449E-04
 -1      2706 6.92472E-02-9.01868E-02 1.39702E-03 1.10025E-02-1.62026E-03 1.48093E-03
 -1      2707 1.25126E-01-1.29842E-01-1.31807E-02 3.11681E-02-5.20213E-03-2.20983E-03
 -1      2708 1.45155E-01-1.29787E-01-5.37300E-04-1.09082E-02 1.98923E-04-4.49838E-03
 -1      2709 4.85746E-02-5.80549E-02 6.98470E-03 2.10557E-02-5.08936E-04 4.57419E-05
 -1      2710 1.74165E-01-1.24701E-01 3.62689E-04-6.93573E-02-6.64916E-03-9.31952E-03
 -1      2711 8.01833E-02-1.09186E-01 4.93875E-03-8.63199E-02-8.89314E-04-5.56907E-03
 -1      2712 1.28253E-01 3.23128E+00 7.25506E-02 1.55172E+00-4.03283E-02 2.99055E-02
 -1      2713 7.13442E-01 1.15431E+00-1.23720E-01 1.10789E+00-6.94286E-02-1.46776E-01
 -1      2714 1.64386E-02 1.71134E+00 3.25933E-02 3.27933E-01-3.86908E-02-1.07854E-02
 -1      2715-2.05874E+00 6.39708E+00 1.83461E-01 4.63829E-01-1.54398E-01-1.92366E-02
 -1      2716-1.75710E+00 5.35186E+00-1.76497E-01 2.35286E+00 2.92923E-02-2.43173E-01
 -1      2717 6.11076E-01 6.28492E-01 6.87258E-02 1.66825E-01-2.11567E-02-2.46906E-02
 -1      2718 2.31942E-02 1.78472E+00-2.05557E-02 3.30063E-02-1.84912E-02 2.86296E-02
 -1      2719 8.52223E-02 1.85864E+00 2.63891E-02-3.45366E-01 5.93749E-02-7.06856E-02
 -1      2720 5.77214E-01 7.74694E-01-1.32985E-01-8.65101E-01 8.00151E-02-1.61113E-02
 -1      2721 9.73642E-02 2.85551E+00 1.20092E-01-1.14906E+00 3.77861E-02-6.66370E-03
 -1      2722 6.02956E-01 5.84219E-01 8.99307E-02-6.94035E-02 2.83871E-02 1.48364E-02
 -1      2723-1.97375E-01 3.37122E+00-1.58271E-01-2.53094E+00 1.10093E-02 1.92867E-02
 -1      2724-1.84011E+00 4.55884E+00-3.24777E-01-1.60776E+00 1.01594E-02-4.37993E-02
 -1      2725-3.29885E+00 8.18954E+00-2.31208E-02-1.41929E+00-8.11441E-02-1.03560E-01
 -1      2726 1.75075E+02 1.71991E+01 6.08635E-01 5.83508E+00 1.34130E-01 2.55657E-01
 -1      2727 1.73477E+02 1.74392E+01-1.53825E-01 1.06905E+01 2.54736E-01 7.08820E-01
 -1      2728 1.79620E+02 1.40080E+01 2.62241E-01 1.08248E+01 3.07856E-01 5.35105E-01
 -1      2729 1.74856E+02 1.36227E+01-1.61365E-01 2.35872E+00 5.52652E-03 2.68164E-01
 -1      2730 1.70705E+02 1.57654E+01 1.02693E-02 1.30419E+00 1.64417E-02 5.58831E-01
 -1      2731 1.66959E+02 2.09028E+01-4.48544E-01 7.56974E+00 5.11955E-01 2.63569E-01
 -1      2732 1.73993E+02 2.06672E+01 5.92882E-01 1.44470E+01 5.83703E-01 1.07431E+00
 -1      2733 1.67632E+02 1.51495E+01 2.90374E-01-1.93294E+00 2.46420E-01 5.03491E-01
 -1      2734 1.66796E+02 1.88444E+01 4.57021E-01 1.66145E+00 5.97441E-02 2.25550E-01
 -1      2735 1.64114E+02 2.11125E+01 1.06061E-01 4.03528E+00 5.10019E-01 3.76038E-02
 -1      2736-4.51918E-01 1.70479E+00 1.90798E-03 3.14583E-01-1.42968E-02 2.02999E-02
 -1      2737-3.51891E-01 1.77888E+00 1.36532E-03 5.25463E-01-6.15710E-03 8.69525E-03
 -1      2738-1.59967E-01 1.77721E+00 5.98458E-03 6.03060E-01-6.43919E-03 6.18754E-03
 -1      2739-1.63508E-01 1.71228E+00-9.12034E-03 5.11436E-01-2.25331E-03 2.06630E-03
 -1      2740-2.44572E-01 1.66096E+00-1.32841E-02 3.83793E-01 4.71697E-04 6.45931E-03
 -1      2741-2.87345E-01 1.50457E+00 2.94921E-04 1.90444E-01 3.10609E-03 1.29038E-02
 -1      2742-3.61776E-01 1.53110E+00 1.19099E-03 1.92611E-01 6.43211E-03 1.90524E-02
 -1      2743 1.57868E+02 1.54272E+00 1.12234E-02-3.08805E+00-4.71729E-01 2.31678E+00
 -1      2744 1.65432E+02 3.39208E+00-4.27752E-01-5.55538E+00-6.44367E-01 2.20958E+00
 -1      2745 1.63421E+02 2.40393E+00-1.78307E+00-3.71798E+00-4.11958E-01 2.54787E+00
 -1      2746 1.47145E+02-2.14363E+00-1.51376E+00-2.05007E+00-2.15068E+00 7.48462E-01
 -1      2747 1.56877E+02 4.63558E+00 3.49724E-02-4.82941E+00-2.12215E-01 9.73749E-01
 -1      2748 1.51102E+02 1.64968E+00-4.51368E-01-3.39857E+00-1.05609E+00 1.25488E+00
 -1      2749 1.50109E+02 4.11505E+00-5.21636E-01-1.93046E+00-4.51408E-01 9.31873E-01
 -1      2750 1.61679E+02 5.71928E+00-1.66828E-01-6.31519E+00-3.95526E-01 8.52474E-01
 -1      2751 1.60233E+02 8.90453E+00-5.37538E-02-5.39022E+00-1.78504E-01 2.54150E-01
 -1      2752 1.68813E+02 6.47560E+00-2.08765E-01-5.34552E+00-2.35418E-01 1.19194E+00
 -1      2753 1.40569E+02 4.16903E-01-5.83974E-01 9.75665E-01-1.81873E+00 3.78683E-01
 -1      2754 1.73741E+02 2.56644E+00-1.80071E-01-2.61978E+00 2.80328E-01 2.02348E+00
 -1      2755 1.79613E+02 1.03068E+01 4.12610E-01-3.65994E-01-9.01459E-04 1.09802E-01
 -1      2756 1.80061E+02 9.66365E+00 2.40380E-01-3.24526E-02 1.41213E-02 1.77201E-01
 -1      2757 1.80517E+02 1.03359E+01 1.75532E-01-9.08273E-01 6.49161E-03 1.81687E-01
 -1      2758 1.79567E+02 1.02767E+01 3.45056E-01-1.94454E-02 9.27235E-02 1.67739E-01
 -1      2759 1.80110E+02 1.02435E+01 4.30483E-02 3.36343E-01 6.10041E-02 2.38362E-01
 -1      2760 1.82299E+02 9.16010E+00 1.04964E-03-1.14377E-01 1.76240E-02 5.14836E-02
 -1      2761 1.81982E+02 9.52989E+00-1.64740E-02-1.19630E+00-4.41146E-02 1.28977E-01
 -1      2762 1.81221E+02 9.89715E+00 9.83705E-02 1.89671E+00 9.36615E-02 1.65262E-01
 -1      2763 1.82328E+02 9.56723E+00 1.70946E-01 1.07602E+00 2.29838E-02 8.94785E-02
 -1      2764 1.83598E+02 8.41035E+00 4.35664E-02 1.24934E+00-1.73325E-02 5.67891E-02
 -1      2765 1.66052E+02 1.80695E+01 9.92965E-02-2.09021E+00-2.75660E-01 3.79450E-02
 -1      2766 1.66828E+02 1.46781E+01 3.61444E-01 1.87696E+00-5.20401E-01 3.91948E-01
 -1      2767 1.71267E+02 1.61310E+01 8.30384E-02-2.14254E+00-1.20463E-01 3.44383E-01
 -1      2768 1.69034E+02 1.14924E+01 5.69817E-01 3.92479E+00-2.95589E-01 7.41835E-01
 -1      2769 1.64144E+02 1.29023E+01 6.58701E-01 3.99058E+00-5.70958E-01 4.54567E-01
 -1      2770 1.66957E+02 2.08639E+01-5.39175E-01-8.84189E+00-8.72429E-01 4.86844E-01
 -1      2771 1.62002E+02 2.00825E+01-5.94430E-01-3.87298E+00-1.39166E+00 1.36214E-01
 -1      2772 1.59107E+02 1.26175E+01 4.91053E-01 3.32798E+00-4.97801E-01 2.63383E-01
 -1      2773 1.59295E+02 8.46221E+00-2.92785E-01 5.13719E+00 1.48617E-01 5.14528E-01
 -1      2774 1.55870E+02 1.42153E+01-2.01305E-01 9.56874E-01-9.24781E-01-1.58669E-01
 -1      2775 1.61079E+02 1.84244E+01 2.53322E-01-1.09326E-01-9.22982E-01-5.73955E-01
 -1      2776 1.60759E+02 2.23449E+01 1.48301E-01-6.15224E+00-9.68740E-01-4.18512E-01
 -1      2777 1.88823E+02 3.34698E+00-4.94066E-03 5.78984E-01 1.93776E-02-3.15931E-02
 -1      2778 1.87989E+02 4.11095E+00 3.53635E-02-2.13518E+00-2.78388E-02 2.45736E-02
 -1      2779 1.86307E+02 5.97582E+00 6.94148E-02-2.97994E-01 1.23675E-02 2.86265E-02
 -1      2780 1.84678E+02 7.59194E+00 1.04731E-01-1.53659E+00-9.75651E-03 1.79330E-02
 -1      2781 1.85399E+02 6.81482E+00 8.71618E-02 1.14279E+00-2.23838E-03 4.43605E-03
 -1      2782 1.89675E+02 2.63545E+00 5.72949E-02 2.96419E+00-3.60702E-02-1.08647E-02
 -1      2783 1.91257E+02 5.83085E-01 9.34166E-03 1.10949E+00-6.13423E-04-2.84101E-02
 -1      2784 1.85230E+02 7.01994E+00 1.54252E-01 2.63593E+00 1.21570E-02 7.59279E-02
 -1      2785 1.84234E+02 8.13331E+00 2.16028E-01 4.53162E+00 1.02503E-01 1.51922E-01
 -1      2786 1.85965E+02 6.06438E+00 4.95825E-02 4.37428E+00 3.00290E-02 5.92621E-02
 -1      2787 1.88056E+02 3.91348E+00 3.29345E-02 4.64610E+00-6.29436E-03 7.27693E-02
 -1      2788 1.90566E+02 1.40435E+00 1.05811E-02 5.00345E+00-3.66057E-02 1.47509E-02
 -1      2789 1.87412E+02 4.68623E+00 1.84009E-01 6.47809E+00 8.31153E-02 4.26842E-02
 -1      2790 1.52706E+01-3.83457E+00-6.06135E-02-2.92897E+00-9.01272E-02-7.84892E-02
 -1      2791 1.37442E+01-4.98867E+00-3.93025E-02 1.06397E+00-1.42301E-01 2.30731E-02
 -1      2792 1.53801E+01-6.71495E+00-3.19860E-01 6.99330E-01-1.40131E-01 8.35331E-02
 -1      2793 1.56955E+01-2.18260E+00-6.93404E-02-4.98522E+00-4.98721E-02 7.45055E-02
 -1      2794 2.07030E+01-7.83696E+00 2.67111E-01-4.16144E+00-1.65776E-01-4.48480E-01
 -1      2795 1.98264E+01-5.37791E+00 1.65389E-01-7.38132E+00-6.36264E-02-1.25327E-01
 -1      2796 1.69624E+01-1.72595E+00 2.16996E-01-6.59949E+00-3.05064E-02 1.76041E-01
 -1      2797-4.02938E-01 2.17455E+00 1.92004E-02 1.06010E+00-2.60875E-02 2.54182E-02
 -1      2798-1.57638E-01 2.09543E+00-3.59505E-03 1.35812E+00-1.07040E-02 7.90095E-03
 -1      2799-4.27879E-01 1.90836E+00 1.43726E-02 6.46276E-01 2.78056E-03 1.46710E-02
 -1      2800 3.34278E+01-3.75511E+00 1.74636E-01-1.83981E+01 4.91468E-02-9.84328E-01
 -1      2801 3.21593E+01 3.56002E+00 4.82869E-01-2.10772E+01 6.07155E-01-3.28813E-01
 -1      2802 2.50624E+01-6.95301E+00-4.88299E-01-1.03980E+01-2.56681E-01-3.48631E-01
 -1      2803 1.81900E+02 9.04822E+00-4.04735E-01 8.79383E+00 3.02182E-01 2.53861E-01
 -1      2804 1.86013E+02 6.98913E+00 1.64485E-01 8.55512E+00 1.17586E-01 2.53344E-01
 -1      2805 1.82399E+02 1.02513E+01 2.98602E-01 6.57953E+00 3.86022E-02 1.51534E-01
 -1      2806 1.81409E+02 1.08800E+01 2.24409E-01 4.36690E+00-1.47721E-02 5.75452E-02
 -1      2807 1.78991E+02 1.24963E+01 1.79717E-01 3.28573E+00-6.42371E-03 2.48064E-01
 -1      2808 1.75825E+02 1.22901E+01-1.56583E-01-6.15067E-02-1.16002E-01 4.64484E-01
 -1      2809 1.54816E+02 1.43934E+01 1.92923E-01 1.70350E+00-6.47626E-02-1.60904E-01
 -1      2810 1.55782E+02 1.75463E+01-8.55930E-02 5.92346E+00 5.44764E-01-1.44099E+00
 -1      2811 1.59523E+02 2.58931E+01 3.44540E-01 6.75655E+00 1.34205E+00-4.07964E-01
 -1      2812 1.61564E+02 2.72803E+01-3.91972E-01 1.25035E+01 2.34454E+00 7.78829E-01
 -1      2813 1.62846E+02 2.35188E+01 2.45366E-01 6.78546E+00 9.96240E-01 7.60844E-02
 -1      2814 1.55910E+02 1.34476E+01-4.87968E-01-1.26149E+00 1.86156E-01-5.80035E-02
 -1      2815 1.52895E+02 8.21567E+00-5.02058E-02-1.04221E+00 7.55481E-01 2.46499E-01
 -1      2816 1.60333E+02 1.84970E+01-3.15664E-01 6.31319E-01 5.45586E-01-3.18005E-01
 -1      2817 1.59582E+02 1.32437E+01 2.95533E-01-3.36325E+00 2.39305E-01-9.26058E-02
 -1      2818 1.74533E+02 2.22627E+01 2.40561E-01 1.81005E+01 1.55454E+00 2.64251E+00
 -1      2819 1.47777E+02 6.66515E+00-2.41989E-01-1.05160E+01 5.49805E-01-3.69308E-01
 -1      2820 1.54036E+02 1.97032E+01 1.63982E+00-6.90202E+00-1.29828E+00-2.89176E-01
 -1      2821 1.52734E+02 1.64347E+01 6.07398E-01-1.40472E+01-1.27560E+00-2.31951E+00
 -1      2822 1.42539E+02 4.95786E+00-3.67127E+00-3.41536E+01 4.48403E+00-4.37518E+00
 -1      2823 1.43411E+02 5.01340E+00-2.10926E-01-5.36562E+00 4.59636E-01 3.14926E-02
 -1      2824 1.39429E+02 2.37348E+00 2.18352E-01-1.61334E+01 7.74511E-01 3.20370E-01
 -1      2825 1.20816E+02 4.79989E+00 1.21754E+00-2.70682E+01 3.39935E-01-5.08600E-01
 -1      2826 1.18598E+02 1.47693E+00-6.12733E-01-2.00159E+01 1.90116E+00 3.09013E-03
 -1      2827 1.09355E+02 1.36295E+01 2.98777E-01-3.73674E+01 1.53105E+00 4.17964E-01
 -1      2828 9.41175E+01 1.44398E+01 2.63971E+00-3.58749E+01 4.10132E+00-1.04681E+00
 -1      2829 1.93544E+02-4.95753E+00-2.70609E-01 1.29263E+01-4.69848E-02 1.19604E-01
 -1      2830 1.97693E+02-6.32198E+00 6.33198E-01 1.63538E+01-2.73873E-01-1.30392E-01
 -1      2831 2.02423E+02-1.10341E+01 2.00512E-01 1.87197E+01-4.66907E-01-4.82902E-01
 -1      2832 2.03979E+02-1.17631E+01-3.64626E-01 1.26576E+01-3.10783E-02-3.70995E-01
 -1      2833 2.02644E+02-1.00954E+01-4.92574E-01 6.18107E+00 1.05691E-01 1.49307E-01
 -1      2834 2.01401E+02-7.64347E+00 3.06646E-02 3.33869E+00 1.14552E-01 2.36019E-01
 -1      2835 1.97776E+02-5.31363E+00 4.57880E-01 8.27442E+00 2.27383E-02 1.27332E-02
 -1      2836 2.10040E+02-1.26774E+01 4.61006E-01 6.36034E+00 2.34813E-02-4.40200E-01
 -1      2837 1.94603E+02-4.16900E+00 1.34617E-01 1.02962E+01-2.18438E-02-3.48290E-02
 -1      2838 1.93606E+02-3.30248E+00-1.46663E-01 7.91524E+00 1.51244E-01-1.19051E-01
 -1      2839 1.46212E+02 1.13312E+01-4.35439E+00 3.48012E+01-2.75536E+00-3.99272E+00
 -1      2840 1.54583E+02 1.29728E+01-1.35683E+00 1.37510E+01-1.40661E-01-2.70194E+00
 -1      2841 1.46849E+02 5.88839E+00 8.27932E-01 1.08667E+01 5.60354E-01-1.48644E+00
 -1      2842 1.19878E+02 3.87540E+00-1.05551E+00 2.76649E+01-8.47528E-01-6.06875E-01
 -1      2843 9.41339E+01 1.48163E+01 3.04002E+00 3.62369E+01-3.38393E+00-3.53006E-01
 -1      2844 1.07564E+02 1.27149E+01 1.60277E+00 3.68297E+01-2.28408E+00-2.46065E+00
 -1      2845 1.20460E+02 9.73400E-01-9.06449E-01 1.95714E+01-9.19001E-01 7.75393E-01
 -1      2846 1.39476E+02 1.30756E+00 5.42641E-01 1.52368E+01-7.37028E-01-1.85164E+00
 -1      2847 1.45562E+02 4.71387E+00 5.51186E-01 5.38036E+00 6.86392E-01-4.41096E-01
 -1      2848 1.95896E+02-8.51644E+00-1.81962E-01-3.23627E+01 3.30644E-01-2.50246E-01
 -1      2849 2.01705E+02-1.18251E+01-1.05038E+00-2.58945E+01 6.15041E-01-4.03394E-01
 -1      2850 2.25627E+00 1.41865E+00-1.28442E-03 2.99357E+00-8.21150E-03 3.81412E-04
 -1      2851 8.35762E-01 1.95092E+00-3.95292E-02 2.70571E+00-3.02367E-02 1.39334E-02
 -1      2852 7.25848E-01 1.96433E+00-6.85639E-02 3.13624E+00 1.56601E-02 3.16028E-02
 -1      2853 3.05370E+00 1.17346E+00-2.71201E-02 3.01364E+00 1.62797E-02-1.16287E-02
 -1      2854 1.90929E+00 1.49721E+00 5.00355E-02 3.98096E+00-5.08981E-02 5.41022E-03
 -1      2855 3.19765E+00 9.76732E-01 1.69546E-02 3.95712E+00-4.44876E-02 3.11832E-02
 -1      2856 3.54962E+00 1.03341E+00 3.83584E-03 3.26183E+00-1.73956E-02 1.30450E-02
 -1      2857 2.03145E+02-1.30644E+01-5.44884E-01 2.68279E+01 7.40667E-01-9.56089E-01
 -1      2858 1.98512E+02-5.94485E+00 1.80657E+00 3.36844E+01 2.74782E-01-5.98018E-01
 -1      2859-2.37228E-01 1.30349E+00 1.45232E-03 8.72550E-03-4.01722E-03 1.03728E-02
 -1      2860-2.42869E-01 1.30554E+00 1.09053E-02 3.53622E-02 1.40357E-03 8.28169E-03
 -1      2861-3.01106E-01 1.38842E+00 6.40493E-03 7.59531E-02-8.53333E-03 1.57037E-02
 -1      2862 1.05742E+02 2.15820E+00-1.08834E+00-2.29467E+01 3.86605E+00 2.04567E+00
 -1      2863 7.78022E+01 6.09618E+00-1.60218E+00-2.96927E+01 2.76667E+00 1.74156E+00
 -1      2864 3.72417E+01 9.22454E+00-1.37237E+00-2.57824E+01 1.16871E+00 8.61232E-01
 -1      2865 3.89271E+01 1.30899E+01-9.62557E-01-2.73361E+01 1.48249E+00 1.19723E+00
 -1      2866 7.41418E+01 1.30301E+01-1.64664E+00-3.35885E+01 3.40932E+00 3.22363E+00
 -1      2867 5.68560E+01 1.37133E+01 3.37686E-01-3.11174E+01 2.70982E+00 1.58911E+00
 -1      2868 1.75670E+02 1.64998E+01 4.86431E-01-7.09409E+00-2.81395E-01-1.42839E-02
 -1      2869 1.75186E+02 1.34662E+01 2.60649E-01-2.90946E+00-2.42076E-01 3.92932E-01
 -1      2870 1.74080E+02 1.09643E+01 8.49727E-02 1.59070E+00-6.60524E-02 8.21043E-01
 -1      2871 1.72469E+02 8.94792E+00 5.92514E-01 3.32687E+00-2.46690E-01 1.22163E+00
 -1      2872 1.74917E+02 7.81440E+00 8.15219E-01 2.99509E+00 7.62244E-02 1.22007E+00
 -1      2873 1.77874E+02 1.03385E+01 7.66040E-02-1.01275E-01-7.59599E-02 3.18125E-01
 -1      2874 1.76378E+02 1.27482E+01 4.14774E-01-5.53823E-01-1.25493E-01 3.80625E-01
 -1      2875 1.68557E+02 6.07117E+00-1.11707E-01 5.65444E+00 1.60513E-02 1.34342E+00
 -1      2876 1.79447E+02 1.19174E+01 1.65800E-01-4.33781E+00-1.34203E-01 4.52636E-01
 -1      2877 1.89177E+02 1.26998E+00-4.04482E-02-6.05735E+00 1.64450E-03 7.73834E-03
 -1      2878 1.88874E+02 3.59468E+00 4.10168E-01-7.43748E+00 1.45127E-01 9.14175E-02
 -1      2879 1.86871E+02 5.59152E+00 2.99328E-01-8.38337E+00 6.32303E-03 1.14675E-01
 -1      2880 1.87424E+02 4.71435E+00 1.49836E-01-5.96338E+00-4.86814E-02 1.04701E-01
 -1      2881 1.87195E+02 4.64942E+00-1.39020E-02-4.26235E+00-9.53203E-03 5.57983E-02
 -1      2882 1.89804E+02 2.21349E+00 4.79713E-02-3.26460E+00 1.74015E-02 1.39586E-02
 -1      2883 1.85517E+02 6.76889E+00 1.73892E-01-4.82283E+00-7.67603E-02 1.40745E-01
 -1      2884 1.91331E+02 1.70474E-01-4.85950E-02-2.87270E+00 1.73048E-02-3.41289E-02
 -1      2885 1.90677E+02 9.27239E-01 7.11781E-02-4.83267E+00 2.83702E-02-2.26756E-02
 -1      2886 1.91028E+02 1.17843E-01 1.49181E-01-5.97914E+00 3.95225E-02-6.10409E-02
 -1      2887 4.71526E-01 3.08775E-01 1.49737E-01 1.60368E-01 6.38279E-03-2.88744E-02
 -1      2888 2.81237E-01 1.12176E-01-4.74194E-02 2.71370E-02-1.13115E-02-5.10274E-02
 -1      2889-7.43660E-01 6.85227E+00-3.17545E-01 7.90870E+00-9.70670E-02 3.10945E-01
 -1      2890-1.74045E-01 6.55433E+00 2.90545E-01 5.28654E+00 2.59841E-01 2.78518E-01
 -1      2891-4.76750E+00 1.01531E+01-3.07326E-01 4.28883E+00 2.18547E-01-2.58411E-01
 -1      2892 1.80431E+02 1.27952E+01 1.06760E-01-1.12325E+01-2.01235E-01 5.77728E-01
 -1      2893 1.75059E+02 1.64094E+01-2.38705E-01-1.14546E+01-1.47412E-01 4.80410E-01
 -1      2894 1.75798E+02 2.16398E+01 9.28541E-01-1.51138E+01-5.70920E-01 9.27290E-01
 -1      2895 2.28940E+02-2.34529E+01-1.01975E+00 1.72522E+01-9.23885E-01-2.63882E+00
 -1      2896 2.41098E+02-3.10633E+01-3.49840E+00-1.92908E+00 1.66561E-01-3.59569E+00
 -1      2897 2.30703E+02-1.92178E+01 1.59945E+00-1.55957E+01 8.49226E-01-2.07080E+00
 -1      2898 1.83389E+02 7.17923E+00-2.82913E-01-8.80837E+00-2.80471E-01 2.98832E-01
 -1      2899 1.82695E+02 8.77682E+00-2.20311E-01-7.20976E+00-1.14917E-01 2.83459E-01
 -1      2900 1.98878E+02-1.02525E+01-2.88699E-01-1.80019E+01 3.30265E-02-3.85346E-01
 -1      2901 2.17286E+02-1.64578E+01 6.82038E-01-2.20465E+01 1.10667E+00-1.17546E+00
 -1      2902 1.95543E+02-5.97338E+00 5.10042E-02-1.56270E+01 1.45933E-01-3.79438E-02
 -1      2903 1.95101E+02-4.24187E+00 2.16708E-01-1.11004E+01-1.53870E-01 3.23367E-02
 -1      2904 2.04297E+02-1.16062E+01-7.87115E-01-1.25169E+01-7.31884E-02-2.97313E-01
 -1      2905 2.14215E+02-1.71410E+01-2.94058E-01 2.34803E+01 2.82990E-01-1.65557E+00
 -1      2906 2.22020E+02-1.95934E+01-6.05201E-01 8.09461E+00-4.01401E-02-1.46752E+00
 -1      2907 7.70283E+01 1.31568E+01 4.31383E-01 3.50655E+01-1.86816E+00 1.18894E+00
 -1      2908 5.66962E+01 1.64052E+01 1.21629E+00 3.29531E+01-3.46800E-01 8.20501E-01
 -1      2909 7.73314E+01 6.16958E+00-5.03503E-01 3.01096E+01-1.06794E+00 5.36654E-01
 -1      2910 3.78842E+01 1.26994E+01-1.67380E+00 2.70149E+01-1.47549E+00 1.22627E+00
 -1      2911 1.57963E+02 2.62906E+01 5.87013E-01-7.82686E+00-1.40830E+00 4.90010E-01
 -1      2912 1.54651E+02 1.48846E+01 5.25702E-01-2.60645E+00-5.69421E-01-7.75199E-01
 -1      2913 1.58425E+02 2.74297E+01-1.34210E+00-1.32473E+01-3.57795E-01 1.30988E+00
 -1      2914 1.76094E+02 2.26384E+01-2.49166E-01-1.84690E+01-1.12041E+00 1.02526E+00
 -1      2915 1.82454E+02 8.75704E+00-2.09549E-02-2.72091E+00-5.20314E-02 1.81650E-01
 -1      2916 1.82750E+02 9.17461E+00 3.06198E-02-5.00205E+00-6.60688E-02 1.50537E-01
 -1      2917 1.38278E+02-7.04274E-01-1.14314E+00-1.57079E+00 1.49149E+00 9.06356E-01
 -1      2918 1.25428E+02-7.99811E-01-1.80067E+00-8.86499E+00 1.45123E+00 3.17744E+00
 -1      2919 1.59620E+02 2.16598E+00-4.32558E-01 2.80086E+00 5.13670E-01 2.22555E+00
 -1      2920 1.45024E+02-3.39808E+00-2.54775E+00 1.50991E+00 2.15360E+00 1.69659E+00
 -1      2921 1.50604E+02 1.13440E+00-1.91962E-01 3.15347E+00 9.69180E-01 1.79454E+00
 -1      2922 1.77108E+02 7.42489E+00 7.12251E-01 1.06200E+00 2.82936E-02 7.83802E-01
 -1      2923 1.73841E+02 4.82846E+00-8.60023E-02 2.06509E+00 2.31048E-01 1.50633E+00
 -1      2924 1.77945E+02 8.90526E+00 2.83835E-01 8.09739E-01 9.69068E-02 5.08330E-01
 -1      2925 1.77577E+02 7.04638E+00 5.29926E-01-2.92801E-02-1.44787E-02 7.26804E-01
 -1      2926-1.61737E-01 2.22369E+00-1.50965E-03-1.63979E+00 4.05154E-03 2.87138E-02
 -1      2927-1.71457E-01 2.11952E+00 1.61218E-02-1.36822E+00 1.10231E-02 1.62327E-02
 -1      2928 2.47506E-01 2.31128E+00 3.51009E-02-2.40440E+00 4.62249E-02 2.75229E-02
 -1      2929-1.84564E-01 2.19589E+00-1.49813E-02 1.62599E+00 9.46562E-03 1.93607E-02
 -1      2930 2.66147E-01 2.31311E+00 3.10160E-02 2.40244E+00-3.61850E-02 3.17221E-02
 -1      2931-2.45899E-01 1.27765E+00 1.86898E-04-3.35066E-02-6.31571E-03 1.62030E-02
 -1      2932-2.92419E-01 1.36144E+00 1.73763E-02-5.11903E-02 4.28160E-03 1.20258E-02
 -1      2933 1.26125E+01-4.44809E+00 2.32733E-01 2.93297E+00-1.18957E-01-8.41766E-02
 -1      2934 7.43402E+00-1.33091E+00 1.52113E-02 4.14301E+00-6.94288E-02 7.09971E-02
 -1      2935 8.39604E+00-2.52522E+00-2.48550E-01 4.22389E+00-6.42357E-02 1.10605E-01
 -1      2936 7.44127E+00-1.40933E+00 9.09727E-03-4.07453E+00 7.12343E-02 9.90243E-03
 -1      2937 5.98859E+00-5.83976E-01 7.77245E-02-4.72836E+00 1.13860E-01 2.19594E-02
 -1      2938 3.79978E+00 5.37089E-01 1.12898E-02-4.36558E+00 2.61194E-02 2.35136E-02
 -1      2939-4.01947E-01 2.18132E+00 5.53215E-02-1.07399E+00 1.77499E-02 1.04744E-02
 -1      2940-4.73210E-01 1.91769E+00-2.70967E-02-6.63280E-01 4.74896E-03 2.12205E-02
 -1      2941 4.08814E-01 1.78671E-01 2.52173E-02-9.17119E-02-7.33064E-03-1.62721E-02
 -1      2942 2.20972E+02-1.96873E+01-7.97245E-01-7.69941E+00-1.38223E-01-1.40591E+00
 -1      2943 1.45790E+02 3.75246E+00-3.57772E-01-1.84367E+00 6.29202E-01 3.33840E-01
 -1      2944 1.53530E+02 9.14298E+00 5.83884E-01 8.41804E-01 2.26728E-02-9.01244E-01
 -1      2945 1.08253E+02 3.55851E+00 5.50620E-01 2.25216E+01-1.37748E+00 1.45350E+00
 -1      2946 1.22909E+02-1.04654E+00 6.90636E-03 1.30760E+01-7.05303E-01 8.34596E-01
 -1      2947 1.47210E+02 3.80970E+00-2.93819E-01 1.97313E+00 2.36282E-01 7.20454E-01
 -1      2948 1.41897E+02 5.19625E-01-1.24049E-01 4.03327E+00-5.21900E-01 6.17508E-01
 -1      2949 1.64759E+02 1.36312E+01 3.99842E-01-3.86338E+00 1.94970E-01 4.35757E-01
 -1      2950 1.56535E+02 4.84899E+00-1.88349E-01 4.39816E+00 6.12576E-01 1.34363E+00
 -1      2951 1.61226E+02 5.52562E+00-3.10982E-01 6.28097E+00 5.75044E-01 1.26630E+00
 -1      2952 1.40758E+02 1.38286E+00 2.88770E-01-3.99272E+00 1.21828E+00 3.82548E-01
 -1      2953 1.49577E+02 3.74078E+00 1.24463E-01 2.03119E+00 3.77192E-01 6.05238E-01
 -1      2954 1.87624E+02 3.99225E+00 8.19802E-02 8.51954E+00 1.83591E-02 2.59152E-01
 -1      2955 1.89930E+02 2.37159E+00 5.24623E-01 7.72115E+00-1.43880E-01 7.96848E-02
 -1      2956 1.89738E+02 1.07533E+00-7.89688E-02 6.97253E+00-2.42884E-02-1.40505E-02
 -1      2957 2.16034E+02-1.64785E+01-9.25649E-01 3.13701E-01-5.25566E-02-6.13646E-01
 -1      2958 2.09847E+02-1.36171E+01-1.29228E-01-5.93608E+00 1.93127E-02-5.32624E-01
 -1      2959 1.98340E+02-6.24059E+00 2.74338E-02-8.21197E+00 1.08028E-01 1.07949E-01
 -1      2960 2.01983E+02-7.86242E+00 2.05269E-01-3.16220E+00 7.11662E-02 2.12617E-01
 -1      2961 2.03353E+02-1.01282E+01-4.03538E-01-5.78123E+00 9.05671E-02 3.13442E-01
 -1      2962 1.96171E+02-4.23355E+00 1.95270E-01 2.90907E+00-1.00488E-01-5.25274E-02
 -1      2963 2.00073E+02-7.39386E+00-1.90141E-01-1.75349E-02 3.33699E-02 2.16720E-01
 -1      2964 1.96023E+02-4.22151E+00 1.49571E-01-2.67481E+00-4.51083E-02 1.13334E-02
 -1      2965 1.74160E+02 2.25593E+00-3.96315E-01 2.18086E-01-2.51291E-02 9.25848E-01
 -1      2966 1.73978E+02 4.54338E+00-2.84100E-01-2.44482E+00-1.82433E-01 1.58931E+00
 -1      2967 1.69513E+02 1.18627E+01 5.85374E-01-3.86595E+00 8.52798E-02 6.33321E-01
 -1      2968 1.71875E+02 8.65449E+00 9.29943E-02-3.53325E+00-1.05476E-01 1.51044E+00
 -1      2969 1.74302E+02 6.80185E+00-2.19517E-02-3.34536E+00-5.38640E-02 1.66570E+00
 -1      2970 1.77027E+02 7.24206E+00 5.24475E-01-1.27999E+00 3.55580E-02 7.36286E-01
 -1      2971 1.73993E+02 1.09790E+01 1.61652E-02-1.63392E+00 7.82926E-02 1.16981E+00
 -1      2972 1.72271E+02 2.97313E+00-5.95720E-01 2.76923E+00-4.13326E-01 1.67337E+00
 -1      2973 1.64758E+02 1.87022E+00-3.47707E-01 3.98304E+00 3.67686E-01 1.30055E+00
 -1      2974 1.64732E+02 3.40143E+00 1.32015E-01 5.44144E+00 6.58153E-01 1.98349E+00
 -1      2975-9.38550E-01 1.22140E+01 5.37893E-01 1.44834E+01 2.40163E-01-9.58969E-02
 -1      2976-8.65635E+00 1.82318E+01 9.73144E-01 9.88141E+00 1.48305E-01-5.65737E-01
 -1      2977 1.27958E+02 2.72668E-01-1.33212E+00 8.68039E+00-1.39869E+00 1.59930E+00
 -1      2978 1.36734E+01-4.87177E+00-6.05976E-02-9.78063E-01 1.27192E-01-7.92119E-02
 -1      2979 1.24884E+01-4.39246E+00 1.57886E-01-3.05093E+00 2.15069E-01-5.97675E-02
 -1      2980 1.56690E+01-6.26145E+00-5.28328E-02-5.17410E-01 1.67691E-01 3.88350E-03
 -1      2981 1.51685E+01-3.85829E+00-2.34299E-01 2.92445E+00 1.53550E-01-1.50793E-02
 -1      2982 1.56770E+01-2.23134E+00-2.17267E-02 4.77409E+00 1.14847E-01 7.96397E-02
 -1      2983 1.77960E+02 8.62855E+00 1.57072E-01-1.05268E+00-4.60441E-02 5.60291E-01
 -1      2984 1.77140E+02 9.66365E+00-6.11986E-01-6.18584E-01 5.14559E-02 4.41875E-01
 -1      2985 1.20056E+02-1.19146E+00-3.61836E+00-1.29381E+01 2.03673E+00 2.73990E+00
 -1      2986 1.93822E+02-2.29006E+00-2.19262E-02 6.05449E+00 5.81368E-02 6.48969E-02
 -1      2987 1.91544E+02-6.28469E-01-1.39836E-01 4.81113E+00 2.58939E-02-1.91758E-02
 -1      2988 1.90777E+02 8.93172E-01 8.40172E-02 6.41132E+00 2.06526E-02-6.37889E-04
 -1      2989 1.94103E+02-2.37899E+00 7.67416E-02 4.45598E+00-5.42179E-02 8.54965E-02
 -1      2990 8.55531E+00-2.31765E+00-3.65926E-02-4.14950E+00 6.38964E-02 5.28287E-02
 -1      2991 4.79374E-01 1.99708E-01-5.14526E-03-3.39096E-03-1.39927E-02-1.09300E-02
 -1      2992 3.21811E-01-5.06335E-02 2.60532E-02 8.84913E-02 6.02823E-03 9.25749E-04
 -1      2993 4.29548E-01 1.18248E-01-1.66831E-02 5.95250E-02-7.03647E-03 9.61509E-05
 -1      2994 2.26326E-01-1.34097E-01 1.35459E-02 1.03218E-01 2.12151E-04 2.99276E-03
 -1      2995 2.97188E-01-1.15720E-01-1.48923E-02 6.18960E-03-6.19881E-03-6.22340E-03
 -1      2996 3.50649E-01-5.40016E-02 2.78391E-02-7.61685E-02-3.13172E-03 2.66440E-03
 -1      2997 2.56644E-01-1.35603E-01-1.69922E-02-8.68303E-02-4.83424E-03-8.44059E-03
 -1      2998 1.94007E+02-2.84167E+00 2.04251E-01-6.65518E+00-5.03066E-02-1.30577E-01
 -1      2999 1.93413E+02-3.65164E+00-5.34742E-02-8.69072E+00-1.93632E-01-4.61000E-02
 -1      3000 1.91520E+02-1.54428E+00-1.95302E-01-6.04615E+00 4.83015E-02-8.96289E-02
 -1      3001 1.93954E+02-2.95246E+00-2.47751E-02-5.09986E+00-7.43243E-02-1.03135E-01
 -1      3002 2.81399E-01 1.50323E-01-1.64216E-02 3.62642E-02 4.72907E-02 7.01327E-03
 -1      3003 2.98988E-01 3.23135E-01 2.06596E-02-1.16073E-01 2.76781E-02-2.39945E-03
 -1      3004-3.40768E+00 1.02579E+01 2.04555E-01-5.47951E+00 8.12726E-02-2.31539E-01
 -1      3005 1.23895E+00 5.93128E+00 2.17904E-01-5.84405E+00 9.29653E-02 1.10748E-01
 -1      3006-2.36214E+00 8.04075E+00-5.26668E-01-8.23841E+00 1.47485E-01-7.02704E-02
 -1      3007-6.12844E+00 1.13357E+01-2.50898E-01-2.95465E+00-4.84823E-02-1.58295E-01
 -1      3008-1.83245E+00 1.45573E+01 8.68094E-01-1.51938E+01 2.64768E-01-3.38774E-01
 -1      3009-9.89636E+00 1.92607E+01 1.25113E+00-8.86765E+00 1.72751E-01-7.04369E-01
 -1      3010-1.03319E+01 1.61590E+01-4.01540E-01-4.18815E+00-1.00509E-01-3.59174E-01
 -1      3011-7.92392E+00 1.50118E+01 3.16548E-01 9.15125E-01 8.15451E-02-8.30332E-02
 -1      3012 3.23688E+01 3.63025E+00 5.00849E-01 2.06250E+01-2.71694E-01-7.55158E-02
 -1      3013 3.81388E+01 9.74052E+00-1.60362E+00 2.60767E+01-1.88047E+00 1.04595E+00
 -1      3014 1.92983E+02-9.40282E-01 5.01115E-02-6.97104E-01 1.42763E-02-6.43108E-02
 -1      3015 1.93841E+02-1.72500E+00 1.92876E-01 1.71418E+00-2.38477E-02-4.51677E-02
 -1      3016 1.94168E+02-1.99942E+00 1.48572E-01-2.48441E+00-1.27316E-02-1.95086E-02
 -1      3017 6.03761E+00-5.58822E-01 1.67774E-01 4.66941E+00-5.83923E-02-5.78091E-03
 -1      3018 1.63120E-01-1.38397E-01-4.38574E-03 8.80355E-02-4.56545E-03-3.26836E-03
 -1      3019 2.07474E-02-5.52984E-02-9.96765E-04 3.70550E-02-1.13866E-03-1.98595E-04
 -1      3020 2.05603E-02-6.47179E-02 1.12462E-03 6.85166E-02-1.35505E-03-3.52329E-03
 -1      3021 7.64852E-02-9.55881E-02-7.45086E-04 9.14274E-02-5.20882E-03-3.41703E-03
 -1      3022 1.71623E+01-1.78421E+00 9.75938E-02 6.57038E+00 3.06660E-02 3.45519E-02
 -1      3023 1.98510E+01-5.38909E+00-6.20529E-02 7.04882E+00 3.59096E-01-1.49069E-01
 -1      3024 2.06148E+01-7.65879E+00 2.25855E-01 3.81146E+00 3.56730E-01-2.48338E-01
 -1      3025-9.49836E+00 1.49574E+01-4.66686E-01 4.97320E+00 3.18060E-01-2.42274E-01
 -1      3026 3.32855E+01-3.52196E+00 3.53067E-01 1.81704E+01-2.11133E-01-6.35447E-01
 -1      3027 2.59666E+01-6.38967E+00-9.95575E-02 1.05925E+01 2.30532E-01-1.85803E-01
 -1      3028 3.71620E+00 4.33316E-01-1.29173E-01 4.39156E+00-2.61921E-02 4.92243E-02
 -1      3029 1.90020E+02-1.69589E+00-2.75527E+00-7.73358E+00 1.08262E-01 9.44717E-02
 -1      3030-1.42094E-01-4.92119E-03 1.46708E-02 3.20082E-02 2.39099E-03 7.52974E-04
 -1      3031 1.23585E+02-6.41318E-01 5.90715E+00 7.77601E+00-5.89397E-01-2.86607E+00
 -1      3032 4.80848E+00-8.76082E-01-1.39068E+00-1.93821E-01-1.48696E-01-9.95149E-02
 -1      3033-1.32980E+00-2.92416E-01-1.46378E-01 4.22326E-01 1.49149E-02 1.61199E-02
 -1      3034 1.77999E+02 4.48895E-01 1.61690E+00-7.79964E+00 6.83490E-02-4.31050E-02
 -1      3035 1.87952E+02 2.78948E-01 2.49784E-01-7.03661E+00-2.53051E-02-1.86352E-02
 -1      3036 6.82374E+01-5.46880E-01 5.42174E+00-1.30064E+01-6.24293E-01-3.30303E-01
 -1      3037 1.28113E+02 6.54985E-02-3.86199E+00-5.90545E+00 5.03166E-01-2.70996E-01
 -1      3038-5.34243E-01-6.07073E-02 1.89536E-02 1.34552E-01 7.82367E-04 2.83920E-02
 -1      3039-3.78903E-01-7.17178E-01-7.27544E-01 2.79378E-01-8.04631E-02-1.07718E-02
 -1      3040 1.87731E+02 6.56944E-01 9.73617E-01-7.17707E+00 3.21287E-02-1.75440E-01
 -1      3041 2.10656E+01-4.24128E-01-1.11089E+00-2.95458E+00 4.55685E-01-1.10091E+00
 -1      3042 1.56661E+02 1.15644E+00 1.71446E-01-8.45897E+00-9.97992E-02 1.09141E+00
 -1      3043 1.55971E+02 1.54198E+00 2.95248E-01-8.41651E+00 7.63758E-02-1.30408E+00
 -1      3044 2.18665E+01-4.83085E-01-1.17118E+00-3.49540E+00-4.22047E-01 1.61481E+00
 -1      3045 1.87716E+02 7.08925E-01 7.77103E-01-7.45374E+00-9.39969E-02 1.87152E-01
 -1      3046-9.42987E-01-3.88498E-01-3.34037E-01 1.32626E-01 6.30600E-02-4.87329E-02
 -1      3047 1.86790E+02-4.31872E-01-1.05584E+00-6.80008E+00 1.46014E-01 2.61066E-01
 -1      3048 1.87035E+02-3.78135E-01-1.02805E+00-7.05217E+00-1.09038E-01-3.27947E-01
 -1      3049-7.53714E-01-6.68861E-02-7.51139E-03 1.77450E-01 2.39350E-02-9.28282E-02
 -1      3050 1.16680E+02-1.65631E+00 1.01756E+01 2.04278E+00-1.37652E-01 3.61694E+00
 -1      3051 1.11623E+02 5.97578E+00 1.91417E+00 1.04878E+01-8.54092E-01 1.18165E+00
 -1      3052 1.15091E+02 6.84704E+00 9.26322E-01 8.32638E+00 9.67676E-01-2.57660E+00
 -1      3053 1.25985E+02-3.71322E+00 1.20929E+01-1.01185E+00-4.99990E-02-2.31108E+00
 -1      3054-6.92136E-02 6.31663E-03 1.16309E-02 1.67582E-02-6.71581E-04-6.15296E-03
 -1      3055 1.94642E+02-3.03928E+00-4.16448E+00-7.95947E+00-6.82899E-01 3.56692E+00
 -1      3056 1.95661E+02-5.25418E+00-4.60691E+00-7.51422E+00 8.41667E-01-2.92236E+00
 -1      3057-6.69138E-02 7.61324E-03 1.33539E-02 1.64391E-02 1.72483E-03 8.41262E-03
 -1      3058-3.02516E-01 8.72235E-03 2.42682E-02 5.66425E-02 1.35809E-02-4.54233E-02
 -1      3059-2.09569E-01 5.24618E-03 2.24147E-02 4.70977E-02-9.75372E-03 3.76236E-02
 -1      3060-9.52103E-01-6.66444E-02-5.29864E-02 1.62706E-01-2.96015E-02 1.25866E-01
 -1      3061 7.28564E+00-1.81161E+00-1.14746E+00 5.29129E-02-1.64609E-01-6.20132E-01
 -1      3062 6.06596E+00-1.50822E+00-1.08453E+00-6.87929E-01-2.16087E-02 4.58901E-01
 -1      3063-9.05174E-01-3.44995E-01-1.55193E-01 2.98311E-01 2.89936E-02-1.37995E-01
 -1      3064 1.77650E+02 1.09690E+00 8.78977E-01-8.29143E+00 1.03398E-01-8.65356E-01
 -1      3065 1.77119E+02 1.47397E+00 1.22691E+00-8.01585E+00-4.85066E-02 8.01299E-01
 -1      3066-3.57242E-02 1.83585E-03 1.84410E-02 7.96057E-03 2.02666E-04 7.16744E-05
 -1      3067 2.06569E+02-1.62197E+00-9.85342E-01-1.46859E+01-1.51587E-01-5.63171E-01
 -1      3068 1.87739E+02 4.58970E-01 7.58769E-02-7.08968E+00 1.47486E-02 1.49488E-01
 -1      3069 1.87794E+02 4.06871E-01 1.17442E-01-7.00795E+00 9.97472E-06-1.02285E-01
 -1      3070 2.07780E+02-2.24013E+00-2.71047E+00-1.14693E+01 1.13146E+00-5.02496E+00
 -1      3071 1.89971E+02-3.26132E+00-2.84619E+00-6.34708E+00-9.47406E-02-2.14680E+00
 -1      3072 2.22415E+02 7.21704E+00 6.52748E+00-2.26652E+01 3.91371E-01-2.14121E+00
 -1      3073-7.17851E-02 9.16419E-03 1.33072E-02 1.40396E-02 5.72513E-04 1.36278E-02
 -1      3074-3.38740E-02 6.43074E-03 8.66486E-03 5.28898E-03 3.52290E-03 7.86404E-03
 -1      3075-2.35979E-02 7.37765E-03 1.28666E-02 8.45658E-03-7.04057E-04 6.93430E-03
 -1      3076 2.10326E+02-4.99771E-01-1.98361E+00-1.35440E+01 7.10204E-01 4.46651E+00
 -1      3077 2.21789E+02 9.41979E+00 7.13067E+00-2.16592E+01 4.61743E-02 2.89179E+00
 -1      3078 1.90260E+02-3.08577E+00-3.09122E+00-6.32649E+00-2.47212E-01 2.70416E+00
 -1      3079-3.58207E-02 6.60088E-03 6.89872E-03 4.71891E-03-2.98558E-03-6.82550E-03
 -1      3080-7.67658E-02 9.41230E-03 1.03567E-02 1.35760E-02-7.44635E-04-1.18107E-02
 -1      3081-2.40179E-02 7.50427E-03 1.28692E-02 8.07601E-03 1.05594E-03-6.00669E-03
 -1      3082 1.86072E+02-9.86942E-01-1.23773E+00-7.18454E+00-8.89131E-02-6.41175E-01
 -1      3083 1.87143E+02-7.35251E-02-3.09785E-01-6.88816E+00-1.46308E-01-3.11018E-02
 -1      3084 1.86662E+02-1.68140E+00-3.44222E+00-6.97484E+00 2.35558E-01-1.65993E+00
 -1      3085 1.87494E+02 5.69920E-02-1.22557E-01-6.97300E+00 1.16909E-02 1.48681E-01
 -1      3086 1.87970E+02 6.58604E-01 1.56202E-01-7.19189E+00-1.51022E-02 1.49908E-01
 -1      3087 1.87283E+02 3.07656E-01-2.92341E-01-7.06221E+00 3.05673E-02-5.11662E-02
 -1      3088 1.88330E+02 7.43506E-01 6.48949E-01-7.22680E+00 1.28654E-01-4.39908E-02
 -1      3089 1.86741E+02 9.46316E-01 1.05489E+00-7.39981E+00-1.40267E-01-5.43408E-01
 -1      3090 1.88550E+02 8.23471E-01 7.16252E-01-7.16241E+00-6.64763E-03 3.52848E-02
 -1      3091 1.80633E+02 7.55330E-01 1.69973E-01-7.69814E+00 4.21318E-01-8.85102E-01
 -1      3092 1.72693E+02 2.07885E+00 1.19346E+00-7.95917E+00-1.49318E-01-1.63660E+00
 -1      3093 1.84123E+02 7.24550E-01 1.24232E+00-7.81821E+00 4.28955E-02-6.81265E-01
 -1      3094 1.61039E+02 4.66723E-01 1.68066E-01-7.78594E+00 8.38905E-01-2.19033E+00
 -1      3095 1.42421E+02 9.14551E-01-2.51083E-02-6.59140E+00 4.49386E-01-1.69293E+00
 -1      3096 1.69135E+02 2.72603E+00 1.43737E+00-8.32291E+00-4.00144E-01-1.51292E+00
 -1      3097 1.14862E+02-3.29097E-01-2.33476E+00-4.02153E+00 6.70230E-01 9.30902E-01
 -1      3098 1.04991E+02 4.52512E+00-1.21133E+00 8.42629E+00-1.54171E-01 3.84940E+00
 -1      3099 1.25993E+02-3.52862E-01-2.64910E+00-6.05259E+00 7.42526E-02-7.21316E-01
 -1      3100 1.20303E+02 1.30120E+00-9.14318E-01-3.18460E+00 3.92174E-01 6.79426E-01
 -1      3101 1.44128E+02 2.53149E+00-2.46321E-01-7.04067E+00 1.17325E-01-6.62208E-01
 -1      3102 1.22039E+02-5.64655E+00 4.33154E+00 5.42473E+00 3.83630E-01 3.75539E+00
 -1      3103 1.14120E+02 2.86830E+00 3.19153E+00 8.90304E+00-4.85701E-01 5.51947E+00
 -1      3104 1.14660E+02-4.13679E+00 7.71148E+00 8.68420E+00 2.33547E-01 4.44477E+00
 -1      3105 9.07487E+01-6.48471E-01 2.60346E+00-4.47691E+00-8.95645E-01-2.45989E-01
 -1      3106 3.70231E+01-2.13653E+00-1.40326E+00-3.51926E+00 1.24285E-01-2.38319E+00
 -1      3107 1.60465E+01-6.78043E-01-1.45279E+00-9.11998E-01-1.44964E-01-1.66500E+00
 -1      3108 6.58128E+01 6.09108E-02 2.31677E+00-6.59512E+00 4.85412E-01-1.84472E+00
 -1      3109 4.36397E+01 6.35633E-01 2.17805E+00-7.80025E+00 7.69316E-03-2.08070E-01
 -1      3110 8.83376E+01-2.42757E+00 6.15794E+00-3.11943E+00-1.92213E+00-6.85787E-01
 -1      3111 1.20331E+01-9.41104E-01-2.06303E-01-6.88733E-02-2.99866E-01-1.66303E+00
 -1      3112 1.87225E+00-1.60546E+00-1.51561E+00 2.01345E-01-3.04061E-01-2.12604E-01
 -1      3113 1.23154E+01-2.31326E+00-2.39584E+00-1.11485E+00 5.48378E-01-6.95754E-01
 -1      3114 1.06192E+00-5.93439E-02-3.74624E-01 9.92830E-02-1.33334E-01-1.26957E-01
 -1      3115-1.14332E+00-4.25743E-01-5.34918E-01 1.69386E-01-9.84323E-02 1.44562E-01
 -1      3116-3.87751E-01-2.47308E+00-2.51614E+00 5.46729E-01-3.04657E-01 1.15218E-01
 -1      3117-1.12748E+00-6.90417E-02-1.56736E-01 1.25631E-01-2.79218E-02 1.81852E-01
 -1      3118-8.46240E-01-3.46176E-02-4.95265E-02 1.36934E-01-3.01348E-02 1.39464E-01
 -1      3119-1.03680E+00 8.21266E-02-6.67147E-02 2.75837E-01-1.70802E-02 1.34785E-01
 -1      3120-1.25059E+00-1.38905E-01-1.09729E-01 2.62915E-01-1.32204E-02 5.84786E-02
 -1      3121-1.88496E+00-9.62367E-01-8.42353E-01 3.85208E-01-5.99262E-02 9.05906E-02
 -1      3122-5.99537E-01 2.32326E-03 7.10438E-04 8.98242E-02-3.23241E-02 1.09879E-01
 -1      3123-2.33159E-01 1.05568E-02 1.74226E-02 5.20154E-02-5.72991E-03 4.48299E-02
 -1      3124-1.63750E-01-1.10818E-02-1.18400E-03 2.10993E-02-4.93883E-03 3.35094E-02
 -1      3125-7.91515E-01-1.02737E-01-3.81864E-02 1.61703E-01-2.78261E-02 6.55752E-02
 -1      3126-4.18750E-01-7.36411E-03 1.96457E-02 7.90287E-02-3.51599E-03 6.54062E-02
 -1      3127-3.92023E-01-2.41929E-02-2.40306E-03 8.37694E-02-1.79079E-03 2.77330E-02
 -1      3128-1.38584E-01 9.12521E-03 2.13908E-02 3.14540E-02-6.71574E-03 2.06246E-02
 -1      3129 2.31596E+02 1.52463E+01 1.38864E+01-2.83021E+01-8.73408E-02-7.17405E-01
 -1      3130 2.33112E+02 1.15133E+01 1.34220E+01-2.79027E+01-6.64510E-01-2.88461E-01
 -1      3131 2.00933E+02-3.77894E+00-3.14622E+00-1.15498E+01-1.60920E-02-1.93904E+00
 -1      3132 1.99392E+02-3.34413E+00-4.08875E+00-1.14037E+01-5.94633E-01 1.28926E+00
 -1      3133 1.87066E+02-1.40490E-01-4.21978E-01-6.85593E+00 1.77068E-01-7.77519E-02
 -1      3134 1.85783E+02-6.28704E-01-1.32270E+00-7.09153E+00 4.99114E-02 5.32491E-01
 -1      3135 1.88508E+02-1.52954E-01-2.15266E+00-7.94769E+00 3.70060E-02 1.63924E+00
 -1      3136 1.87922E+02 3.92609E-01 4.64909E-02-7.16070E+00 2.40152E-02-1.32001E-01
 -1      3137 1.87567E+02 3.73621E-02-1.11129E-01-6.91029E+00 7.34528E-03-1.94196E-01
 -1      3138 1.87157E+02 2.55033E-01-4.04080E-01-6.93792E+00 3.76252E-02 2.24950E-02
 -1      3139 1.86628E+02 1.20131E+00 1.09038E+00-7.84217E+00 6.02509E-02 4.33277E-01
 -1      3140 1.87764E+02 3.69018E-01 2.50718E-01-7.29285E+00-1.05981E-01 7.66780E-03
 -1      3141 1.88273E+02 7.54379E-01 7.12276E-01-7.28079E+00-4.30610E-02 3.43679E-02
 -1      3142 1.72650E+02 2.08918E+00 1.22892E+00-7.97946E+00 9.61869E-02 1.46269E+00
 -1      3143 1.81294E+02 1.39339E+00 5.38477E-01-8.00905E+00-3.39686E-01 7.08161E-01
 -1      3144 1.84895E+02 1.41282E+00 1.65060E+00-7.98483E+00-9.21747E-02 8.16867E-01
 -1      3145 1.42733E+02 1.04357E+00 3.60462E-01-8.61819E+00 9.10068E-02 1.09125E+00
 -1      3146 1.60787E+02 2.38093E-01 1.81528E-01-8.01547E+00-6.41701E-01 2.08541E+00
 -1      3147 1.69160E+02 2.66868E+00 1.64601E+00-8.16697E+00 3.76168E-01 1.32886E+00
 -1      3148 1.05235E+02 3.43220E+00-9.37369E-01 7.80168E+00 3.67894E-01-3.43556E+00
 -1      3149 1.13371E+02 1.69605E-01-7.93004E-01-4.75097E+00-4.89465E-01-7.06186E-01
 -1      3150 1.26426E+02-1.02933E+00-2.75197E+00-7.93019E+00 2.59672E-01 1.61717E-01
 -1      3151 1.43518E+02 4.25837E-01-1.63549E+00-7.27284E+00 4.23634E-01 3.53722E-01
 -1      3152 1.15848E+02 1.43656E+00-3.09503E+00-4.29168E+00 6.85393E-01-1.40593E+00
 -1      3153 1.22865E+02-5.18343E+00 4.37365E+00 4.84419E+00-7.25716E-01-2.42030E+00
 -1      3154 1.13274E+02 1.84449E+00 1.67865E+00 7.78148E+00 9.04486E-01-4.53324E+00
 -1      3155 1.12782E+02-8.14676E+00 4.35129E+00 5.07767E+00 1.27654E+00-5.70053E+00
 -1      3156 9.26352E+01 3.25952E-01 3.79991E+00-4.53653E+00 1.41528E-01 5.44733E-01
 -1      3157 1.84064E+01-2.53041E-01-1.11137E+00-1.67798E+00 2.38335E-01 2.12502E+00
 -1      3158 3.78037E+01-2.10110E+00-1.28448E+00-3.47822E+00-2.02462E-01 2.54984E+00
 -1      3159 6.53756E+01-1.19259E-01 4.29423E+00-6.91944E+00-5.96577E-01 1.91400E+00
 -1      3160 8.96397E+01-6.90932E+00 4.38438E+00-8.38078E+00-6.32848E-01 1.17181E-01
 -1      3161 4.51726E+01 1.07423E+00 2.53529E+00-7.60504E+00-3.35959E-01 1.64815E+00
 -1      3162 2.62135E+00-1.37875E+00-8.07384E-01-2.33513E-01 2.94529E-01 3.20183E-01
 -1      3163 8.98511E+00-8.18890E-01-1.09561E+00-1.00744E+00-7.02486E-02 7.77791E-01
 -1      3164 1.20413E+01-1.82658E+00-1.93340E+00-2.16956E+00-8.41126E-01 1.04532E+00
 -1      3165-1.07320E+00-2.41161E-01-1.51324E-01 2.56382E-01 5.54793E-02-6.71472E-02
 -1      3166-2.43001E-02-6.33736E-01-3.90756E-01-9.60376E-02 5.24379E-02 8.72062E-02
 -1      3167-1.97499E-01-1.53176E+00-1.51636E+00 7.69017E-02-7.20158E-02 2.65375E-01
 -1      3168-1.02780E+00-1.06557E-01-1.01805E-01 1.40641E-01 5.37353E-02-1.61900E-01
 -1      3169-7.32233E-01 2.61915E-02-9.30627E-03 2.41575E-01 6.32100E-02-1.27771E-01
 -1      3170-1.20634E+00-6.26435E-01-5.11808E-01 2.35395E-01 5.20760E-03-1.30396E-01
 -1      3171-5.11926E-01-1.14458E-02 1.83265E-02 9.12199E-02 2.75879E-02-8.73950E-02
 -1      3172-7.50962E-01 5.77798E-02 1.91893E-02 1.20725E-01 3.90763E-02-1.38399E-01
 -1      3173-1.21722E+00-2.63340E-01-1.97985E-01 2.51031E-01 2.52098E-02-1.58037E-01
 -1      3174-1.85856E-01-7.60377E-03 8.29370E-03 1.69327E-02 7.71076E-03-3.77458E-02
 -1      3175-3.07652E-01 8.91707E-03 9.13913E-03 5.79134E-02 9.28712E-03-5.35409E-02
 -1      3176-5.59073E-01-5.86163E-02-3.62047E-02 1.08826E-01 7.64960E-03-6.87302E-02
 -1      3177-1.63021E-01 1.12577E-02 2.38750E-02 3.62314E-02 1.30765E-02-1.91205E-02
 -1      3178-1.73183E-02 6.98460E-03 1.37258E-02 5.94376E-03-8.58084E-04 1.42661E-03
 -1      3179-1.75266E-02 6.58830E-03 1.36721E-02 5.54659E-03 9.73425E-04-1.34159E-03
 -1      3180-4.22261E-02 4.18762E-03 2.13008E-02 1.23926E-02-1.44794E-03 5.17677E-03
 -1      3181-4.22974E-02 4.81895E-03 2.21589E-02 1.23205E-02 1.82936E-03-4.79177E-03
 -1      3182-9.27284E-01-3.28001E-01-9.81564E-02 3.05769E-01-1.45325E-02-5.38844E-02
 -1      3183-1.25909E+00-2.65466E-01-1.84080E-01 2.67624E-01-1.12260E-02-3.77073E-02
 -1      3184-1.53792E+00-6.99817E-01-4.83229E-01 2.69268E-01-1.46640E-02-1.05086E-01
 -1      3185 9.93819E+01 3.22992E+00-4.53456E+00 4.00249E+00-2.66735E-01-6.94110E-01
 -1      3186 1.54209E+02 9.27209E-01 7.55181E-02-8.94972E+00-1.35806E-01-1.37357E-02
 -1      3187-1.07441E+00-2.28029E-01-9.40564E-02 2.58382E-01 7.83554E-03 3.00006E-02
 -1      3188 1.20977E+02-2.61883E-01 8.26589E+00 9.61109E+00-5.98402E+00-5.08936E+00
 -1      3189 1.27181E+02 9.21213E+00 4.23454E+00 1.10338E+01 5.88503E+00 2.86415E+00
 -1      3190 1.16593E+02-2.33020E+00 1.02534E+01 2.47651E+00 1.37567E+00-1.54900E+00
 -1      3191 1.87801E+02 3.01566E-01 1.72372E-01-7.02764E+00-4.57594E-04 9.98041E-03
 -1      3192 1.88427E+02 6.00039E-01 8.09856E-01-7.26456E+00-4.92472E-02 7.97811E-03
 -1      3193 1.87025E+02 2.17298E-01-4.21082E-01-6.98591E+00-5.59292E-02 8.45325E-02
 -1      3194 1.85191E+02 9.35449E-01 1.86407E+00-7.59378E+00 7.31741E-03 2.28880E-01
 -1      3195 1.77335E+02 9.06409E-01 1.78008E+00-8.09252E+00 3.42318E-02 3.24165E-01
 -1      3196 1.69169E+02 2.33905E+00 1.97846E+00-8.21207E+00 1.79870E-01 5.51721E-01
 -1      3197 1.87714E+02 9.07141E-01 1.22429E+00-7.33994E+00-4.71047E-02-3.73631E-02
 -1      3198 1.88692E+02 7.74338E-01 9.64651E-01-7.16532E+00 2.53851E-02-8.48068E-02
 -1      3199 1.87816E+02 3.14932E-01 1.46922E-01-7.06425E+00-2.69175E-03 5.67279E-02
 -1      3200 1.87095E+02 1.85261E-01-5.13348E-01-7.08363E+00 5.75611E-02-4.50257E-02
 -1      3201 1.86180E+02 2.52574E-02-1.60690E+00-7.16012E+00 3.39402E-02 7.05974E-02
 -1      3202 1.84825E+02 7.55150E-01 1.81247E+00-7.42854E+00-4.43933E-02-1.94325E-01
 -1      3203 6.22411E+00-9.07713E-01-1.13309E+00-6.87519E-01 2.52558E-02-1.73953E-01
 -1      3204 1.13158E+01-1.92740E+00-2.29651E+00-2.22010E+00 5.30208E-01-2.25712E-01
 -1      3205-1.37620E-01-1.47501E+00-1.91941E+00 2.46653E-01 1.03055E-01-1.69112E-01
 -1      3206 1.68969E+02 2.55814E+00 1.95160E+00-8.37290E+00-1.83457E-01-7.52430E-01
 -1      3207 1.77534E+02 9.22285E-01 1.53186E+00-8.16903E+00 1.27359E-01-2.00856E-01
 -1      3208-5.95024E-01-8.90015E-02 2.30697E-02 1.70241E-01 1.57485E-02 3.92309E-03
 -1      3209-4.75762E-01-3.19693E-02 2.25359E-02 9.85677E-02 6.63927E-03-1.43413E-02
 -1      3210-3.58306E-01-2.20514E-02 1.81449E-02 8.19045E-02 7.12032E-03 2.09089E-03
 -1      3211-2.18841E-01 6.50222E-03 2.75509E-02 4.98327E-02 1.33975E-02-1.30495E-02
 -1      3212-1.90122E-01-3.52503E-04 1.90138E-02 4.41875E-02-5.63146E-03 1.06907E-02
 -1      3213 1.08567E+01-2.49993E+00-2.45069E+00-2.32180E+00-6.38788E-01 9.74029E-02
 -1      3214 5.86031E+00-1.40548E+00-1.44729E+00-5.54257E-01-1.40447E-01 1.13511E-01
 -1      3215-4.13860E-01-1.24784E+00-1.69967E+00 2.89221E-01-2.51015E-02 9.77225E-02
 -1      3216 1.88963E+02-1.63069E+00-4.57619E+00-7.66842E+00 1.71899E-01-1.18876E+00
 -1      3217 1.93453E+02-2.89096E+00-4.41190E+00-1.00515E+01 1.02648E+00-7.23766E-01
 -1      3218 1.92332E+02-1.87890E+00-3.16215E+00-9.20054E+00-6.20071E-01 1.88372E+00
 -1      3219 2.22352E+01-1.09432E+00-1.89660E+00-4.69798E+00 1.75825E-01 3.10142E-01
 -1      3220-4.62693E-01-5.51587E-01-5.22731E-01-2.18165E-02 7.28458E-02-1.72027E-01
 -1      3221 1.13090E+02-4.66668E-01 1.25129E+01-8.09300E-01-1.37842E+00-6.39434E-01
 -1      3222-1.10165E-01 6.24996E-04 1.23811E-02 2.60235E-02-4.81330E-04 1.82173E-03
 -1      3223-1.05402E-01 3.25074E-03 1.40303E-02 2.55049E-02 2.83188E-03 1.12199E-03
 -1      3224-8.32579E-02-9.21660E-03 1.30585E-02 2.03579E-02 4.10173E-04 6.25617E-04
 -1      3225 1.10994E+02-1.34105E+01 2.00931E+00 1.36043E+00-3.10110E-01-8.91313E-01
 -1      3226 1.87250E+02-7.32974E-01-2.19572E+00-7.31123E+00-3.66271E-01 1.49756E-01
 -1      3227 1.87396E+02-1.01906E+00-2.28951E+00-7.31288E+00 4.90419E-01-1.15106E-01
 -1      3228 1.90223E+02-7.85746E-01-2.79446E+00 7.79248E+00-6.76845E-03 1.45863E-02
 -1      3229-1.49656E-01 9.10735E-03 3.45499E-02-2.05225E-02-1.01652E-04 2.95799E-03
 -1      3230 2.60921E+00 5.29010E-01-1.36876E+00-1.61701E-01-4.01000E-03 4.70977E-02
 -1      3231 1.89546E+02 3.62247E-01 8.04121E-01 7.55272E+00 1.82625E-03-1.19134E-02
 -1      3232 1.00158E+02 4.55241E+00-6.83580E+00 1.01017E+01-4.85301E-01-1.47405E+00
 -1      3233 8.67665E+01 3.14127E+00 1.12034E+01 1.41069E+01-4.87228E-01 4.16487E-01
 -1      3234-1.26956E+00-1.33380E-01-7.68065E-02-2.09926E-01 8.27862E-03 1.64595E-02
 -1      3235 1.70136E+02 1.88504E+00 9.18310E-01 9.36905E+00 3.62037E-02-2.72004E-01
 -1      3236-5.64878E-01 3.51571E-03 4.17385E-02-9.27852E-02 1.65662E-03 2.90458E-02
 -1      3237 1.88341E+02 2.66896E-01-2.46742E-01 6.94644E+00 7.08422E-03 6.55086E-02
 -1      3238 2.99730E+01-1.18637E+00-1.50027E-01 4.56654E+00 1.50980E-01 6.24930E-01
 -1      3239 1.26096E+02-3.93737E+00 8.15597E+00-7.78097E+00 4.15531E+00-3.00382E+00
 -1      3240-9.77655E-01-9.30376E-01-8.23556E-01-5.31007E-01-7.04704E-02 4.82558E-02
 -1      3241 1.37548E+02 1.94785E+00-2.29881E+00 1.07762E+01 2.99858E-01-4.76025E-01
 -1      3242 1.42382E+02 3.57536E-01-1.47919E+00 9.52223E+00-3.22848E-01 1.14053E+00
 -1      3243 1.34027E+02-7.16296E+00 8.19033E+00-7.33493E+00-2.21591E+00 4.32351E+00
 -1      3244 3.27500E+01-1.52554E+00-7.79126E-02 2.86305E+00-2.61214E-01-1.12543E+00
 -1      3245-5.54524E-01-9.07584E-01-6.65806E-01-3.90883E-01 5.73582E-02 7.79478E-02
 -1      3246 1.88796E+02 4.93214E-01 2.42175E-01 7.00974E+00 4.78234E-02-2.28635E-01
 -1      3247-7.06891E-01 3.37391E-02 2.58040E-02-1.14753E-01-2.39003E-02-1.03244E-01
 -1      3248 1.84236E+02 9.44452E-01 1.01038E+00 7.69712E+00-2.74677E-01-2.68303E-01
 -1      3249 1.83573E+02 1.12459E+00 1.09451E+00 7.87803E+00 2.24705E-01 2.12581E-01
 -1      3250 1.96188E+02-2.96812E+00-3.57063E+00 9.51777E+00 2.65623E-01 2.85157E+00
 -1      3251-5.77733E-02 1.73658E-03 1.13462E-02-1.43052E-02-2.52276E-04 5.68685E-03
 -1      3252-7.09734E-02 6.00108E-03 1.33248E-02-1.00100E-02 2.11829E-03-8.87998E-03
 -1      3253 1.98445E+02-2.96018E+00-3.57948E+00 1.08568E+01-6.42559E-01-2.99116E+00
 -1      3254-2.87395E-01-5.59339E-03 2.69408E-02-5.88581E-02-8.24330E-04-3.61841E-02
 -1      3255 1.87332E+02-2.45740E-01-1.05457E+00 6.88329E+00-9.83577E-02 2.71614E-01
 -1      3256-1.96323E-01 2.59547E-05 1.57954E-02-4.35700E-02-1.01041E-03 2.08933E-02
 -1      3257 1.87366E+02-1.61063E-01-9.92565E-01 7.03411E+00 1.09233E-01-7.39628E-01
 -1      3258-9.31946E-01-5.08664E-03-2.19734E-02-1.05006E-01 1.55155E-02 1.27159E-01
 -1      3259 1.89324E+02 4.57394E-01 4.22955E-01 7.20949E+00-1.65493E-02 1.61253E-01
 -1      3260 9.78361E+01-2.55002E-02 6.93511E+00 1.39213E+01-2.59221E-01-8.83571E-01
 -1      3261 8.89916E+01 2.19557E+00 6.28355E+00 7.99784E+00-6.15266E-01 1.99136E+00
 -1      3262 4.25121E+00-2.36042E-01-9.48159E-01 6.69804E-01 1.41736E-01 2.99292E-01
 -1      3263 1.01794E+02 8.63251E-01-6.18252E+00 1.18662E+01-1.18050E-01 9.79495E-01
 -1      3264 4.30050E+00-3.21141E-01-8.97035E-01 9.09549E-01-1.34074E-01-4.07094E-01
 -1      3265 1.11160E+02 3.90276E+00-4.08441E+00 3.59429E+00-3.57295E-01-8.09613E-01
 -1      3266-1.19193E+00-2.68143E-01-1.89045E-02-2.65366E-01-6.25766E-02-1.89082E-01
 -1      3267 1.87922E+02 6.08578E-01 6.08774E-01 7.12396E+00 1.16169E-01 2.09458E-01
 -1      3268-3.32661E-02 3.06512E-03 1.52078E-02-7.94278E-03-2.32488E-04 1.08799E-03
 -1      3269 2.14481E+02 1.21815E-01 2.40965E+00 2.08173E+01 5.85837E-01 9.44698E-02
 -1      3270 1.92902E+02-2.32742E+00-2.39150E+00 7.11403E+00 3.49001E-01-2.41158E+00
 -1      3271 2.08446E+02-2.29547E+00-3.31054E+00 1.19346E+01-1.10584E+00-5.30992E+00
 -1      3272 2.24722E+02 1.01441E+01 6.87418E+00 2.49648E+01-1.02090E+00-2.63234E+00
 -1      3273-3.73442E-02 4.09855E-03 6.65267E-03-5.35271E-03-2.29757E-03 5.27531E-03
 -1      3274-7.16574E-02 1.06980E-02 1.70438E-02-1.10607E-02 3.52178E-03 1.41936E-02
 -1      3275-2.81028E-02-1.16189E-04 7.23857E-03-9.30971E-03-1.21254E-03 3.45289E-03
 -1      3276 2.20677E+02 6.76879E+00 5.18764E+00 2.24816E+01-9.44222E-03 2.12491E+00
 -1      3277 2.14737E+02 3.16151E-01-4.16099E-01 1.49487E+01 3.33713E-01 5.02498E+00
 -1      3278 1.91034E+02-2.96422E+00-2.74840E+00 6.61658E+00-2.10132E-01 2.43343E+00
 -1      3279-9.03462E-02 1.11488E-02 8.75086E-03-2.19078E-03 2.60044E-03-1.66538E-02
 -1      3280-3.58600E-02 8.89907E-03 1.23376E-02-1.26050E-03 4.94657E-03-3.40361E-03
 -1      3281-2.27285E-02 1.64845E-03 8.28009E-03-7.65779E-03 9.51471E-04-3.92557E-03
 -1      3282 1.87399E+02 1.34381E-01-4.49583E-01 7.17045E+00 1.05125E-01-8.56252E-02
 -1      3283 1.87274E+02-1.08953E+00-1.14154E+00 7.14497E+00 2.16290E-02-8.75714E-01
 -1      3284 1.89925E+02 3.69642E-01-2.07287E+00 8.30814E+00 3.62573E-02-1.79946E+00
 -1      3285 1.88893E+02 3.78643E-01 2.50968E-01 7.27138E+00-3.38415E-02 1.31399E-01
 -1      3286 1.88734E+02 2.75028E-01 6.29940E-02 7.27630E+00-1.06747E-04 2.18607E-01
 -1      3287 1.89013E+02 6.11816E-01 1.40490E-01 7.18560E+00-3.60080E-03 1.50170E-01
 -1      3288 1.88003E+02 3.25314E-01-3.12525E-01 7.11681E+00 2.32372E-02 1.86083E-01
 -1      3289 1.87194E+02-2.52578E-01-9.06164E-01 6.99130E+00-3.70027E-02-2.52127E-01
 -1      3290 1.88648E+02 7.49821E-01 7.54845E-01 7.47447E+00-4.92642E-02-1.52351E-01
 -1      3291 1.78078E+02 2.02812E+00 1.34844E+00 7.41577E+00-2.38244E-01-1.56901E+00
 -1      3292 1.85130E+02 5.91403E-01 8.70311E-01 7.37681E+00-3.32003E-01-6.52003E-01
 -1      3293 1.88258E+02 6.23134E-01 1.05437E+00 7.74849E+00-7.23283E-02 7.23441E-02
 -1      3294 1.30547E+02 2.87871E+00-1.23611E-02 7.84996E+00 2.78256E-01-2.59520E+00
 -1      3295 1.53449E+02 9.05233E-01-4.60577E-01 8.35519E+00 2.44021E-01-2.20058E+00
 -1      3296 1.67798E+02 2.06160E-01 2.87352E-01 8.30742E+00-2.19897E-01-1.48710E+00
 -1      3297 1.79476E+02 2.83437E+00 2.49593E+00 8.28381E+00-2.52529E-01-1.35545E-01
 -1      3298 1.58069E+02 3.28845E+00 9.83112E-01 1.04186E+01-1.13811E-01-2.95206E-01
 -1      3299 1.13416E+02 8.47425E+00-2.39066E+00-2.71908E-01-1.50683E+00-1.03197E+00
 -1      3300 1.14899E+02 1.40480E-01-3.40871E+00 7.31657E+00-5.41459E-01-3.90324E+00
 -1      3301 1.13871E+02-1.57509E+00-6.88580E+00 1.07298E+01-1.10543E-01 2.29103E-01
 -1      3302 1.30068E+02-4.17699E+00 5.10179E+00-7.19272E+00-3.44480E+00 4.71936E+00
 -1      3303 1.06661E+02 3.88107E-01-2.91896E+00-7.76738E+00 1.95821E+00 3.76268E+00
 -1      3304 1.24442E+02 3.56960E+00 5.06092E+00-4.76562E-01-6.42639E-02 1.60476E+00
 -1      3305 7.55792E+01 2.63706E+00 2.99955E+00 6.13763E+00 4.04949E-01-4.84941E-01
 -1      3306 1.04176E+02-1.23300E+00 2.61268E-01 2.29149E+00-8.79376E-01 9.28130E-01
 -1      3307 1.11020E+02-5.89104E+00 5.90049E+00 2.57463E+00-3.58225E+00 3.10966E+00
 -1      3308 2.10755E+01-6.39248E-01-1.49263E+00 1.67291E+00 8.86480E-01-2.02788E+00
 -1      3309 4.76223E+01-1.49851E+00 2.29149E-01 3.66581E+00-8.37267E-01-1.69864E+00
 -1      3310 5.88291E+01 1.76322E-02 2.40808E+00 4.11992E+00-5.14235E-01 5.32560E-01
 -1      3311 2.02872E+00-5.60748E-01-6.24709E-01 2.88102E-01-6.10490E-02-1.88173E-01
 -1      3312 8.40708E+00-1.37100E+00-1.31644E+00 9.75891E-01-4.36617E-01-1.18978E+00
 -1      3313 1.42780E+01 2.35482E-02-6.96994E-01 2.55154E+00-8.04875E-01-8.61883E-01
 -1      3314-6.14442E-01-2.54978E-01-2.82245E-01-1.87717E-01 1.88487E-01 1.26069E-01
 -1      3315 8.07667E-01-2.22694E-01-4.10812E-01-1.64362E-01 1.61279E-01 1.61205E-01
 -1      3316 7.70102E-01-9.86285E-01-1.07912E+00-9.46387E-02-1.69856E-01 8.55385E-02
 -1      3317-8.42542E-01-1.93279E-02-2.85373E-02-1.32302E-01 2.25286E-02 1.18944E-01
 -1      3318-1.21407E+00-1.00551E-01-1.52506E-01-1.55075E-01-3.14466E-02 1.36879E-01
 -1      3319-1.11370E+00 1.88307E-02 8.37386E-03-1.21970E-01 3.18575E-02 7.96052E-02
 -1      3320-1.43966E+00-4.28147E-02-2.23744E-01-1.43084E-01-5.60719E-03 1.05684E-01
 -1      3321-1.64725E+00-4.65075E-01-5.78169E-01-1.83368E-01 1.36642E-02 2.69703E-02
 -1      3322-5.71946E-01 2.19246E-02 2.20733E-02-1.14378E-01 8.74627E-03 7.04522E-02
 -1      3323-1.61754E-01-4.57588E-03 4.77968E-03-3.13790E-02-5.30253E-03 1.99635E-02
 -1      3324-2.81629E-01-5.91672E-03 1.96301E-02-7.51661E-02 1.01791E-02 2.61037E-02
 -1      3325-4.52957E-01-4.39342E-03 2.59874E-02-1.06005E-01 1.71177E-03 4.23669E-02
 -1      3326-7.70629E-01-2.05141E-02 1.39576E-02-9.30861E-02 9.72365E-03 7.19341E-02
 -1      3327-3.36364E-01 2.95602E-02 4.28368E-02-6.99996E-02 4.35545E-03 3.15287E-02
 -1      3328-1.21882E-01-3.47181E-03 1.13617E-02-2.39260E-02-3.24747E-03 1.65401E-02
 -1      3329 2.29808E+02 6.41808E+00 1.00170E+01 3.55841E+01-1.32052E+00 2.85612E-02
 -1      3330 2.26876E+02 1.73397E+00 8.51116E+00 3.08500E+01 1.86605E+00 1.24400E+00
 -1      3331 2.05126E+02-1.25860E+00-1.37907E+00 1.62760E+01 2.13799E+00-1.49635E+00
 -1      3332 2.02932E+02-3.07453E+00-2.43494E+00 1.46790E+01-1.44477E+00 1.70234E+00
 -1      3333 1.86772E+02-4.62188E-02-1.04097E+00 7.45063E+00-1.12896E-01 4.94845E-01
 -1      3334 1.87440E+02 1.13622E-01-4.84945E-01 7.14781E+00-1.23560E-01-6.66378E-03
 -1      3335 1.89125E+02 2.08254E-01-2.15788E+00 7.85886E+00-2.79966E-02 1.45827E+00
 -1      3336 1.88501E+02 2.83210E-01 3.66803E-02 7.18204E+00 1.51466E-03-3.01891E-01
 -1      3337 1.88492E+02 3.05839E-01 1.46004E-01 7.20213E+00 4.36435E-02-1.61103E-01
 -1      3338 1.87912E+02 7.27693E-02-4.31075E-01 6.96895E+00 3.88893E-02-8.16436E-02
 -1      3339 1.89253E+02 8.90425E-01 8.01422E-01 7.19900E+00 1.84195E-02 3.88600E-02
 -1      3340 1.86171E+02 4.92967E-01 1.50112E-01 7.37856E+00 1.63411E-01 6.82313E-01
 -1      3341 1.89348E+02 1.02221E+00 9.81040E-01 7.13971E+00 3.95971E-04-2.69089E-01
 -1      3342 1.86081E+02 9.66162E-01 1.50037E+00 7.24313E+00 2.32904E-01 5.67941E-01
 -1      3343 1.77442E+02 2.31845E+00 1.32816E+00 7.63542E+00 1.60977E-02 1.51110E+00
 -1      3344 1.86618E+02 7.11611E-01 1.12057E+00 7.58138E+00 2.72143E-01-4.93436E-02
 -1      3345 1.52668E+02-9.20557E-01-7.03954E-01 8.27656E+00 3.87536E-01 1.80293E+00
 -1      3346 1.33280E+02 1.59673E+00-8.99042E-01 6.87614E+00-4.19481E-01 1.86803E+00
 -1      3347 1.78574E+02 2.21225E+00 1.81264E+00 8.47375E+00 4.38803E-01 1.62169E-01
 -1      3348 1.70123E+02 1.48034E+00 1.24906E+00 8.79494E+00 2.31127E-01 1.15098E+00
 -1      3349 1.59325E+02 2.60946E+00 6.94367E-01 9.77519E+00-3.89597E-01 4.64432E-01
 -1      3350 1.19413E+02 4.02692E-02-2.75119E+00 5.38775E+00 7.82084E-01 1.00029E+00
 -1      3351 1.06337E+02 6.08033E+00-4.46258E+00-1.95640E+00 2.16628E-01-2.88234E+00
 -1      3352 1.26064E+02 6.49542E-01-3.52948E+00 7.10450E+00-6.14654E-01 5.83877E-01
 -1      3353 1.01567E+02 6.99552E+00 1.24281E+00-7.10299E+00 6.59792E-01-4.34774E+00
 -1      3354 1.31996E+02-7.43475E+00 1.05583E+01-5.40971E+00 4.73782E+00-3.96780E+00
 -1      3355 1.16768E+02 9.90057E+00 3.08563E+00-1.74543E+00 1.15857E+00-2.53921E+00
 -1      3356 1.07605E+02-7.38362E+00 3.14826E+00 6.16543E+00-9.32820E-01-1.75156E+00
 -1      3357 7.88463E+01 3.96741E+00 5.57595E+00 7.77578E+00-5.07969E-01 3.16772E+00
 -1      3358 1.06755E+02-1.15499E+01 2.86246E+00 3.49721E+00 3.31155E+00-2.30537E+00
 -1      3359 4.64897E+01-1.42896E+00 7.90164E-01 4.07858E+00 1.56096E+00 2.43358E+00
 -1      3360 1.98756E+01-7.21240E-01-1.58062E+00 1.50881E+00-5.44567E-01 1.68234E+00
 -1      3361 5.68911E+01-5.18825E+00-2.02589E+00 9.61636E+00 3.08303E-01-6.95747E-01
 -1      3362 7.97195E+00-1.08674E+00-1.37465E+00 6.78834E-01 2.60394E-01 1.09693E+00
 -1      3363 2.15519E+00-5.01198E-01-5.33478E-01 2.86459E-01 8.22240E-02 2.33634E-01
 -1      3364 1.40213E+01 2.63754E-01-3.79792E-01 2.83057E+00 6.24135E-01 3.79380E-01
 -1      3365 4.87918E-01-2.35333E-01-5.44639E-01-1.10772E-01-1.85027E-01 4.86756E-02
 -1      3366-8.06168E-01-2.25773E-01-4.08106E-01-2.85862E-01-1.10120E-01-9.54231E-02
 -1      3367 4.34498E-01-1.10386E+00-1.52069E+00-2.06117E-01 7.28105E-02-9.72829E-02
 -1      3368-1.18641E+00-1.52220E-01-1.43971E-01-1.52098E-01 3.31438E-02-1.59470E-01
 -1      3369-1.09410E+00-9.35114E-02-2.48061E-02-1.52632E-01-4.45172E-02-2.29215E-01
 -1      3370-1.62381E+00-6.01994E-01-4.96976E-01-3.95968E-01 3.52587E-02-4.50313E-02
 -1      3371-6.67552E-01 5.19117E-02 5.70260E-02-1.18661E-01-2.95602E-02-1.19284E-01
 -1      3372-4.75422E-01 2.18336E-02 2.61709E-02-8.33641E-02-9.95215E-03-9.51297E-02
 -1      3373-1.19297E+00-8.68937E-02-4.30678E-02-1.62170E-01-4.07620E-02-1.72134E-01
 -1      3374-3.33128E-01 1.10069E-02 1.24776E-02-5.72988E-02-1.08975E-02-5.95732E-02
 -1      3375-1.45537E-01 2.14448E-02 3.06733E-02-1.61614E-02-1.73614E-03-2.77503E-02
 -1      3376-4.94588E-01 1.75452E-02 3.66005E-02-1.00889E-01-2.49017E-03-7.08428E-02
 -1      3377-1.52355E-01 1.74471E-03 1.77595E-02-2.59284E-02 6.99504E-03-1.78683E-02
 -1      3378-1.21157E-02 3.59220E-03 1.25250E-02-5.39835E-03 5.82301E-04-4.31311E-04
 -1      3379-1.23951E-02 3.18578E-03 1.23907E-02-5.68183E-03-5.59439E-04 3.71044E-04
 -1      3380-4.22372E-02 3.84394E-03 1.55456E-02-1.28086E-02 6.88878E-04 1.32838E-03
 -1      3381-4.31798E-02 4.28709E-03 1.43259E-02-1.28139E-02-2.33871E-03-2.43150E-03
 -1      3382-1.28251E+00-3.07612E-01-1.19599E-01-3.17254E-01-4.59004E-02-2.70710E-02
 -1      3383-1.96484E+00-9.04776E-01-6.20705E-01-4.55837E-01-5.96470E-03 2.80026E-02
 -1      3384-7.46107E-01-1.26448E+00-9.65516E-01-3.54259E-01 6.12550E-03 2.50417E-02
 -1      3385 9.11921E-03-1.04455E+00-1.42170E+00-8.74345E-01-1.17290E-01-3.69464E-02
 -1      3386-8.27466E-02-1.02989E+00-1.50075E+00-9.09954E-01 6.73018E-03 1.97938E-01
 -1      3387 3.64893E+00 3.00764E-01-1.22179E+00 3.54772E-01-8.04669E-02 3.06981E-02
 -1      3388 1.87318E+02 4.60559E-02 7.35738E-01 8.31559E+00 3.76754E-02 4.68194E-02
 -1      3389 1.84314E+02 1.48655E+00 1.29163E+00 9.20827E+00-4.43951E-02-1.03552E-01
 -1      3390 1.86582E+02-9.52321E-02 6.88081E-01 8.38548E+00-5.04842E-02-8.18286E-02
 -1      3391 1.89706E+02 5.33695E-01 7.13332E-01 7.41717E+00 6.67589E-02 4.67796E-02
 -1      3392 1.16215E+02-1.02930E+00-6.64285E+00 1.16432E+01-5.45231E-01 1.41551E+00
 -1      3393 9.75031E+01 1.52439E+00-6.66377E+00 1.40829E+01-1.26085E+00 2.16645E+00
 -1      3394 1.19912E+02-1.48167E+00-6.22994E+00 1.12277E+01 2.31476E-03 2.87686E+00
 -1      3395 1.40734E+02 1.14674E+00-2.46845E+00 1.18996E+01 1.60683E-01 8.14999E-01
 -1      3396-9.68127E-01-3.42797E-02-1.45258E-03-1.01028E-01 6.86651E-03 3.22030E-02
 -1      3397 1.92172E+02-1.13505E+00-3.43119E+00 9.38794E+00 5.80337E-01 1.43684E+00
 -1      3398 1.96135E+02-2.05169E+00-3.22753E+00 1.02608E+01 3.32770E-02 1.22470E-01
 -1      3399 1.88190E+02-6.33681E-01-2.01543E+00 7.19762E+00-2.96168E-01 1.84673E-02
 -1      3400-4.26499E-01-1.21139E-03 3.11983E-02-8.42613E-02 8.24117E-03-1.65868E-02
 -1      3401-6.73575E-01-4.26881E-03 3.73857E-02-1.11681E-01-1.39554E-02-2.27506E-02
 -1      3402-1.03993E+00-3.22443E-02-5.57088E-02-1.52617E-01-1.78630E-02-4.23046E-02
 -1      3403-2.02570E-01-2.24202E-03 3.01366E-02-4.47027E-02-4.56333E-03-4.45333E-03
 -1      3404-3.09481E-01 2.65989E-02 4.78430E-02-6.07821E-02 3.67791E-03 1.08704E-02
 -1      3405-1.77384E-01 3.62501E-03 2.81810E-02-3.55520E-02 1.52256E-03 1.16405E-02
 -1      3406-6.83623E-02 1.31111E-02 2.68637E-02-9.52778E-03-9.31988E-05 4.00665E-04
 -1      3407-1.01684E-01 8.32382E-03 2.14774E-02-1.51212E-02 3.46995E-03-5.11096E-03
 -1      3408-8.93662E-02 9.03651E-03 2.48747E-02-1.23413E-02-2.15111E-03 2.07645E-03
 -1      3409 1.92361E+02-1.39511E+00-3.45361E+00 9.22010E+00-6.53882E-01-1.32397E+00
 -1      3410 1.87387E+02-3.69497E-01-2.59488E+00 7.29262E+00 8.89242E-02-5.33797E-01
 -1      3411 1.23331E+02 1.23553E+01 6.35705E+00-9.49701E-01 3.63213E+00 2.71456E-03
 -1      3412 1.07591E+02 6.51025E+00-4.24163E+00 5.75785E+00-5.74192E-01 2.56391E+00
 -1      3413 1.87356E+02-3.26549E-01-1.82736E+00 7.06181E+00 1.96970E-01 1.87714E-01
 -1      3414 1.87183E+02-1.59583E-01-9.15324E-01 6.88060E+00-2.33898E-02 8.89053E-02
 -1      3415 1.29969E+01-5.55856E-01-1.59355E+00 3.28470E+00 2.80328E-01 4.74626E-01
 -1      3416 5.35095E+01 8.42569E-01 1.98261E+00 1.07031E+01-2.16779E+00 2.20234E+00
 -1      3417 9.93174E+01 6.74243E-01 8.70390E+00 1.56705E+01 1.99846E+00-2.45650E+00
 -1      3418 5.67138E+01 1.39094E+00 5.18629E+00 7.71705E+00 1.31133E+00-9.44368E-01
 -1      3419 2.99956E+01-1.21324E+00-1.95598E+00 5.52450E+00-6.77023E-01-1.06513E-01
 -1      3420 1.30252E+01-9.74938E-01-2.38336E+00 2.75692E+00-7.01613E-01-6.90557E-01
 -1      3421 3.58214E+00 3.21773E-01-1.24904E+00 5.46205E-01 6.14932E-02-9.23358E-02
 -1      3422 1.23443E+02 4.75471E+00 4.03575E+00-1.77528E-01-4.71913E-02 8.82579E-01
 -1      3423 1.39961E+02-4.60672E+00 8.40109E+00-6.63377E+00-4.13789E-02 1.33591E-01
 -1      3424 1.00950E+02-1.41106E+01 1.07450E+00 3.55806E+00 1.01555E+00-4.42918E+00
 -1      3425 1.10306E+02-6.49216E+00 1.08121E+01 5.21593E+00-1.42230E+00 6.27282E-01
 -1      3426 1.88935E+02 3.90348E-01 7.80644E-01 7.60990E+00-8.97119E-02 1.26439E-02
 -1      3427 1.89600E+02 7.31481E-01 6.86959E-01 7.33351E+00-1.85362E-02 2.55973E-02
 -1      3428 1.88687E+02 4.44614E-01 1.03329E-01 7.04229E+00 9.81657E-03-2.17263E-02
 -1      3429 8.56458E+01 1.32101E+00 1.06655E+01 1.13070E+01-1.47690E+00 1.35905E+00
 -1      3430 1.89439E+02 8.23954E-01 5.39663E-01 7.28978E+00 1.16755E-02 2.14418E-02
 -1      3431 2.26641E-04 2.94813E-04-3.81402E-06 2.64348E-04 1.08181E-05 1.06202E-05
 -1      3432 1.51568E-05 3.57057E-04 1.11841E-06-9.28657E-05-1.91868E-05-2.83052E-06
 -1      3433 3.39090E-03 6.86310E-04 1.55779E-03 1.44926E-03 5.13499E-06-4.63729E-05
 -1      3434 1.52999E-03 2.85827E-04-7.84242E-05 9.03634E-04-4.10618E-05-6.95503E-05
 -1      3435 1.20196E-04 3.37348E-04 3.12807E-06 2.11834E-04 8.38639E-07-1.11933E-05
 -1      3436 4.96622E-04 1.98294E-04 1.02461E-05 3.41257E-04 1.67193E-05 1.56594E-05
 -1      3437 8.44353E-04 4.61103E-05 2.61900E-05 3.14494E-04 1.92115E-05 2.23554E-05
 -1      3438 1.30571E-03 4.39613E-05-9.12410E-05 3.43658E-04 1.30737E-05-2.42049E-05
 -1      3439 1.21733E-03-6.06668E-05 1.63798E-05 7.04011E-05 3.45284E-06-3.40980E-05
 -1      3440 2.62878E-04 2.86409E-04-5.94286E-06-2.88058E-04-1.43337E-05 1.21538E-05
 -1      3441 8.22324E-05 3.47067E-04-6.99952E-06-1.94749E-04-6.00566E-06 1.42337E-05
 -1      3442-1.33447E-05 3.37848E-04-4.11652E-06-2.06847E-05-2.03810E-05 2.04004E-06
 -1      3443 2.73982E-05 3.67521E-04-3.55404E-06 1.37866E-04-1.05892E-05-5.80826E-06
 -1      3444 1.29534E-03-8.83950E-05 3.00693E-05-9.35636E-05-5.14813E-06 7.36287E-05
 -1      3445 1.36091E-03 2.57633E-04-1.52025E-04-5.99848E-04-1.44581E-05 5.85806E-05
 -1      3446 9.59484E-04 2.33256E-05 3.30095E-05-2.47664E-04 1.37418E-06-2.96891E-05
 -1      3447 5.44938E-04 2.11590E-04 1.99399E-05-3.76366E-04 1.06311E-05 2.31133E-06
 -1      3448 1.63496E-03 4.46934E-04-1.81382E-04-9.79680E-04-2.36410E-04 3.25681E-04
 -1      3449 6.01459E-06 3.33565E-04-2.11835E-06 4.49464E-05-1.61343E-05-2.77863E-06
 -1      3450-5.84923E-07 3.60142E-04-7.62937E-07 4.84567E-05-1.68126E-05-2.87948E-06
 -1      3451 1.71168E-04 3.17244E-04-7.63777E-06 2.38525E-04 5.31919E-06 8.37405E-06
 -1      3452 1.78610E-04 3.25772E-04-1.92006E-07 2.56045E-04-7.83479E-06-1.06904E-05
 -1      3453 5.33309E-05 3.55085E-04-5.31031E-06-1.59027E-04-1.91015E-05 1.19801E-05
 -1      3454 4.84697E-05 3.55516E-04 5.96325E-08-1.40520E-04-1.02589E-05 1.87936E-06
 -1      3455 1.84374E-04 3.22373E-04-4.30827E-06-2.49417E-04-6.08434E-06 2.09141E-05
 -1      3456 9.42864E-04 1.96105E-05-4.05762E-06 1.51748E-04 1.18073E-05 5.68760E-05
 -1      3457 1.86201E-04 3.49698E-04 1.62725E-06-2.88791E-04-1.31798E-06-8.35502E-07
 -1      3458 1.02393E-03 6.75081E-07 2.05568E-05 1.62288E-04 5.58420E-06 3.01835E-05
 -1      3459 3.71976E-04 2.68108E-04 6.22265E-06 3.54201E-04 1.52665E-05 1.65516E-05
 -1      3460 3.97197E-04 2.68332E-04 9.03365E-06 3.45275E-04 7.83674E-06-4.64920E-06
 -1      3461-9.35206E-07 3.59566E-04 5.78844E-08-4.93187E-05-2.13332E-05 6.21641E-06
 -1      3462 4.34135E-06 3.32566E-04-8.53220E-06-4.99348E-05-2.06969E-05-3.35235E-06
 -1      3463 3.91774E-04 2.70182E-04 4.68875E-06-3.38102E-04-1.56238E-06 2.61428E-06
 -1      3464 7.10601E-04 1.05579E-04 1.38554E-05 3.20319E-04 1.87333E-05 3.49201E-05
 -1      3465 3.86663E-04 2.76723E-04 1.29472E-05-3.26416E-04 7.33321E-06-1.30026E-05
 -1      3466 6.51708E-04 1.27330E-04 1.18048E-06 3.01365E-04 1.39236E-05 1.38029E-05
 -1      3467 1.27155E-03 1.07936E-04-5.51930E-05 5.73789E-04-5.45994E-05-1.57539E-04
 -1      3468 1.45758E-03 5.21048E-04-7.29047E-05 8.00529E-04-2.25613E-04-3.92065E-04
 -1      3469 1.27012E-03 1.33159E-04-4.77166E-05 5.69632E-04 2.98421E-05 2.97975E-05
 -1      3470 1.39737E-03 3.82395E-04 2.33224E-06 7.77377E-04 9.10249E-05 2.70797E-04
 -1      3471 7.72020E-04 9.72218E-05-3.97891E-07-3.43387E-04 2.93531E-06-2.34211E-05
 -1      3472 7.07082E-04 1.16854E-04 9.54857E-06-3.28511E-04 3.31671E-06 9.06420E-06
 -1      3473 1.58819E-03 4.55594E-04-3.94953E-05-8.77133E-04 6.63094E-05-1.41845E-04
 -1      3474 1.28808E-03-3.81638E-05 2.00203E-05 1.93720E-04-3.15178E-06-9.24011E-05
 -1      3475 4.71319E-05 3.50591E-04-5.19780E-06 1.51932E-04 1.26080E-06-9.15728E-07
 -1      3476 1.28933E-03-3.62487E-05 1.19352E-05-1.78800E-04-1.42178E-05 1.30195E-04
 -1      3477 5.08335E-05 3.43308E-04-1.36394E-06 1.45045E-04-1.06561E-05-5.65826E-06
 -1      3478 1.30052E-03-4.08057E-05 1.24087E-05-2.14762E-04-6.95433E-06 1.89956E-05
 -1      3479 1.20247E-03 7.84183E-06 1.07560E-06 1.49701E-04-3.97197E-06-9.49555E-06
 -1      3480 1.09582E-03-1.28857E-05 2.03234E-05-1.31603E-04-3.02586E-06-3.07279E-05
 -1      3481 1.32472E-03 1.01941E-04-1.67546E-05-5.01362E-04-9.48195E-05 1.97392E-04
 -1      3482 1.27141E-03 1.25391E-04 1.23818E-05-5.25181E-04 4.66870E-05-1.99760E-05
 -1      3483 1.11274E-03-5.57579E-05 2.30682E-05-1.48140E-04 1.50798E-05-2.62263E-05
 -1      3484 3.63223E-03 1.10840E-03 2.22543E-03-2.18602E-03-2.66117E-04 4.79317E-04
 -1      3485 3.64575E-03 9.97447E-04 1.37185E-03-1.21593E-03 2.48427E-04 1.12105E-04
 -1      3486 4.87716E-03 1.67479E-03 1.54830E-03 2.04646E-03-2.82752E-04-2.53842E-05
 -1      3487 4.20981E-03 1.77394E-03 1.48415E-03 2.08641E-03 1.67649E-04-7.89078E-05
 -1      3488 4.33293E-03 2.22149E-03 2.49219E-03-2.63302E-03-4.95808E-04 4.53612E-04
 -1      3489 4.01641E-04 2.52519E-03 1.79429E-03 3.19970E-03 1.10306E-03 4.22969E-04
 -1      3490 3.07309E-03 7.54805E-04 6.62290E-04 9.52799E-04-2.11075E-04-3.49168E-04
 -1      3491 4.10444E-03 2.77113E-03 4.68323E-03 3.08417E-03 1.01085E-03 1.42503E-03
 -1      3492 3.22524E-03 8.97132E-04 1.03186E-03-1.22425E-03 1.90503E-04 3.01039E-05
 -1      3493-1.19095E-03 1.99712E-03 2.34408E-03-3.16204E-03-1.47173E-03 4.77512E-04
 -1      3494 4.60024E-03 3.30602E-03 6.03162E-03-3.41834E-03-9.39930E-04 1.14347E-03
 -1      3495 3.55333E-03 6.39434E-04 5.75787E-04 7.56111E-04 1.95531E-04 1.56793E-04
 -1      3496-1.39976E-04 2.20315E-03 1.65862E-03 3.03217E-03-1.05597E-03-4.25270E-04
 -1      3497 4.08399E-03 2.71681E-03 4.73196E-03 3.61844E-03-1.07299E-03-1.08866E-03
 -1      3498 2.54522E-04 2.12015E-03 1.18889E-03-3.16298E-03 8.49977E-04 5.27112E-05
 -1      3499 2.89438E-03 7.36882E-04 6.44035E-04-6.74845E-04-7.44248E-05 4.79223E-04
 -1      3500 5.31478E-03 3.19695E-03 5.63785E-03-4.27023E-03 1.16925E-03-1.58929E-03
 -1      3501 1.29928E-03 3.97182E-04-8.05313E-06-6.97014E-04 8.56736E-05-9.73928E-05
 -1      3502 1.17669E-03 4.27100E-04 1.92968E-04-5.86659E-04 7.73360E-05-2.13968E-04
 -1      3503 2.14058E-03 4.02224E-04 3.20681E-04-1.64574E-03 1.12489E-04 1.62959E-04
 -1      3504 1.90692E-03 5.67233E-04 5.00053E-04-1.53727E-03 3.48360E-04 1.34357E-05
 -1      3505 3.22000E-03 2.07012E-03 1.89762E-03-2.63897E-03-2.20296E-04 4.94937E-04
 -1      3506 1.24210E-03 1.28186E-04-2.52392E-05-4.59285E-04 1.54815E-05 3.16197E-05
 -1      3507 9.76884E-04 2.35533E-04-7.18242E-05-5.25478E-04 5.45113E-05-5.41059E-05
 -1      3508 1.07275E-03 1.00767E-04-1.76607E-04-6.45020E-04 7.53473E-05-9.31445E-05
 -1      3509 1.13319E-03-8.39762E-06-2.39993E-05-1.04549E-04 1.24894E-05 1.99146E-05
 -1      3510 1.17208E-03 4.06363E-05-1.81468E-05-2.97268E-04 5.08113E-09-1.41813E-06
 -1      3511 1.12690E-03-5.95389E-05-6.90718E-05-3.46365E-04 1.20143E-05-9.50692E-06
 -1      3512 8.90467E-04 3.53240E-05-1.61322E-05 2.03372E-04 1.54818E-05 1.58021E-05
 -1      3513 1.13780E-03-3.48958E-05-1.32556E-06 7.38369E-05 5.29425E-06 7.96372E-06
 -1      3514 1.02533E-03-8.98929E-05-5.09901E-05-9.10675E-06-3.18397E-06 6.41178E-05
 -1      3515 5.84899E-04 1.58441E-04-1.32227E-05 3.01895E-04 8.69464E-06 1.20961E-06
 -1      3516 7.71213E-04 8.56692E-05-4.23871E-06 2.65398E-04 1.22234E-06-8.06179E-06
 -1      3517 7.68221E-04 5.71091E-05-3.30969E-05 2.54799E-04 2.05180E-05 3.15057E-05
 -1      3518 3.19362E-04 2.82537E-04-1.05574E-05 3.13638E-04 1.21941E-05-1.17359E-05
 -1      3519 4.50413E-04 1.97167E-04-1.55354E-05 3.04343E-04 4.08766E-06-1.66607E-05
 -1      3520 4.41827E-04 1.36598E-04-4.69764E-05 3.05313E-04 1.49087E-05-6.24281E-07
 -1      3521 1.38496E-04 3.13986E-04-5.65171E-06 2.03459E-04-6.41258E-06-1.11586E-05
 -1      3522 2.09909E-04 3.04194E-04 5.52130E-06 2.71094E-04-8.25516E-06-1.16306E-05
 -1      3523 2.13098E-04 2.39421E-04-3.64544E-05 2.87226E-04-3.33090E-06-2.45083E-06
 -1      3524 4.00564E-05 3.36069E-04-4.29071E-06 1.16678E-04-6.75453E-06-6.05281E-06
 -1      3525 8.36049E-05 3.22764E-04-5.62260E-06 1.65900E-04-1.13513E-05-9.20212E-06
 -1      3526 6.79637E-05 2.85300E-04-3.58996E-05 1.84872E-04-7.43660E-06-3.84620E-06
 -1      3527-2.16990E-05 3.28566E-04-1.68061E-05 1.96493E-05-5.76123E-06-3.21719E-06
 -1      3528 1.40082E-05 3.24350E-04-4.93427E-06 6.85457E-05-1.13857E-05-5.50173E-06
 -1      3529-5.87673E-06 3.03441E-04-2.37948E-05 8.92992E-05-1.10140E-05-5.91939E-06
 -1      3530 1.96266E-05 3.35489E-04-6.48344E-06-7.33363E-05-6.60216E-06-1.70927E-06
 -1      3531-2.95586E-06 3.55263E-04-2.77522E-06-3.91908E-05-1.30772E-05-1.63608E-06
 -1      3532-2.76360E-05 2.98115E-04-1.77394E-05-2.09832E-06-1.76915E-05 2.15162E-09
 -1      3533 7.76931E-05 3.57051E-04-5.82761E-06-1.72439E-04 2.42088E-06-1.89837E-06
 -1      3534 3.52266E-05 3.40756E-04-1.01824E-05-1.09742E-04-6.72461E-06-2.73157E-06
 -1      3535 3.99586E-06 3.15152E-04-2.57943E-05-8.83495E-05-1.68794E-05-5.10424E-06
 -1      3536 2.17388E-04 3.28449E-04 4.27132E-06-2.89771E-04 5.87609E-06-1.64517E-05
 -1      3537 1.37781E-04 3.31416E-04-9.13787E-06-2.16820E-04-1.36189E-06-6.83258E-06
 -1      3538 6.08140E-05 2.88248E-04-2.90612E-05-1.92928E-04-7.80364E-06 1.16629E-05
 -1      3539 4.74178E-04 2.16547E-04-5.15196E-06-3.29344E-04 1.19423E-05-2.34108E-05
 -1      3540 3.34190E-04 3.01245E-04-6.88829E-06-3.28839E-04 1.28106E-06-1.39263E-05
 -1      3541 2.46480E-04 2.67871E-04-2.20022E-05-2.97917E-04 6.09182E-06-2.06746E-05
 -1      3542 8.30567E-04 7.96173E-05-1.95947E-05-2.71863E-04-3.79795E-06-3.34767E-05
 -1      3543 6.69085E-04 1.52031E-04-2.21295E-05-3.32960E-04-1.10017E-05-1.98084E-05
 -1      3544 4.72615E-04 1.48577E-04-2.11203E-05-3.25606E-04 2.98134E-06-7.88947E-06
 -1      3545 1.18446E-03-3.42083E-05 3.69585E-07-9.29296E-05-1.12209E-05-3.11072E-05
 -1      3546 9.71619E-04 4.90157E-05-1.43317E-06-1.93418E-04-3.38435E-07-1.92388E-05
 -1      3547 8.04003E-04-2.48497E-05-5.98654E-05-2.29102E-04-2.10258E-06-1.95574E-05
 -1      3548 1.18317E-03 2.49347E-05-2.86232E-05 2.80152E-04-1.45965E-05-6.88041E-05
 -1      3549 1.15903E-03-2.20865E-05-3.05058E-05 7.87674E-05-2.00619E-05-3.66063E-05
 -1      3550 1.06837E-03-1.07350E-04-5.13207E-05 2.52309E-05 3.93241E-06-2.98592E-05
 -1      3551 1.01240E-03 2.60083E-04-1.95508E-06 5.69368E-04-6.19713E-05-1.48608E-04
 -1      3552 1.28708E-03 1.16177E-04-1.78405E-05 4.70841E-04-3.49594E-05-6.85196E-05
 -1      3553 1.14278E-03-1.97880E-05-8.85786E-05 3.61282E-04-2.26724E-05-1.42583E-04
 -1      3554 1.15514E-03 3.96175E-04 7.31210E-05 5.39885E-04-1.83724E-04-2.87281E-04
 -1      3555 1.13646E-03 4.38946E-04-2.76897E-05 6.55880E-04-1.19938E-04-2.00534E-04
 -1      3556 1.16973E-03 2.14669E-04-1.50444E-04 6.68238E-04-1.04086E-04-3.18324E-04
 -1      3557 1.80726E-03 6.38276E-04 2.66862E-04 1.45682E-03-1.82996E-04-3.12752E-04
 -1      3558 3.11760E-04 2.65227E-04-1.13610E-05-2.89579E-04 3.08036E-06 1.30697E-05
 -1      3559 4.73854E-04 2.04835E-04-3.92836E-06-3.23306E-04-5.63584E-06 1.45106E-05
 -1      3560 1.29719E-04 3.29226E-04-1.87660E-05-2.08533E-04-5.58927E-06 1.10566E-05
 -1      3561 2.23538E-04 3.29879E-04-6.32058E-06-2.92408E-04-1.41191E-05 2.07051E-05
 -1      3562 2.51540E-04 2.73694E-04-2.20178E-05-2.80189E-04 2.10582E-07 1.31291E-06
 -1      3563 6.43450E-04 1.56297E-04-7.00267E-06-3.23595E-04 9.28637E-06 1.13623E-05
 -1      3564 7.92211E-04 8.15431E-05-9.93817E-06-2.64346E-04-4.44582E-07 2.13030E-05
 -1      3565 4.76076E-04 1.43234E-04-2.29201E-05-3.35276E-04 4.96834E-06 4.52298E-06
 -1      3566 9.41513E-04 4.87239E-05-1.00638E-06-1.92598E-04 2.12085E-05-7.16940E-06
 -1      3567 1.14728E-03-7.29078E-05 7.80299E-06-8.43437E-05 5.33134E-06-8.19296E-06
 -1      3568 7.74713E-04-1.86697E-05-6.03929E-05-2.34569E-04 4.98501E-06-1.34780E-05
 -1      3569 1.19221E-03-4.86977E-05-5.01695E-06 8.47171E-05 1.32228E-06-1.36481E-05
 -1      3570 1.12725E-03 2.71673E-05-4.39447E-05 2.70434E-04-7.60222E-07 1.92195E-05
 -1      3571 1.08669E-03-9.83546E-05-3.44048E-06 7.04353E-06 2.80161E-06-2.16563E-05
 -1      3572 1.25803E-03 1.15337E-04-1.67594E-05 4.73091E-04 8.81137E-06-1.16600E-05
 -1      3573 9.91524E-04 2.67354E-04-1.96876E-05 5.60393E-04 3.49276E-05 6.85153E-05
 -1      3574 1.18510E-03 7.24925E-05-7.28282E-05 3.25389E-04 9.85968E-06 3.22779E-05
 -1      3575 1.18339E-03 4.28503E-04 1.64231E-05 6.54371E-04 7.99686E-05 1.41253E-04
 -1      3576 1.09179E-03 1.98609E-04-4.36326E-05 3.37589E-04-4.64068E-05 1.67978E-04
 -1      3577 1.14278E-03 2.24362E-04-1.37939E-04 6.61209E-04 8.19150E-05 2.30948E-04
 -1      3578 1.97602E-03 3.23091E-04 2.83791E-04 1.38466E-03-4.25152E-05 3.13949E-04
 -1      3579 1.08191E-03 3.69507E-04-3.59387E-05-6.44740E-04-2.59553E-04 2.93752E-04
 -1      3580 1.21963E-03 4.37129E-04-1.14339E-04-7.13715E-04-2.03910E-04 2.57846E-04
 -1      3581 2.49031E-03 8.84523E-04 6.78465E-04-1.17623E-03-6.57337E-05 3.39533E-04
 -1      3582 9.77510E-04 2.27479E-04-6.01133E-05-5.11184E-04-9.04581E-05 1.65003E-04
 -1      3583 1.27953E-03 1.12034E-04-2.14163E-05-4.46304E-04-5.09769E-05 8.51626E-05
 -1      3584 1.17574E-03 1.55386E-04-2.09209E-04-6.76132E-04-1.93701E-04 2.79758E-04
 -1      3585 1.18631E-03 3.59362E-05-2.21893E-05-2.68301E-04-1.10654E-05 1.00351E-04
 -1      3586 1.20994E-03-5.95879E-05-2.08632E-05-2.31017E-05-1.74444E-05 4.39521E-05
 -1      3587 1.22775E-03-1.59472E-05-4.36283E-05-3.29743E-04-5.03088E-05 1.76022E-04
 -1      3588 1.06268E-03-9.14028E-06-1.74103E-06 1.36427E-04 1.24936E-05 4.74447E-05
 -1      3589 9.09741E-04 4.42411E-05-1.15234E-05 2.07869E-04 5.42886E-06 4.05588E-05
 -1      3590 1.07671E-03-1.78939E-05-2.04318E-05 3.25257E-05-2.66933E-06 7.36827E-05
 -1      3591 8.06442E-04 9.04782E-05 3.57182E-06 2.84561E-04 1.67138E-05 4.77338E-05
 -1      3592 6.12801E-04 1.64497E-04-7.53843E-06 3.15051E-04 1.05319E-05 3.60830E-05
 -1      3593 7.85209E-04 3.25601E-05-8.67124E-06 2.25449E-04 6.49336E-06 4.89362E-05
 -1      3594 4.70802E-04 2.15696E-04-6.33269E-06 3.14519E-04 1.77887E-05 3.14055E-05
 -1      3595 3.23784E-04 2.96715E-04-1.11513E-06 3.25957E-04 2.14675E-06 1.93542E-05
 -1      3596 4.43976E-04 1.23896E-04-5.19482E-05 3.19096E-04 2.70984E-05 2.00239E-05
 -1      3597 2.11824E-04 3.22839E-04-3.84978E-06 2.79638E-04 1.50725E-05 1.43352E-05
 -1      3598 1.40233E-04 3.22634E-04-1.13454E-05 2.11036E-04 6.17894E-06 6.50001E-06
 -1      3599 2.30608E-04 2.84023E-04-2.50343E-05 2.89328E-04 3.45806E-07 1.24978E-05
 -1      3600 8.61670E-05 3.33541E-04-4.95828E-06 1.71779E-04 4.53961E-06 5.93367E-06
 -1      3601 4.00172E-05 3.47129E-04-5.86236E-06 1.21620E-04-1.56911E-06 3.21355E-06
 -1      3602 8.71436E-05 3.00144E-04-2.32238E-05 1.84591E-04 4.67856E-06-1.53363E-06
 -1      3603 1.47560E-05 3.31572E-04-5.24839E-06 7.00653E-05-7.27204E-06-2.82745E-07
 -1      3604-1.27142E-05 3.30912E-04-8.18057E-06 2.69744E-05-1.18466E-05 1.76795E-06
 -1      3605-2.23668E-06 3.07221E-04-2.28199E-05 9.03233E-05-1.03512E-05-2.95342E-06
 -1      3606-2.04486E-05 3.50277E-04-2.86819E-06-2.45750E-05-9.18923E-06 4.60025E-06
 -1      3607 1.83453E-05 3.34809E-04 8.03631E-07-7.04795E-05-1.51489E-05 4.37748E-06
 -1      3608-2.58230E-05 2.99901E-04-2.11720E-05 2.92865E-06-1.82637E-05 3.08518E-06
 -1      3609 3.49939E-05 3.35165E-04-1.21150E-05-1.09948E-04-1.09686E-05 7.08447E-06
 -1      3610 7.85472E-05 3.52174E-04-2.50908E-06-1.73184E-04-1.91499E-05 1.44338E-05
 -1      3611-1.89013E-06 2.97854E-04-2.57780E-05-9.15543E-05-2.04803E-05 5.86619E-07
 -1      3612 8.57931E-05 2.93961E-04-3.39387E-05-1.91882E-04-1.25959E-05 2.01358E-05
 -1      3613 2.72631E-03 1.17935E-03 4.26592E-03 2.89119E-03 1.01142E-03 3.27857E-04
 -1      3614 2.97898E-03 1.37306E-03 4.75531E-03 3.48516E-03-8.29851E-04-2.55303E-04
 -1      3615 3.28808E-03 1.65744E-03 1.88560E-03 2.19724E-03 1.96169E-04-2.04041E-04
 -1      3616 3.86626E-03 1.21797E-03 2.17505E-03 2.17657E-03-3.09054E-04 2.18651E-04
 -1      3617 3.49740E-03 1.88759E-03 5.23910E-03-2.80371E-03-1.32130E-03 4.06318E-04
 -1      3618 3.86730E-03 1.90066E-03 5.87347E-03-4.12568E-03 1.75956E-04-4.22817E-04
 -1      3619 3.52131E-03 7.55369E-04 2.50530E-03-1.53099E-03-9.62694E-05 2.58260E-04
 -1      3620 1.39594E-03 1.78989E-04-6.66030E-05-5.52608E-04-5.36874E-05 1.43284E-04
 -1      3621 1.15536E-03 6.70824E-05-1.39174E-04-3.97827E-04-1.63380E-05 9.20807E-05
 -1      3622 1.42519E-03 2.83860E-04-1.89188E-04-7.65941E-04-8.98252E-05 1.42218E-04
 -1      3623 1.21984E-03 1.75802E-04-8.38690E-05-5.27378E-04 1.38970E-05-1.39967E-06
 -1      3624 1.45223E-03 3.75995E-04-1.25021E-04-7.11751E-04 3.85366E-05-7.97986E-05
 -1      3625 1.13472E-03 3.16380E-05-1.36999E-04-3.91326E-04-1.30136E-05 5.93397E-05
 -1      3626 1.17693E-04 3.07637E-04 3.04728E-07 2.08926E-04 4.22036E-06 1.58410E-06
 -1      3627 5.78515E-05 2.96211E-04-1.45153E-05 1.68452E-04-2.10079E-06-5.02086E-06
 -1      3628 2.29503E-05 2.70855E-04-4.58700E-05 1.59993E-04-4.40327E-06-1.53970E-05
 -1      3629 4.19941E-05 3.69820E-04 3.71290E-07 1.49515E-04 2.88348E-06 3.71586E-06
 -1      3630 4.60604E-05 2.86956E-04-3.39135E-05 1.65242E-04-2.49313E-07-1.12067E-05
 -1      3631 1.52716E-04 3.39761E-04-2.02312E-06 2.45601E-04-2.39995E-05-2.17707E-05
 -1      3632 4.17968E-05 3.65851E-04 1.24523E-05 1.40997E-04-1.80905E-05-1.24468E-05
 -1      3633 1.81606E-04 3.09533E-04-1.12945E-05 2.51700E-04 3.44808E-06 1.30934E-05
 -1      3634 1.49627E-04 2.88486E-04-1.52224E-05 2.31875E-04 1.11685E-05 9.25887E-06
 -1      3635 1.98460E-04 2.88135E-04-1.82458E-06 2.49473E-04-4.36460E-06-3.72653E-06
 -1      3636 5.33603E-04 1.21932E-04-4.78208E-06 3.22164E-04 2.73687E-05 1.56566E-05
 -1      3637 7.84930E-04 9.06631E-05 3.43571E-05 3.29350E-04-6.26016E-06 1.30567E-05
 -1      3638 5.40247E-04 5.66277E-05-4.88752E-05 3.14917E-04 2.70836E-05 2.41231E-05
 -1      3639 6.81156E-04 1.08124E-04 2.15055E-05 3.08030E-04 4.62897E-05 2.00569E-05
 -1      3640 5.19242E-04 1.22827E-04-1.69070E-05 3.13912E-04 1.83206E-05 1.27488E-05
 -1      3641 3.92731E-04 1.98274E-04-4.04823E-06 3.43494E-04-4.04625E-07-4.04768E-06
 -1      3642 3.04033E-04 2.27011E-04-2.06311E-05 2.91536E-04 1.14806E-05 9.42356E-06
 -1      3643 2.84871E-04 2.95243E-04-2.60628E-06 3.01967E-04 2.45116E-05 1.17352E-05
 -1      3644 4.43985E-04 2.27153E-04 7.79115E-06 3.46667E-04 3.20300E-05 3.05661E-05
 -1      3645 2.58904E-04 2.37369E-04-1.47605E-05 2.89650E-04 8.00591E-08 9.75904E-06
 -1      3646 7.04722E-05 3.65491E-04-3.25034E-06-1.84423E-04-2.64186E-06 1.16528E-05
 -1      3647 1.01139E-04 2.87018E-04-2.63086E-05-2.08817E-04-1.45418E-05 2.68143E-05
 -1      3648 1.87559E-04 2.94733E-04 2.58235E-06-2.54831E-04-3.68772E-06 1.85247E-05
 -1      3649 1.30542E-04 2.79966E-04-2.11364E-05-2.25761E-04-1.62713E-06 2.43734E-05
 -1      3650 1.76037E-05 3.12892E-04-1.83476E-05-1.33148E-04-2.67321E-05 7.59807E-06
 -1      3651 4.00980E-06 3.09341E-04-8.41892E-06-1.11682E-04-2.53312E-05 2.13337E-06
 -1      3652 2.90013E-05 3.55534E-04-4.04619E-06-1.26158E-04-3.56509E-06-7.38799E-06
 -1      3653 4.94136E-05 3.13414E-04-4.77160E-06-1.56774E-04-9.27096E-06 2.76492E-07
 -1      3654 8.46110E-05 2.93783E-04-3.14666E-05-2.29830E-04 5.67418E-06 1.03320E-05
 -1      3655 2.23234E-04 3.02313E-04-1.28807E-05-2.87455E-04-1.62662E-05 1.64715E-05
 -1      3656-3.13674E-05 2.84205E-04-3.22026E-05 1.23252E-05-1.74405E-05 4.19235E-06
 -1      3657-7.60588E-06 3.55415E-04-5.36142E-06-3.59050E-05-3.32731E-05 5.88949E-06
 -1      3658-1.19612E-05 3.02159E-04-1.15192E-05-6.60186E-05-2.25765E-05 2.50545E-06
 -1      3659-2.25580E-05 2.97836E-04-1.30565E-05-5.10678E-05-6.46430E-06-1.63924E-06
 -1      3660-1.34274E-05 3.10225E-04-7.32901E-06-2.57814E-05-2.10587E-05-1.22293E-06
 -1      3661-4.25651E-05 2.83977E-04-3.27948E-05 1.10234E-05-2.02484E-05-9.27323E-07
 -1      3662-4.90827E-06 3.35633E-04-2.21488E-05-6.28633E-05-2.83821E-05-6.33039E-06
 -1      3663 7.43106E-06 3.56613E-04 6.90261E-06 4.39170E-05-1.79587E-05 1.96427E-06
 -1      3664 1.39181E-03 1.83835E-04-9.45242E-05 7.25388E-04-6.33615E-06-3.02735E-05
 -1      3665 1.31462E-03 2.82245E-04-2.74306E-04 8.97348E-04 8.43208E-05 1.29379E-04
 -1      3666 1.27131E-03 1.94032E-05-6.07938E-05 2.21435E-04 1.26989E-05-3.45729E-05
 -1      3667 1.16556E-03-8.30849E-06-1.77874E-04 4.25978E-04 3.31395E-05 2.14614E-05
 -1      3668 1.20412E-03 9.20046E-05-2.15510E-04 5.58824E-04-1.50509E-05-5.25818E-05
 -1      3669 2.16537E-03 4.14566E-04 5.10636E-04 1.16780E-03 1.33224E-04 2.90546E-04
 -1      3670 2.19709E-03 6.03781E-04 5.06602E-04 1.26960E-03-1.38073E-04-2.32289E-05
 -1      3671 2.88448E-04 2.78547E-04-3.85310E-06-3.05279E-04-1.44215E-05 3.40718E-06
 -1      3672 1.30907E-03-6.46312E-05 1.67871E-05-1.46120E-04-2.23991E-05 1.46551E-04
 -1      3673 1.01012E-03-4.83049E-05-2.49154E-05 5.02014E-05 1.54192E-05 6.14632E-05
 -1      3674 9.46379E-04-1.06773E-05 1.57509E-05 1.54663E-04 8.23618E-06 4.16495E-05
 -1      3675 9.98577E-04-9.65625E-05-9.65829E-06 5.08670E-05 1.52165E-05 5.25279E-05
 -1      3676 8.08399E-04-2.43143E-05-3.03930E-05 2.09506E-04 6.62312E-06 4.81693E-05
 -1      3677 8.98875E-04 1.38819E-05 3.53922E-05 2.42373E-04 6.30360E-07-2.05018E-05
 -1      3678 1.61105E-03 3.60234E-04-9.66992E-05-8.94179E-04-4.80805E-05 5.02537E-06
 -1      3679 2.76923E-03 6.24393E-04 9.30012E-04-1.82189E-03-1.07709E-04 2.91216E-04
 -1      3680 1.16970E-03 1.81889E-05-1.19375E-04 4.37931E-04-4.40289E-05-1.38005E-04
 -1      3681 1.22118E-03 6.13566E-06-2.23952E-05 2.86948E-04 3.06290E-06-8.49513E-05
 -1      3682 1.19794E-03-4.30627E-05-5.91478E-05 2.19663E-04 3.14751E-05 1.57845E-05
 -1      3683 1.29868E-03-7.32776E-05 2.52264E-06 1.37660E-04 1.87809E-06-1.13586E-04
 -1      3684 1.00857E-03-9.57700E-05-3.74411E-05-2.67988E-05-1.18402E-05-2.86360E-05
 -1      3685 1.44625E-03 3.93333E-04-9.33767E-05 8.72841E-04-1.43263E-04-2.33141E-04
 -1      3686 1.40063E-03 1.45142E-04-1.09531E-04 7.21745E-04-3.77299E-05-9.95768E-05
 -1      3687 2.20308E-03 7.93241E-04 5.09257E-04 1.37270E-03-1.33465E-04-3.48113E-04
 -1      3688-1.91204E-05 2.89301E-04-3.04632E-05 7.79834E-05-1.76439E-05-1.82719E-07
 -1      3689 1.09230E-03 1.67299E-06-1.53034E-04-3.38054E-04-1.85121E-05 7.17524E-05
 -1      3690 1.26083E-03-9.12745E-05-2.44730E-05-1.50443E-04-1.73637E-06-3.92460E-06
 -1      3691 9.26524E-04-8.59945E-05-3.00410E-05-7.61124E-05-2.65590E-05-3.31705E-05
 -1      3692 1.03557E-03-4.50355E-06 4.71127E-05-1.84335E-04 2.26513E-06-8.17906E-05
 -1      3693 1.01275E-03-1.50132E-04-5.31727E-05-3.77385E-05 7.82339E-06-3.46167E-05
 -1      3694 9.89635E-04-2.37911E-05 2.44611E-05-2.03678E-04-1.37261E-05 1.31376E-05
 -1      3695 7.47008E-04-2.07876E-05-4.95061E-05-2.84872E-04-7.17805E-07-2.67071E-05
 -1      3696 6.30212E-04 3.01907E-05-2.93570E-05-2.86880E-04 2.00536E-05-6.31601E-06
 -1      3697 6.20533E-04 1.24219E-04 1.28429E-05-3.57329E-04 3.47091E-05-3.83202E-05
 -1      3698 7.25039E-04 2.64561E-05-9.62965E-06-2.71560E-04 1.27972E-05-5.51275E-06
 -1      3699 6.28415E-04 1.35446E-04 1.86637E-05-3.53680E-04-7.77628E-06 2.94719E-05
 -1      3700-3.39224E-05 2.83233E-04-4.38986E-05 8.19254E-05-1.54494E-05-3.51937E-06
 -1      3701 1.16684E-03-5.81680E-05 6.18292E-06 8.40042E-05 2.93135E-06-2.91378E-05
 -1      3702 4.26354E-04 2.40369E-04-1.53171E-05-3.60860E-04 2.25798E-05 6.46568E-06
 -1      3703 3.57382E-04 2.43634E-04-8.18914E-06-3.20059E-04-2.36290E-05 3.26442E-06
 -1      3704 3.23463E-04 2.62110E-04 4.23994E-06-3.00623E-04-3.25143E-06-1.82202E-06
 -1      3705 4.00107E-04 2.06006E-04-9.35281E-07-3.28786E-04-5.69719E-06-8.51252E-06
 -1      3706 3.46751E+02 6.90642E+01 3.73780E+01 1.63630E+01 3.18879E+00 1.85037E+00
 -1      3707 3.35908E+02 8.93827E+01 3.92460E+01-6.97506E+00 4.91343E+00-2.60253E+00
 -1      3708-9.13154E+00-9.16148E+00-2.36136E+01-6.32061E+01 1.91697E+00-2.17691E+00
 -1      3709 2.35072E+02 9.16050E+00 1.03329E+01 4.67245E+01-6.35916E+00 5.58281E+00
 -1      3710 2.60660E+02 2.13882E+01 1.65521E+01-3.64016E+01-9.69332E+00-4.13759E+00
 -1      3711-4.58815E+01 1.22482E+01-1.35096E+01-3.43574E+01-2.06252E+00 1.32548E+00
 -1      3712 1.85561E+02-1.83236E+01 2.03518E-01-5.96618E+01 3.06338E+00 8.08255E+00
 -1      3713 1.24541E+02-1.99671E+01-1.02273E+01 5.96091E+01 2.25172E+00-6.63762E+00
 -1      3714-3.28224E+01 2.09922E+01-3.04903E+00-9.21662E+00 2.62812E-01-1.83371E+00
 -1      3715-3.88559E+01 2.03204E+01-3.42667E+00-1.26050E+01-3.90977E-01-1.85320E-01
 -1      3716-1.13816E+01-1.35769E+01-2.40124E+01-6.83620E+01-1.05701E+00 8.04687E+00
 -1      3717-2.96366E+01 2.12176E+01-1.79081E+00 8.46112E+00-1.99001E-01 6.70419E-01
 -1      3718-3.78427E+01 7.23933E+00-1.64196E+01 4.79807E+01-5.62653E-01-1.89798E+00
 -1      3719-1.80159E+01-5.23487E+00-1.96071E+01 6.51621E+01 1.74086E-01 7.84101E+00
 -1      3720-4.17180E+01 1.93577E+01-5.89472E+00 2.33287E+01 8.83588E-02-2.15902E-02
 -1      3721-2.74062E+01 2.45478E+01-3.55624E-01-5.34230E+00-1.00302E+00 8.43474E-01
 -1      3722-3.88104E+01 2.00267E+01-3.51100E+00-1.71779E+01-1.41521E+00 1.87868E+00
 -1      3723-3.34864E+01 2.14689E+01-2.54037E+00 1.61581E+01 4.49836E-01 1.48624E+00
 -1      3724-2.63470E+01 2.61801E+01-6.12125E-01 4.98523E+00 4.86352E-01 5.66468E-01
 -1      3725-2.95913E+01 2.26028E+01-1.35498E+00 4.72509E+00 2.43102E-01 5.67253E-01
 -1      3726-2.88847E+01 2.05902E+01-1.26637E+00-4.44805E+00-3.11145E-01 3.95118E-01
 -1      3727-3.50918E+01 2.22021E+01-2.52334E+00-1.72049E+01 8.81341E-01-2.60280E+00
 -1      3728-2.67931E+01 2.67439E+01-9.97224E-01-5.28182E+00 1.08412E+00-1.11307E+00
 -1      3729-2.69946E+01 2.61689E+01-9.95678E-01 8.33283E+00-8.05597E-01-7.39889E-01
 -1      3730-3.87989E+01 2.49855E+01-2.86250E+00 2.21197E+01-4.14683E-02-2.68585E+00
 -1      3731-3.29216E+01 2.04500E+01-3.45305E+00-4.03535E+00 8.29167E-01-1.52102E+00
 -1      3732-3.12614E+01 2.14109E+01-2.58112E+00 7.27947E+00-5.02167E-01-3.60456E-01
 -1      3733 1.46739E+01-1.83688E+01-2.19297E+01-6.97743E+01-3.53756E-01 2.00314E+01
 -1      3734-5.11558E+01 1.09906E+01-1.63038E+01-4.30940E+01 2.45483E-01 3.59080E+00
 -1      3735-6.68875E+01-1.18422E+01-3.25292E+01-5.50630E+01-3.02899E+00 6.72344E+00
 -1      3736-4.47021E+01 1.88279E+01-9.11199E+00-2.57430E+01-1.71906E+00-1.65898E+00
 -1      3737-3.83628E+01 1.72587E+01-8.36374E+00-1.51283E+01-2.63526E-01-2.42918E+00
 -1      3738 1.42913E+02-2.54383E+01-1.07330E+00-7.12112E+01 2.46699E+00 1.79486E+01
 -1      3739 2.54918E+02 1.43863E+00 5.50738E+00-3.39533E+01 9.88007E+00 6.77190E+00
 -1      3740 6.70939E+01-3.13306E+01-1.83029E+01-7.99298E+01-1.81780E-02 8.20545E+00
 -1      3741 3.16128E+02 7.66251E+01 3.22734E+01-6.01565E+00 1.21731E+01-2.38520E+00
 -1      3742 3.19534E+02 7.92894E+01 3.19379E+01-5.32782E+00-5.71491E+00-1.82575E+00
 -1      3743 2.81148E+02 5.39642E+01 2.99310E+01-1.37339E+01 6.81201E+00 3.21001E+00
 -1      3744 1.69839E+02-9.60584E+00 6.15663E+00 6.25023E+01-4.72152E+00 1.80553E+01
 -1      3745 2.67702E+02 8.93438E+00 7.09936E+00 3.03943E+01-1.20038E+01 2.21062E+00
 -1      3746 3.19077E+02 7.66098E+01 4.12529E+01 8.30369E+00-2.63564E+00-1.12427E-01
 -1      3747-5.15608E+01 1.25416E+01-1.32329E+01 4.43065E+01-1.24439E+00 2.82669E+00
 -1      3748-1.57898E+00-1.83277E+01-2.47104E+01 7.36422E+01-2.36607E+00 1.64158E+01
 -1      3749 1.01932E+02-1.35502E+01-1.25320E+01 7.06165E+01-4.50944E+00 9.03576E+00
 -1      3750-7.19997E+01-5.85267E+00-2.90079E+01 4.23452E+01 1.02149E+00 3.42859E+00
 -1      3751 1.18898E+01-2.21921E+01-2.43145E+01-7.33979E+01-3.71946E-01-1.66164E+01
 -1      3752-4.26608E+01 1.34622E+01-1.46086E+01-3.99562E+01 1.43042E+00-9.69833E-01
 -1      3753-6.03513E+01 5.03297E+00-2.10809E+01-3.15740E+01 1.12186E+00-2.22447E+00
 -1      3754 2.79644E+02 2.29301E+01 1.49388E+01-2.21989E+01-1.25076E+01-1.07696E+00
 -1      3755 1.75373E+02-1.77611E+01 1.86910E+00-6.61997E+01-5.78406E+00-1.71726E+01
 -1      3756 1.02982E+02-2.10245E+01-1.86878E+01-7.89247E+01-1.06734E+00-7.47521E+00
 -1      3757 3.16892E+02 4.43768E+01 2.05306E+01 1.24282E+01 1.05736E+01 1.21913E+00
 -1      3758 3.08473E+02 9.88012E+01 3.55251E+01 1.01921E+00-4.85405E+00 2.82968E+00
 -1      3759 3.34007E+02 1.01170E+02 5.17136E+01 1.06288E+00-7.94809E+00-9.26726E-01
 -1      3760 2.35787E+02-1.30958E+01 3.72909E+00 3.93653E+01 1.10778E+01-1.24624E+01
 -1      3761 1.21798E+02-1.45230E+01 9.79326E-01 6.69519E+01 7.02966E-02-1.62854E+01
 -1      3762 3.06950E+02 4.89591E+01 4.51212E+01 3.32815E+01 6.39006E+00-2.97632E+00
 -1      3763-2.86452E+01-1.19928E+01-2.68327E+01 6.78329E+01-5.41950E-01-1.34226E+01
 -1      3764-4.46912E+01 1.59846E+01-1.06398E+01 3.18733E+01-1.01964E+00 1.69576E+00
 -1      3765-7.58935E+00-1.92417E+01-3.28925E+01 7.24411E+01 7.11546E-01-4.30161E+00
 -1      3766-3.21319E+01 1.83716E+01-6.40341E+00 1.64216E+01-4.19344E-03 1.64747E+00
 -1      3767-3.09050E+01 2.06923E+01-1.80903E+00 4.29693E+00 3.55683E-01 2.41999E-02
 -1      3768-3.25526E+01 2.00645E+01-2.93468E+00-5.17238E+00 5.38901E-01-1.35079E+00
 -1      3769-3.15763E+01 1.84290E+01-3.56253E+00 1.12485E+01-4.06819E-02 3.06771E-01
 -1      3770-4.06100E+01 1.52563E+01-7.94317E+00-9.02998E+00 3.20692E-01-1.66694E+00
 -1      3771 2.87776E+01-2.54319E+01-2.96260E+01 7.95452E+01-2.17577E+00 2.36545E-01
 -1      3772 1.72758E+02-1.05936E+01-4.85903E+00 5.67989E+01-2.79653E+00-1.89306E+00
 -1      3773 3.46399E+02 9.73595E+01 5.11262E+01 2.87636E+00 5.75761E+00 2.31248E+00
 -1      3774 3.13204E+02 4.98132E+01 3.72643E+01 2.90616E+01-3.40314E+00 6.21815E+00
 -1      3775-4.97007E+01 7.51536E+00-1.50559E+01 3.20254E+01 3.84611E-01-3.33793E+00
 -1      3776-4.91941E+01 1.38830E+01-1.01026E+01-2.33489E+01-7.09957E-01 2.25692E+00
 -1      3777-5.52247E+01-6.31387E+00-2.59248E+01-5.07742E+01-1.13964E+00-2.25368E+00
 -1      3778 6.86700E+01-2.71983E+01-2.53523E+01-7.84877E+01 3.66980E+00 3.73896E+00
 -1      3779-2.16335E+01-1.78829E+01-2.43310E+01-6.80816E+01-1.24391E+00 2.50965E+00
 -1      3780 2.22647E+02-8.01667E+00 6.59639E+00-5.03552E+01 1.50610E-02 2.72790E+00
 -1      3781 3.13536E+02 8.54108E+01 4.50433E+01-8.78784E-01-3.41879E+00-9.35019E-01
 -1      3782-3.71337E+01-2.09539E+00-2.33970E+01 5.99273E+01 6.58879E-01 4.91953E+00
 -1      3783-2.35960E-01 3.50196E-02-6.05682E-02 2.27447E-01-3.52250E-03 3.75336E-02
 -1      3784-2.28835E-01-4.43045E-02-7.93364E-02-2.23626E-01 3.44754E-03-4.06079E-02
 -1      3785 4.47585E+01-3.70058E+01 2.29763E+00 4.64949E+00-1.41936E+00-1.09644E+00
 -1      3786-2.18074E+00 1.85391E+00-9.61575E-02-4.32666E-01 2.81061E-02-7.48466E-02
 -1      3787 7.05801E+01-3.67618E+01 9.53446E+00 7.68620E+00 2.18933E+00-1.68696E+00
 -1      3788 1.44742E+02 2.15161E+01 5.56648E+01-2.35988E+01-3.71920E+00-9.95047E+00
 -1      3789-1.17542E+00 8.94295E-01-8.32968E-02 7.53452E-01-9.21170E-03-3.48165E-02
 -1      3790-9.86281E-01 7.29523E-01-7.32766E-02-7.32665E-01-1.28333E-02 3.50517E-02
 -1      3791 1.54723E+02 3.14928E+01 5.97682E+01 2.45814E+01-5.72658E+00 1.52227E+01
 -1      3792-3.93479E+00 3.10523E+00-2.40788E-01 3.76992E+00 2.74040E-02-1.90166E-02
 -1      3793 3.13104E+01-3.44837E+01-1.10196E+00-1.06615E+01 1.53082E+00-1.06948E+00
 -1      3794-3.64885E+00 3.22232E+00-1.41119E-01 1.51187E+00-9.11104E-02 7.77464E-02
 -1      3795 1.68273E+02 7.25538E+01 8.23296E+01 1.84956E+01 2.66073E+00-1.01508E+01
 -1      3796 3.67130E+00-6.06711E+00-7.01995E-01 1.21974E+01-2.66430E-01 2.12120E-04
 -1      3797-1.24389E+00 9.72292E-01-7.83977E-02-7.11541E-01 1.91220E-02-3.19658E-02
 -1      3798-1.92887E+00 1.63554E+00-8.05928E-02 5.55347E-01 1.65601E-02 3.76815E-02
 -1      3799-3.29419E-01 1.05528E-01-6.59573E-02-3.69893E-01-1.11649E-02 2.70488E-02
 -1      3800-2.49107E+00 1.26294E+00-3.51497E-01 7.57629E+00-1.17983E-01 5.11297E-02
 -1      3801-2.37782E+00 2.06451E+00-9.09168E-02 3.46595E-01-4.54321E-02-5.73039E-02
 -1      3802 9.25047E+01-2.74189E+01 1.89645E+01-1.37304E+01-4.02565E+00-5.34042E+00
 -1      3803 1.36168E+02 8.81110E+00 4.82040E+01 2.23460E+01 3.63297E+00-7.57412E+00
 -1      3804-3.87794E+00 3.23467E+00-1.76062E-01-4.13033E+00-1.25144E-01-2.83751E-02
 -1      3805-5.83898E-01 2.68163E-01-1.03111E-01-5.54336E-01 1.15142E-02-1.38731E-02
 -1      3806-3.88316E+00 3.21393E+00-1.88831E-01 4.18862E+00-1.60459E-01 1.07949E-01
 -1      3807 9.39445E+01-2.74643E+01 1.97121E+01 1.40236E+01-4.86900E+00 6.37175E+00
 -1      3808-2.76503E+00 1.24588E+00-4.65523E-01-7.71861E+00-9.82099E-02 1.41124E-02
 -1      3809 1.27834E+00-3.70101E+00-7.28155E-01 1.12393E+01 8.08705E-02-3.05612E-02
 -1      3810-8.07965E-01 5.63996E-01-6.86571E-02 6.83905E-01 6.88462E-03 3.21488E-02
 -1      3811-3.27790E+00 2.98279E+00-6.81966E-02-7.84417E-01 4.60059E-02 1.72311E-02
 -1      3812 4.41151E+01-3.83544E+01 1.23128E+00-4.59311E+00-1.53830E+00 1.45588E+00
 -1      3813 1.64176E+02 7.02344E+01 8.00013E+01-2.29830E+01 4.62254E+00 1.74282E+01
 -1      3814-3.26556E+00 2.88417E+00-1.02952E-01 7.55255E-01 2.98880E-02-3.12543E-02
 -1      3815-2.34788E+00 1.93814E+00-1.35072E-01-3.72945E-01-1.14960E-02 3.44455E-02
 -1      3816 1.44758E+01-2.03779E+01-2.03201E+00-1.37041E+01-9.56912E-02 1.16812E-01
 -1      3817 2.36868E+00-5.37832E+00-9.37575E-01-1.20747E+01-1.16635E-01 9.86331E-02
 -1      3818 4.46701E+00-7.86435E+00-1.13008E+00-1.26412E+01 2.65370E-01-1.21982E-01
 -1      3819-3.37542E-01 1.98294E-01-3.45988E-02 4.05294E-01 4.06516E-03-2.49245E-02
 -1      3820 8.25028E+01-3.27608E+01 1.48932E+01-1.22126E+01 2.47162E+00 3.49438E+00
 -1      3821 1.52537E+01-1.95150E+01-1.51202E+00-1.35297E+01 5.47612E-01-4.54918E-01
 -1      3822-3.69520E+00 3.13428E+00-1.67977E-01-1.44010E+00-7.78505E-02-3.86885E-02
 -1      3823-1.74398E+00 2.89720E-01-4.38167E-01-8.73774E+00 1.96600E-01-8.36807E-03
 -1      3824 1.75750E+02 7.92317E+01 8.48197E+01 1.95365E+01-6.08124E+00 2.88671E+01
 -1      3825 1.66655E+01-2.04202E+01-1.19090E+00 1.32014E+01-4.95931E-01-1.50781E-01
 -1      3826-2.29065E+00 1.41659E+00-2.21661E-01 7.56541E+00 1.44938E-01-7.85705E-02
 -1      3827 3.29832E+01-3.35956E+01-5.78221E-01 8.88145E+00 8.93561E-01 5.00821E-01
 -1      3828 1.46568E+02 2.03130E+01 5.41505E+01-2.35821E+01 6.51557E+00 1.66309E+01
 -1      3829 1.16225E+01-1.58055E+01-1.34991E+00 1.37366E+01 2.24175E-01 2.43523E-03
 -1      3830-4.10759E+00 3.14964E+00-2.89746E-01-4.07366E+00 7.57252E-02 1.51359E-02
 -1      3831 1.75532E+02 7.51573E+01 8.17352E+01-1.65473E+01-3.42743E+00-1.60201E+01
 -1      3832 1.91798E+02 7.70485E+01 9.61589E+01-2.60042E+01 9.22107E+00 4.22039E+01
 -1      3833 1.94812E+02 1.02148E+02 1.06793E+02-1.76663E+01 3.61816E+00 4.71710E+01
 -1      3834 2.09054E+02 8.85061E+01 1.05618E+02 2.53847E+01-9.14311E+00 4.88521E+01
 -1      3835 2.11889E+02 1.14112E+02 1.17094E+02 1.58379E+01-3.74669E+00 5.50816E+01
 -1      3836 1.79731E+02 9.35724E+01 9.10840E+01 1.39337E+01-1.50145E+00 2.49024E+01
 -1      3837 1.77969E+02 9.01869E+01 9.13582E+01-1.79552E+01 1.40476E+00 1.90564E+01
 -1      3838 1.95209E+02 8.22997E+01 9.91851E+01-2.47471E+01-8.41045E+00-4.40996E+01
 -1      3839 2.05823E+02 1.11964E+02 1.14254E+02-1.43988E+01-2.62167E+00-4.69369E+01
 -1      3840 1.85203E+02 7.52473E+01 9.30782E+01 2.50238E+01 8.08086E+00-3.91578E+01
 -1      3841 1.87264E+02 9.57986E+01 9.47320E+01 1.16990E+01 6.82297E+00-3.39806E+01
 -1      3842 1.81109E+02 9.59718E+01 9.35813E+01-9.70430E+00-2.31112E+00-1.75981E+01
 -1      3843 1.79857E+02 9.68546E+01 9.96165E+01 9.71703E+00 1.03795E+00-1.28912E+01
 -1      3844 1.78949E+02 5.07592E+01 8.25910E+01-2.98931E+01 1.27822E+01 3.83903E+01
 -1      3845 1.56245E+02 1.57631E+01 5.64812E+01-2.41524E+01 1.05391E+01 2.45168E+01
 -1      3846 1.54185E+02 4.57381E+01 6.65976E+01-2.66206E+01 5.88408E+00 1.73507E+01
 -1      3847 7.65448E+01-3.74760E+01 1.41069E+01-1.44990E+00 5.79197E+00 6.22706E+00
 -1      3848 1.16133E+02-1.99101E+01 3.46123E+01-1.47567E+01 8.44058E+00 1.32376E+01
 -1      3849 1.14387E+02-1.58364E+01 3.19745E+01-1.99989E+01 5.34360E+00 8.25130E+00
 -1      3850 5.23146E+01-3.49254E+01 6.47219E+00 7.50910E+00 3.44915E+00 4.12595E+00
 -1      3851 2.82138E+01-2.76820E+01 2.02896E-01 1.33684E+01 1.85729E+00 1.09807E+00
 -1      3852 5.22158E+01-4.11941E+01 2.82880E+00 2.21360E+00 1.91237E+00 1.19227E+00
 -1      3853 1.85138E+01-2.04097E+01-6.83858E-01 1.59789E+01 1.12815E+00 5.64576E-01
 -1      3854 1.09640E+01-1.07337E+01 9.74852E-02 1.45966E+01 5.81032E-01 4.61962E-04
 -1      3855 1.71843E+01-2.76082E+01-3.89620E+00 1.31175E+01 4.66738E-01 1.84865E-01
 -1      3856 1.19294E+00-7.56807E-01 1.85013E-01 1.09727E+01 3.00326E-01-7.68664E-02
 -1      3857 3.57374E+00-6.70976E+00-1.12959E+00 1.32893E+01 2.75370E-01 6.44245E-02
 -1      3858 3.57277E+00-1.08157E+01-2.51432E+00 1.28984E+01 1.33472E-01 5.44310E-02
 -1      3859-1.79200E+00 5.46585E-01-4.46798E-01 9.14131E+00 3.25841E-01-1.64330E-02
 -1      3860-2.34701E+00 3.31535E+00 3.48182E-01 6.73872E+00 2.56754E-01-1.30848E-01
 -1      3861-1.70586E+00-1.50781E+00-1.10234E+00 9.33712E+00 1.49991E-01-2.94161E-02
 -1      3862-4.00563E+00 3.19883E+00-2.90313E-01 4.84549E+00 1.58839E-01-4.68658E-02
 -1      3863-3.61633E+00 3.94888E+00 1.23109E-01 2.95917E+00 1.31831E-01-1.03733E-01
 -1      3864-3.63964E+00 2.35806E+00-3.99731E-01 5.53005E+00 1.07939E-01-6.43030E-02
 -1      3865-2.81236E+00 3.19679E+00 1.35640E-01 3.24065E-01 9.31460E-02-1.08621E-01
 -1      3866-3.77848E+00 3.42902E+00-1.25706E-01 1.42056E+00 1.29604E-01-8.22659E-02
 -1      3867-3.78172E+00 3.09383E+00-2.13771E-01 2.07672E+00 4.88960E-02-6.48346E-02
 -1      3868-2.55108E+00 2.34903E+00-7.24032E-02-2.87286E-01 9.95889E-02-1.09160E-01
 -1      3869-1.53551E+00 1.91138E+00 1.23788E-01-6.83739E-01 5.26944E-02-1.17268E-01
 -1      3870-2.65287E+00 2.37998E+00-7.52436E-02 3.58188E-02 4.94896E-02-8.78485E-02
 -1      3871-6.19770E-01 7.73523E-01 3.99006E-02-7.31788E-01 9.32072E-03-7.79967E-02
 -1      3872-1.34201E+00 1.12790E+00-7.69497E-02-8.13811E-01 4.57487E-02-8.25105E-02
 -1      3873-1.85365E+00 1.27644E+00-1.91852E-01-6.34920E-01 3.92530E-02-3.55132E-02
 -1      3874-1.15208E-01 2.67068E-01 4.29920E-02-4.42696E-01 2.97753E-02-7.17822E-02
 -1      3875-7.73855E-02-5.91178E-02-4.90015E-02-9.95410E-02 1.05497E-03-7.13139E-02
 -1      3876-3.97200E-01 3.25358E-02-1.15984E-01-3.91625E-01-1.78993E-02-3.83917E-02
 -1      3877-4.57806E-01 2.73023E-01-6.65220E-02-6.24435E-01 1.68485E-02-6.30908E-02
 -1      3878-1.00231E+00 4.28382E-01-1.87542E-01-6.72321E-01 1.65029E-02-9.27611E-03
 -1      3879 5.38055E-02 1.65699E-01 7.33029E-02 2.20865E-01 1.05059E-02-7.80510E-02
 -1      3880-3.71629E-01 1.94139E-01-6.37262E-02 5.88870E-01-1.67026E-02-6.66959E-02
 -1      3881-2.51590E-01-9.02291E-02-1.05971E-01 6.07946E-02 2.15462E-03-3.85812E-02
 -1      3882-5.39981E-01 7.56226E-01 6.78440E-02 7.56338E-01-1.18353E-02-7.98448E-02
 -1      3883-1.32481E+00 1.09932E+00-8.10531E-02 8.49573E-01-4.29806E-02-8.00026E-02
 -1      3884-8.83504E-01 2.98206E-01-1.91919E-01 6.64848E-01-2.83212E-02-1.72596E-02
 -1      3885-2.67269E+00 2.37590E+00-1.06707E-01 2.62713E-01-9.25803E-02-1.00423E-01
 -1      3886-1.58858E+00 1.97671E+00 1.23782E-01 6.74091E-01-4.60751E-02-1.16383E-01
 -1      3887-1.95344E+00 1.26431E+00-2.32105E-01 6.59808E-01-4.64293E-02-2.24285E-02
 -1      3888-3.94444E+00 3.46413E+00-1.72597E-01-1.75421E+00-1.62995E-01-1.00777E-01
 -1      3889-2.94191E+00 3.34695E+00 1.25977E-01-5.73182E-01-1.02095E-01-1.21858E-01
 -1      3890-3.40358E+00 2.35588E+00-3.30675E-01-3.77739E-01-7.21884E-02-1.73548E-02
 -1      3891-3.46509E+00 4.23364E+00 2.50228E-01-3.02353E+00-1.93037E-01-1.48009E-01
 -1      3892-4.03838E+00 3.37567E+00-2.37530E-01-4.98644E+00-2.69656E-01-8.60642E-02
 -1      3893-4.39338E+00 2.84952E+00-5.23652E-01-2.65611E+00-9.47418E-02-6.78026E-03
 -1      3894-2.07266E+00 5.00492E-01-5.65677E-01-9.08279E+00-2.95445E-01-1.52259E-02
 -1      3895-2.65961E+00 3.19256E+00 1.66962E-01-6.72828E+00-2.56365E-01-8.78608E-02
 -1      3896-4.50171E+00 1.64712E+00-9.56134E-01-5.85875E+00-1.05725E-01 2.46170E-02
 -1      3897 4.02402E+00-7.62328E+00-1.29537E+00-1.36658E+01-4.50469E-01 9.78584E-02
 -1      3898 1.78881E+00-1.17847E+00 1.70502E-01-1.12819E+01-3.39312E-01-4.54195E-02
 -1      3899-2.09863E+00-2.77915E+00-1.62669E+00-9.98342E+00-8.13821E-02 1.36669E-01
 -1      3900 1.94166E+01-2.28467E+01-1.23787E+00-1.55691E+01-1.31666E+00 6.64975E-01
 -1      3901 1.22171E+01-1.24440E+01-2.02172E-01-1.45596E+01-4.94620E-01 9.63829E-03
 -1      3902 4.66583E+00-1.46486E+01-3.34516E+00-1.36305E+01-4.33697E-02 2.41846E-01
 -1      3903 5.90750E+01-3.58843E+01 8.77831E+00-5.33917E+00-4.27746E+00 5.01613E+00
 -1      3904 3.40930E+01-2.82221E+01 2.12501E+00-1.21709E+01-2.02828E+00 1.36972E+00
 -1      3905 2.39800E+01-3.30576E+01-3.58470E+00-1.18761E+01-4.06283E-01 7.31026E-01
 -1      3906 1.23774E+02-1.50684E+01 3.93232E+01 1.51535E+01-9.35817E+00 1.49431E+01
 -1      3907 8.46578E+01-3.46607E+01 1.80253E+01 3.12647E+00-6.89603E+00 7.91822E+00
 -1      3908 6.49317E+01-4.35119E+01 5.76188E+00 2.28791E+00-3.02985E+00 3.47718E+00
 -1      3909 1.60867E+02 2.16116E+01 5.98750E+01 2.53034E+01-1.06739E+01 2.49427E+01
 -1      3910 1.87120E+02 6.04188E+01 8.90656E+01 2.97815E+01-1.19493E+01 3.82693E+01
 -1      3911 1.26883E+02-3.63462E+00 3.99957E+01 2.24666E+01-5.57884E+00 1.04806E+01
 -1      3912 1.68569E+02 6.06368E+01 7.73931E+01 2.52389E+01-7.49277E+00 2.19805E+01
 -1      3913 1.51174E+02 1.35454E+01 5.57864E+01-2.44690E+01-9.17937E+00-2.20099E+01
 -1      3914 1.70874E+02 4.87989E+01 7.90868E+01-2.98181E+01-1.09138E+01-3.40445E+01
 -1      3915 1.64522E+02 5.61488E+01 7.15649E+01-2.49149E+01-4.37929E+00-1.26347E+01
 -1      3916 8.29715E+01-3.46883E+01 1.73963E+01-2.77563E+00-6.57490E+00-7.44374E+00
 -1      3917 1.23129E+02-1.56597E+01 3.90491E+01-1.56583E+01-8.88674E+00-1.46880E+01
 -1      3918 1.20208E+02-9.67044E+00 3.58605E+01-2.11606E+01-4.48630E+00-7.74210E+00
 -1      3919 3.46210E+01-2.91194E+01 1.98880E+00 1.16038E+01-2.05565E+00-1.42262E+00
 -1      3920 5.92205E+01-3.58591E+01 8.60950E+00 4.88746E+00-4.09867E+00-4.53105E+00
 -1      3921 6.36964E+01-3.93351E+01 6.67827E+00-1.81704E+00-2.99683E+00-2.04764E+00
 -1      3922 1.36092E+01-1.28792E+01 1.89154E-01 1.44518E+01-7.33170E-01 9.58929E-02
 -1      3923 2.11069E+01-2.35025E+01-8.64925E-01 1.54661E+01-1.37921E+00-7.15641E-01
 -1      3924 2.59076E+01-3.08268E+01-2.02996E+00 1.08271E+01-9.90506E-01-4.25277E-01
 -1      3925 2.63796E+00-1.56975E+00 3.59467E-01 1.14905E+01-3.71609E-01 1.22434E-01
 -1      3926 4.88695E+00-8.43406E+00-1.27702E+00 1.38217E+01-4.62455E-01-1.03764E-01
 -1      3927 7.69965E+00-1.34281E+01-1.94638E+00 1.31994E+01-3.68822E-01-6.78960E-02
 -1      3928-2.52269E+00 3.07453E+00 2.15747E-01 6.76748E+00-2.42800E-01 1.17085E-01
 -1      3929-1.91516E+00 3.48769E-01-5.65179E-01 9.09832E+00-2.26499E-01 9.24904E-03
 -1      3930-3.51439E-01-1.88981E+00-6.89404E-01 9.91657E+00-1.78052E-01 1.50516E-02
 -1      3931-3.86901E+00 3.40580E+00-1.65879E-01 5.07509E+00-3.01509E-01 9.44966E-02
 -1      3932-3.39566E+00 4.26432E+00 2.89050E-01 3.12866E+00-2.03199E-01 1.66552E-01
 -1      3933-3.41740E+00 2.39609E+00-3.31426E-01 5.72585E+00-1.75670E-01 9.38692E-02
 -1      3934-2.85295E+00 3.43277E+00 1.72293E-01 5.89131E-01-1.05793E-01 1.38433E-01
 -1      3935-3.92107E+00 3.51865E+00-1.44664E-01 1.78250E+00-1.87136E-01 1.16569E-01
 -1      3936-4.31582E+00 3.00338E+00-4.38184E-01 2.82847E+00-1.45981E-01 1.44217E-02
 -1      3937-1.62641E+00 1.86746E+00 7.26417E-02-6.71983E-01-4.39007E-02 8.93177E-02
 -1      3938-2.64697E+00 2.28663E+00-1.29854E-01-2.66904E-01-7.58396E-02 8.19924E-02
 -1      3939-3.35725E+00 2.38357E+00-3.27428E-01 3.96857E-01-5.92782E-02-4.25423E-03
 -1      3940-4.88576E-01 6.78491E-01 5.91770E-02-7.34892E-01-1.34658E-02 8.22209E-02
 -1      3941-1.20328E+00 1.01578E+00-6.73563E-02-8.48618E-01-4.15015E-02 8.01126E-02
 -1      3942-1.82861E+00 1.08951E+00-2.47291E-01-6.77070E-01-2.77423E-02 1.20872E-02
 -1      3943-6.86550E-02-9.29941E-03-2.78913E-02-1.68676E-01-2.77292E-03 6.67531E-02
 -1      3944-1.81321E-01 3.04240E-01 4.08911E-02-5.03516E-01-2.71367E-02 7.25701E-02
 -1      3945-7.99971E-01 1.69772E-01-2.12736E-01-6.08442E-01-2.26062E-02 2.87107E-02
 -1      3946-2.40039E-01 1.63607E-01-2.73057E-02 5.11469E-01 1.53545E-02 7.18005E-02
 -1      3947 9.54288E-02 1.22601E-01 7.65587E-02 1.41174E-01-5.05716E-03 8.05113E-02
 -1      3948-3.52520E-01-1.58713E-01-1.75888E-01-8.32209E-02-3.61850E-03 2.93427E-02
 -1      3949-4.03800E-01 6.14833E-01 7.48530E-02 7.28655E-01 1.65400E-02 8.24599E-02
 -1      3950-1.09505E+00 9.82939E-01-4.02252E-02 8.56158E-01 3.74505E-02 7.37768E-02
 -1      3951-6.13780E-01 7.98733E-02-1.73662E-01 4.94444E-01 1.15860E-03 4.16484E-02
 -1      3952-1.48768E+00 1.75001E+00 9.17694E-02 7.50671E-01 4.56865E-02 9.40226E-02
 -1      3953-2.44049E+00 2.22879E+00-7.61132E-02 3.89646E-01 7.32037E-02 8.15808E-02
 -1      3954-1.45475E+00 9.02664E-01-1.79641E-01 7.02866E-01 5.31821E-03 4.83190E-02
 -1      3955-3.82686E+00 3.46128E+00-1.31662E-01-1.37465E+00 1.35287E-01 8.78532E-02
 -1      3956-2.76463E+00 3.23914E+00 1.62994E-01-2.71183E-01 9.64415E-02 1.09465E-01
 -1      3957-2.72289E+00 2.10402E+00-1.91957E-01 8.50493E-02 3.05753E-02 5.76463E-02
 -1      3958-3.63241E+00 4.05149E+00 1.29724E-01-3.00861E+00 1.48730E-01 9.85246E-02
 -1      3959-4.08266E+00 3.25079E+00-2.99836E-01-4.91904E+00 2.02401E-01 6.28194E-02
 -1      3960-4.41619E+00 2.81544E+00-5.12369E-01-2.24247E+00 6.93059E-02-8.03578E-04
 -1      3961-2.09116E+00 2.89959E+00 2.30988E-01-7.20369E+00 2.87547E-01 1.36454E-01
 -1      3962-1.55106E+00-1.87648E-01-6.25576E-01-9.61331E+00 3.42509E-01 1.00702E-02
 -1      3963-3.85963E+00 1.55860E+00-7.44909E-01-6.31230E+00 1.08421E-01-2.99063E-02
 -1      3964 2.77744E+00-2.22105E+00 1.07430E-01-1.16336E+01 4.42132E-01 1.10170E-01
 -1      3965 5.04909E+00-9.21072E+00-1.49723E+00-1.38836E+01 5.86854E-01-1.35831E-01
 -1      3966-3.06726E-01-4.09221E+00-1.43569E+00-1.07949E+01 1.32097E-01-1.20710E-01
 -1      3967 2.02665E+01-2.29487E+01-9.69391E-01-1.61031E+01 1.98331E+00-9.80308E-01
 -1      3968 1.29284E+01-1.17650E+01 1.05368E-01-1.46713E+01 9.66887E-01-1.66125E-02
 -1      3969 6.10409E+00-1.56724E+01-3.33441E+00-1.35770E+01 1.92603E-01-3.13396E-01
 -1      3970 5.24489E+01-3.47462E+01 6.80584E+00-7.83444E+00 4.05190E+00-4.70217E+00
 -1      3971 2.86483E+01-2.79517E+01 2.59840E-01-1.36210E+01 2.14181E+00-1.27632E+00
 -1      3972 1.92056E+01-3.13544E+01-4.30342E+00-1.37270E+01 1.09666E+00-1.10896E+00
 -1      3973 1.07264E+02-2.43626E+01 2.91385E+01 1.38085E+01 7.51623E+00-1.17341E+01
 -1      3974 6.94408E+01-4.03170E+01 1.05079E+01-4.14433E-01 5.70348E+00-5.76386E+00
 -1      3975 4.75149E+01-3.86821E+01 2.31609E+00-4.27555E+00 2.29666E+00-1.01965E+00
 -1      3976 1.65974E+02 4.06516E+01 7.44025E+01 2.98261E+01 1.08001E+01-3.20825E+01
 -1      3977 1.46832E+02 8.04337E+00 5.34641E+01 2.36198E+01 8.68835E+00-2.02997E+01
 -1      3978 1.04872E+02-2.29066E+01 2.62968E+01 1.57634E+01 3.80562E+00-4.10125E+00
 -1      3979 1.55408E+02 4.55062E+01 6.87429E+01 2.59805E+01 3.22393E+00-1.09598E+01
 -1      3980 1.93556E+02 9.59152E+01 1.02629E+02-1.12558E+01 2.51171E+00 2.12030E+00
 -1      3981 1.80148E+02 9.21428E+01 9.51756E+01 1.16188E+01-1.87957E+00 1.96933E+00
 -1      3982 1.82857E+02 8.80825E+01 9.75530E+01-2.17127E+01 8.20142E-01 2.86131E+00
 -1      3983 1.82249E+02 8.98638E+01 9.79604E+01 1.92920E+01-1.33359E+00 8.31719E+00
 -1      3984-3.89811E+00 3.23264E+00-2.39360E-01-4.23005E+00-3.97230E-02-6.67380E-03
 -1      3985-4.64828E+00 2.69882E+00-7.02076E-01-2.68001E+00 1.59113E-02 7.14708E-03
 -1      3986-4.64094E+00 1.54651E+00-1.11355E+00-5.91038E+00-4.23819E-02-6.00994E-04
 -1      3987-3.66489E+00 3.08781E+00-2.18985E-01-1.20778E+00-4.14643E-02 1.70303E-02
 -1      3988-2.85835E+00 2.40730E+00-1.71661E-01-1.84206E-01 1.31270E-02-7.97186E-02
 -1      3989-5.99375E-01 3.83985E-01-8.03203E-02 5.69582E-01 4.34679E-02-3.03711E-03
 -1      3990-3.09735E-01 8.75023E-02-8.45458E-02 2.75564E-01-9.37427E-03 1.89019E-02
 -1      3991-2.64310E-01-1.47713E-01-1.48321E-01-2.41171E-02 1.35252E-03-8.65469E-03
 -1      3992-3.71016E-01-1.32298E-01-1.81143E-01-2.61798E-01 5.85082E-05-7.11117E-03
 -1      3993-2.04854E+00 1.19068E+00-3.08753E-01-6.30196E-01 1.79320E-03-4.46921E-03
 -1      3994-2.34670E+00 1.68492E+00-2.38239E-01-4.32482E-01 1.67525E-02-2.19851E-02
 -1      3995-2.71816E+00 2.53208E+00-7.25222E-02 1.59194E-01 4.45016E-02 9.37812E-02
 -1      3996-2.47458E+00 1.53860E+00-3.36869E-01 4.90089E-01-8.48332E-03-8.85603E-03
 -1      3997-1.61431E+00-1.26692E+00-1.03725E+00 9.32127E+00-3.09613E-02 1.41947E-02
 -1      3998 2.70183E+00-4.71252E+00-7.24046E-01 1.15764E+01 2.49359E-02-1.38519E-01
 -1      3999 5.25108E+00-1.16689E+01-2.30979E+00 1.32092E+01-1.11032E-01-1.94884E-02
 -1      4000 1.45766E+01-1.76953E+01-1.13174E+00 1.31087E+01 2.01492E-01-3.26803E-01
 -1      4001 1.58216E+02 5.19973E+01 7.56882E+01-2.57646E+01 4.33323E-01 3.20736E+00
 -1      4002-1.88284E+00-4.13105E+00-2.16491E+00-1.06361E+01-4.13739E-02 9.93624E-03
 -1      4003-2.04504E+00 7.63885E-01-4.72066E-01-8.40158E+00 5.29048E-02-8.41105E-02
 -1      4004-1.21302E+00 4.70681E-01-2.67169E-01 7.41094E-01-6.72063E-04 8.74036E-04
 -1      4005-1.49517E+00 1.32028E+00-6.02833E-02 6.60505E-01 4.36514E-02-3.20328E-02
 -1      4006 1.50419E+02 2.56134E+01 6.32881E+01-2.43176E+01 6.03982E-01 3.27015E+00
 -1      4007 1.18528E+02-1.04177E+01 3.89172E+01-2.01243E+01 3.00120E-02-6.06930E-01
 -1      4008 9.01034E+01-2.57133E+01 2.32162E+01-1.33076E+01-5.76714E-02-7.65519E-01
 -1      4009 3.95379E+00-6.92853E+00-1.08992E+00-1.25186E+01 1.09915E-02-1.83016E-01
 -1      4010 5.28699E+00-1.73551E+01-4.34589E+00-1.38198E+01-6.33947E-02 2.10311E-02
 -1      4011 1.58553E+01-2.05667E+01-1.70672E+00-1.33603E+01 2.72932E-01-2.48339E-01
 -1      4012-4.30748E-01 2.41568E-01-7.26112E-02-4.65673E-01 2.63373E-02 1.82352E-02
 -1      4013-1.13216E+00 9.12460E-01-7.98239E-02-7.25490E-01 1.85831E-02 9.34035E-03
 -1      4014-1.00893E+00 2.42721E-01-2.75818E-01-6.73903E-01-5.99192E-03 1.57804E-02
 -1      4015 5.89792E+01-3.71003E+01 7.70814E+00 1.26370E+00-1.68862E+00-7.10809E-01
 -1      4016 8.34528E+01-3.36436E+01 1.79362E+01 7.75052E+00-6.15512E-01 9.37849E-01
 -1      4017 1.51389E+02 2.68270E+01 6.33879E+01 2.37117E+01-1.53916E+00 1.58092E+00
 -1      4018 1.20379E+02-7.60082E+00 3.97458E+01 1.85984E+01-1.18707E+00 2.09107E+00
 -1      4019-4.38018E+00 2.78796E+00-5.73184E-01 4.02769E+00-7.85512E-02 3.09626E-02
 -1      4020-3.43373E+00 2.57116E+00-3.10521E-01 5.45738E+00-3.51069E-02 2.11992E-03
 -1      4021-2.21827E+00 1.39614E+00-2.96014E-01 7.47413E+00 2.57366E-02-3.06260E-03
 -1      4022 1.66094E+02 5.93814E+01 7.75310E+01 2.29394E+01 6.10132E-01 4.41130E+00
 -1      4023-3.70884E+00 3.32215E+00-1.49049E-01 2.64259E+00-4.15569E-02 1.60036E-01
 -1      4024-3.88365E+00 2.66866E+00-4.37302E-01 1.08049E+00-2.03655E-02 1.43612E-02
 -1      4025 3.36727E+01-3.76334E+01-1.42386E+00-9.13043E+00 2.30107E-01-1.65463E-01
 -1      4026 2.03734E+01-3.15036E+01-3.99795E+00-1.39174E+01 7.53876E-01-5.10560E-01
 -1      4027 6.01357E+01-3.76607E+01 8.09479E+00-4.08500E-01-9.15633E-02-6.89948E-02
 -1      4028 2.03616E+01-2.87967E+01-3.03479E+00 1.23748E+01-1.54710E-01-6.66434E-02
 -1      4029 3.97394E+01-3.33864E+01 2.20061E+00 6.15908E+00 5.60239E-01-5.36449E-01
 -1      4030 5.86807E-04-2.36643E-02-2.59914E-03-1.13284E-03-1.32357E-03 2.60276E-05
 -1      4031-5.76892E-04-2.16378E-04-1.86190E-05 2.89421E-04-8.69728E-06 5.13460E-05
 -1      4032-2.06603E-04-2.44019E-04 5.11721E-06-1.80962E-04-2.35934E-05-2.75627E-05
 -1      4033-3.08178E-04-2.69815E-04 8.00428E-06 2.38465E-04-5.09723E-07-1.22679E-05
 -1      4034-8.52952E-04-2.57787E-04-8.85064E-04-5.93871E-04 4.21214E-04 6.32360E-04
 -1      4035-2.30199E-04 3.24805E-04-1.16296E-03 9.71743E-04 2.52493E-04-5.25702E-04
 -1      4036-1.28825E-03-5.17339E-04-5.41450E-04 7.06429E-04-2.87426E-04 3.92849E-04
 -1      4037-6.73295E-04-1.60733E-04-5.95626E-06-2.83734E-04-1.84899E-05-5.29818E-05
 -1      4038-1.19308E-03-3.72432E-04-4.12754E-04 4.34947E-04 7.12832E-05-1.59470E-04
 -1      4039-6.76750E-05-2.85621E-04 6.80087E-06 1.04729E-04 9.78030E-06 9.15465E-07
 -1      4040 5.07381E-05 2.41233E-04 2.03440E-04-2.35827E-03-5.21020E-04 1.37919E-04
 -1      4041-1.24262E-03-3.40974E-04-4.92649E-04-4.84777E-04 1.49346E-05 6.03065E-05
 -1      4042-1.48736E-03-1.72563E-04-1.54482E-04 3.50094E-04 2.92798E-05-4.82445E-05
 -1      4043 1.87609E-03 2.53433E-03 1.64161E-03 1.54859E-03-1.15707E-03-1.92350E-04
 -1      4044 5.06177E-04-8.66131E-04 4.59277E-04 1.39492E-03 9.15361E-04 5.25481E-05
 -1      4045-1.01206E-03-1.29408E-04-2.49004E-05 2.06133E-04-5.91328E-06 1.86933E-05
 -1      4046-1.02859E-03-9.71051E-05-2.92425E-05 1.32256E-04 1.01627E-05 1.00274E-04
 -1      4047-6.70988E-04-2.14161E-04-3.31129E-05 3.31773E-04 9.04323E-06-2.48963E-05
 -1      4048-1.27074E-03 5.84526E-04-4.40025E-04-1.59321E-03 2.36452E-04 1.02541E-03
 -1      4049-1.51533E-03-6.51751E-04-4.39895E-04 8.69916E-04 3.21399E-04-5.40347E-04
 -1      4050-7.02150E-04 7.52066E-05-7.05529E-04-1.30341E-03-5.38810E-04-7.18843E-04
 -1      4051-1.43151E-04-2.69246E-04-9.29191E-07 1.64627E-04-1.23740E-05 1.43385E-05
 -1      4052-1.82593E-03-3.46311E-02-5.96596E-03-1.97260E-03 9.12736E-06 8.90862E-04
 -1      4053 1.15367E-03-2.49021E-02-2.70667E-03 2.55941E-03-2.00880E-03-3.62174E-04
 -1      4054-1.44337E-03-1.08775E-04-7.85221E-05-1.43803E-04 5.43846E-06 4.67846E-05
 -1      4055-5.77423E-04-3.30857E-02-5.43741E-03 3.51147E-03-2.62637E-04-3.13892E-04
 -1      4056-1.33241E-03-1.04171E-04-8.10428E-05-9.49867E-05 2.55701E-05 4.62492E-05
 -1      4057-5.19398E-05-2.47655E-04 3.86283E-06 6.94621E-05-3.16128E-06 1.45434E-05
 -1      4058-1.59176E-04-2.87725E-04 7.89649E-06-1.82688E-04 7.36639E-06 5.58799E-06
 -1      4059-1.05168E-03-1.36726E-04-4.15440E-05-5.27802E-05 1.83826E-05-9.47366E-05
 -1      4060-4.57572E-05-2.63166E-04 4.88987E-06-7.64436E-05-9.59940E-06-1.07243E-05
 -1      4061-4.24970E-04-2.67800E-04-8.61453E-06-2.57792E-04-9.01683E-06-8.74772E-06
 -1      4062-1.31412E-03-8.68903E-05-5.03849E-05-8.34867E-06-1.86251E-06-4.96177E-05
 -1      4063-7.70911E-04-1.85684E-04-1.95487E-05-2.64006E-04-1.97811E-05-3.63943E-06
 -1      4064-2.86354E-05-2.58492E-04-5.83350E-06 4.81171E-05 5.98849E-06-7.45656E-06
 -1      4065-1.64307E-03-2.85310E-04-1.69562E-04 4.96292E-04 5.93309E-05-1.60081E-04
 -1      4066-5.90990E-05-2.88232E-04-3.77884E-06-9.09561E-05 1.06668E-05 4.13915E-06
 -1      4067-2.55129E-05-2.98420E-04 1.08698E-06-1.07049E-04 1.91611E-05 7.51762E-06
 -1      4068-1.58131E-05-2.92713E-04-9.94394E-06-4.07379E-05 1.29476E-05 5.21806E-06
 -1      4069-4.13587E-05-2.69816E-04-1.22668E-05 9.22505E-05-6.69733E-06 1.26627E-05
 -1      4070-2.00160E-05-2.60486E-04-6.74270E-06 3.19188E-05-1.05230E-05 1.16297E-05
 -1      4071-6.04465E-05-2.88479E-04-4.33329E-06 4.60496E-05 5.85699E-06 7.58195E-06
 -1      4072-7.66411E-05-3.64551E-04-3.53082E-05-4.80011E-05 7.87692E-06 2.73976E-07
 -1      4073-4.50222E-05-2.87430E-04-6.73585E-06 9.42945E-05 1.25418E-05-7.08174E-06
 -1      4074-1.67524E-05-2.39505E-04-7.24366E-06 3.25768E-05 1.21051E-05-6.70025E-06
 -1      4075-1.90030E-05-2.46547E-04 3.88259E-06-8.96389E-05-1.61297E-05-7.86754E-06
 -1      4076-1.09472E-05-2.52455E-04-2.33984E-06-3.31020E-05-2.24950E-06-5.33241E-06
 -1      4077-4.30690E-05-2.76137E-04-9.44810E-06 2.48635E-05 1.12302E-06-1.33164E-05
 -1      4078-6.06396E-05-2.97568E-04-2.07537E-05-3.61289E-05-3.04701E-06-5.94146E-06
 -1      4079-5.22945E-04-2.23334E-04-1.29059E-05-3.36140E-04 1.06290E-05 2.87772E-05
 -1      4080-7.94660E-04-1.46075E-04-2.27856E-05-3.59451E-04 4.51726E-07 2.76044E-05
 -1      4081-1.37527E-03-6.67294E-05-4.27875E-05-7.36042E-06-2.54202E-05-2.34225E-05
 -1      4082-1.14158E-03-1.02678E-04-3.32237E-05-2.51222E-04 9.32389E-06 1.18877E-05
 -1      4083-1.17454E-03-1.70926E-04-8.79958E-05-2.10513E-04 4.91338E-06 7.91839E-06
 -1      4084-2.81079E-04-3.28674E-04-2.95564E-05-2.49843E-04 7.68809E-06 9.78115E-06
 -1      4085-1.06328E-04-3.27677E-04-1.35216E-06-1.75350E-04 1.98376E-05 1.41751E-05
 -1      4086-4.06861E-04-2.51907E-04-5.79762E-06-2.75947E-04 2.40179E-06 1.38289E-05
 -1      4087-6.83787E-04-3.33955E-04-7.44086E-05-3.20930E-04-1.34725E-05-9.44308E-06
 -1      4088-3.41067E-04-3.72471E-04-4.84012E-05-2.48752E-04 7.66978E-06 1.53322E-05
 -1      4089-1.30685E-04-3.41240E-04-2.86649E-05-1.45967E-04 1.40671E-05 4.99535E-06
 -1      4090-5.12915E-04-2.06578E-04-3.05607E-05-2.79353E-04-3.41727E-05-5.67162E-05
 -1      4091-6.94179E-04-1.49562E-04-4.72307E-06-3.22537E-04-2.38747E-05-7.45836E-05
 -1      4092-1.02134E-03-2.10472E-04-8.88604E-05-2.66746E-04-1.07229E-05-6.81837E-05
 -1      4093-9.10272E-04-9.38330E-05-4.31289E-05-2.42279E-04-1.18359E-05-1.03575E-04
 -1      4094-2.58426E-04-2.23849E-04-1.37670E-06-2.00783E-04-9.39424E-06-3.05411E-05
 -1      4095-4.98456E-04-2.77134E-04-3.69338E-05-2.97867E-04-2.29467E-05-5.42719E-05
 -1      4096-7.42073E-04-1.57966E-04-2.79906E-06-2.63129E-04-2.33320E-05-3.16070E-05
 -1      4097-1.17116E-03-1.71631E-04-9.89110E-05-2.54509E-04-1.03520E-05-6.22641E-05
 -1      4098-1.11584E-03-9.15818E-05-1.16733E-05-3.12985E-05-7.28215E-06-9.26462E-05
 -1      4099-6.14875E-04-2.73938E-04-5.95293E-05-2.99412E-04 3.41076E-07-1.82776E-05
 -1      4100-3.41103E-04-2.92591E-04-2.32864E-05-2.29387E-04-3.54046E-05-3.40763E-05
 -1      4101-7.64416E-05-2.72800E-04 4.38831E-06 1.44670E-04-1.51378E-05 1.30541E-05
 -1      4102-2.57271E-04-2.96834E-04-3.26121E-05 2.23038E-04-1.05357E-05 1.75666E-05
 -1      4103-1.25702E-04-3.27959E-04-3.50568E-05 1.22421E-04-9.36924E-06 1.67241E-05
 -1      4104-4.29625E-04-2.22112E-04-1.46093E-05 2.45307E-04-2.57970E-05 4.68639E-05
 -1      4105-6.58851E-04-1.44663E-04-3.37736E-05 3.44237E-04-1.98450E-05 7.50334E-05
 -1      4106-3.78826E-04-3.68133E-04-5.52391E-05 2.91637E-04-1.62811E-05 3.67894E-05
 -1      4107-9.73160E-04-1.27552E-04-6.00068E-05 2.48433E-04-1.08232E-05 1.02526E-04
 -1      4108-1.14319E-03-1.02446E-04-4.97508E-05 6.16819E-05 1.85839E-05 6.73033E-05
 -1      4109-1.00984E-03-2.23151E-04-9.94378E-05 2.90327E-04-9.40479E-06 9.37272E-05
 -1      4110-1.67962E-03-1.45776E-04-7.38497E-05-3.95611E-04 3.37874E-05-8.24084E-06
 -1      4111-1.31453E-03-7.56227E-05-4.25464E-05-9.05877E-05 3.52891E-05 5.43828E-05
 -1      4112-1.37625E-03-2.20131E-04-1.53765E-04 5.49972E-05 3.20800E-05 1.17756E-04
 -1      4113-1.35809E-03 2.00332E-04-1.41347E-04-1.71294E-03-1.08203E-03-6.95559E-04
 -1      4114-1.66231E-03-6.36672E-04-6.16565E-04-9.26549E-04-4.17457E-04-4.47803E-04
 -1      4115-1.00746E-03-1.69327E-04-6.35093E-04-5.25827E-04-2.03713E-04-4.00092E-04
 -1      4116-1.58442E-03-3.75544E-04-3.14133E-04-7.27145E-04-5.75527E-05-1.49477E-04
 -1      4117-1.68383E-03-3.21093E-04-3.93820E-04-3.17364E-04-3.13945E-05 3.29539E-05
 -1      4118-1.13197E-03 1.30618E-03 3.12711E-04 3.56376E-04 2.05810E-04-1.26647E-03
 -1      4119 1.75384E-03-1.85904E-02-1.17003E-03 1.45209E-03 8.57711E-04 4.27853E-04
 -1      4120-1.49824E-03-3.75057E-02-3.68987E-03 5.35281E-05 2.27854E-05-8.88488E-04
 -1      4121 9.73638E-04 1.60993E-03 2.29691E-03 6.17353E-04 8.72052E-04 1.23955E-04
 -1      4122-1.13354E-03-1.50022E-02-1.83392E-03 2.75197E-04 6.46971E-04 1.11331E-03
 -1      4123 9.47636E-04 1.99617E-03 2.09002E-04-1.32888E-03-8.24012E-04-3.76050E-04
 -1      4124 7.62608E-04-1.15384E-02-3.78185E-04 8.06572E-06-2.51801E-03 5.63085E-04
 -1      4125-1.02020E-03-3.30086E-02-2.53518E-03 2.12881E-04-1.47402E-03-2.36591E-04
 -1      4126-2.64445E-03-3.82709E-02-7.79435E-03 2.46654E-03-1.85014E-03-1.75961E-03
 -1      4127 1.22251E-03 2.58451E-03 1.68950E-03 3.34839E-04-9.88300E-04 7.50312E-04
 -1      4128-1.60979E-04 2.80889E-03 8.28512E-04 8.20549E-04 8.05894E-04-8.52439E-04
 -1      4129 4.14874E-03-5.33217E-03 2.08381E-03 3.69387E-04-1.56530E-03 2.46039E-04
 -1      4130-2.20699E-03-9.64717E-04-4.65325E-04 1.31802E-03 4.47900E-04-7.26145E-04
 -1      4131-1.76036E-03-5.01382E-04-2.40528E-04 8.88610E-04 1.89317E-04-2.88430E-04
 -1      4132-1.07437E-03-3.72232E-05-6.57759E-04 6.89876E-04 8.76983E-04-7.96682E-04
 -1      4133-1.16696E-03-4.57491E-04-1.03487E-03 6.58020E-04 5.30639E-04-4.97361E-04
 -1      4134 2.24154E-03 4.63865E-03 1.37458E-03 9.54558E-04-9.12250E-05-8.63854E-04
 -1      4135-1.65214E-03-1.50752E-04-1.33345E-04 2.69615E-04 1.88490E-06-3.88501E-05
 -1      4136-1.76123E-03-2.70116E-04-8.42395E-05 6.39605E-04 1.55745E-05-1.31411E-04
 -1      4137-1.78224E-03-5.32983E-04-3.48189E-04 7.46988E-04 1.47592E-04-3.50922E-04
 -1      4138-1.70207E-03-1.80298E-04-1.66849E-04 2.53723E-04 2.18354E-05-7.88509E-05
 -1      4139-3.30146E-04-2.95952E-04-1.18229E-05 2.73273E-04 5.14986E-06-2.75627E-05
 -1      4140-1.41292E-04-3.44704E-04-6.84403E-06 2.08385E-04 2.46668E-05-2.30205E-05
 -1      4141-2.99793E-05-3.18517E-04 8.73480E-06 1.23587E-04 2.43259E-05-1.11136E-05
 -1      4142-5.42755E-05-3.19404E-04-1.01289E-05 7.55662E-05 7.96680E-06-9.05827E-06
 -1      4143-2.00731E-04-3.81304E-04-3.21458E-05 1.94012E-04 6.17032E-06-6.98475E-06
 -1      4144-4.79482E-04-2.56038E-04-2.05407E-05 3.35492E-04 1.69248E-05-3.81197E-05
 -1      4145-7.36206E-04-1.66465E-04-2.66008E-05 3.75185E-04 1.50378E-05-3.68587E-05
 -1      4146-5.21162E-04-2.77604E-04-1.02982E-05 3.28234E-04-4.31394E-06-1.37290E-05
 -1      4147-1.34053E-03-1.01880E-04-6.92056E-05 2.04257E-04 1.64166E-05-1.65063E-05
 -1      4148-1.41889E-03-4.17051E-05-3.72380E-05-6.23192E-05-1.91894E-05-9.38179E-06
 -1      4149-9.22179E-04-2.19785E-04-6.62029E-05 3.13468E-04 6.68013E-06-2.32599E-05
 -1      4150-9.93368E-04-9.03210E-05-1.90976E-05 3.22486E-04 6.31263E-07-2.23812E-05
 -1      4151-1.57134E-03-1.83723E-04-1.72387E-04 1.04324E-04-6.46388E-06 4.56826E-05
 -1      4152-1.76354E-03-1.49988E-04-6.37472E-05-4.28174E-04 1.29118E-05 1.02590E-04
 -1      4153-2.21343E-03-8.71617E-04-8.52701E-04-1.22463E-03 6.26708E-04 7.97649E-04
 -1      4154-1.65187E-03-5.60986E-04-5.95793E-04-9.20945E-04 3.75427E-04 4.97421E-04
 -1      4155-1.67773E-03-3.75596E-04-3.46051E-04-7.60958E-04 1.11995E-04 2.75277E-04
 -1      4156-1.55911E-03-2.84994E-04-3.21968E-04-3.66605E-04 5.12574E-05 7.58864E-05
 -1      4157-1.01542E-03-3.38406E-04-6.79036E-04-5.72750E-04 2.38270E-04 4.83647E-04
 -1      4158-1.46894E-03 9.06306E-04 1.78886E-05-1.47624E-03 9.26394E-04 8.98200E-04
 -1      4159-8.14700E-04 1.07140E-03 1.04609E-03 1.65707E-03-8.81487E-04 5.93164E-04
 -1      4160-4.57704E-04 8.02913E-04-6.80582E-04-4.54604E-04 2.59128E-04 9.71429E-04
 -1      4161 1.86415E-03-1.44895E-02-5.43577E-04 2.39696E-03-1.95292E-03-6.31791E-04
 -1      4162-4.50479E-04-3.23285E-02-2.50163E-03-3.95283E-05-1.45725E-03 4.65770E-04
 -1      4163 8.70904E-04 2.01927E-03 5.69250E-04-1.26226E-03-5.42554E-05 8.17916E-04
 -1      4164 1.86147E-03 2.06511E-03 2.59609E-03 1.00907E-03-1.67145E-03-1.95979E-04
 -1      4165 1.28349E-03-1.01901E-02 4.57129E-04 2.27581E-04-2.21146E-03-9.23949E-04
 -1      4166 2.89012E-05-1.98904E-02-1.60424E-03 9.46755E-04 1.95475E-03 7.33309E-05
 -1      4167-1.95757E-03-3.75769E-02-3.02119E-03 8.15824E-04 1.19298E-03 8.51046E-04
 -1      4168-6.64950E-03-3.81199E-02-8.95871E-03-1.11242E-03-1.34427E-03 1.05971E-03
 -1      4169 1.41211E-03 2.45741E-03 2.02496E-03 2.53743E-04 1.08522E-03-8.49509E-04
 -1      4170-4.56616E-04 1.97912E-03 3.64517E-04 6.64014E-04-2.37747E-04 7.01924E-04
 -1      4171 4.59120E-03-1.44990E-02 1.52961E-04-3.31723E-05 4.61103E-04-1.41113E-04
 -1      4172-1.54131E-03-4.27996E-04-2.48899E-04 7.27234E-04-1.13378E-04 2.26792E-04
 -1      4173-2.13581E-03-8.33033E-04-7.43804E-04 1.33211E-03-6.09966E-04 5.47329E-04
 -1      4174-1.44932E-04 6.54326E-04-6.50178E-04 7.38723E-04 8.91006E-04-1.74441E-04
 -1      4175-1.08186E-03 7.92562E-04-3.78902E-04 7.92174E-04-6.53418E-04 4.09468E-04
 -1      4176-8.05971E-04 1.47246E-04-6.77596E-04 5.96011E-04-3.78140E-04 1.91708E-04
 -1      4177-1.72553E-03-2.19439E-04-1.66967E-04 5.20826E-04-8.61471E-06-4.36063E-07
 -1      4178-1.38403E-03-1.56870E-04-9.86522E-05 2.74350E-04 9.90255E-06-5.68091E-05
 -1      4179-1.54660E-03-3.82716E-04-3.42806E-04 6.13910E-04-6.47400E-05 1.71391E-04
 -1      4180-1.15919E-03-1.13393E-04-5.03368E-05 6.65822E-05 4.79893E-05-5.86212E-05
 -1      4181-1.46179E-03-1.56829E-04-1.54235E-04 1.65840E-04 3.02297E-05-1.18171E-04
 -1      4182-1.04924E-04-2.73014E-04-1.82099E-06-1.55761E-04-2.54928E-05-1.97425E-05
 -1      4183-1.37014E-04-3.33198E-04-2.74998E-05-1.45686E-04-2.71348E-05-1.83920E-05
 -1      4184-6.63159E-05-3.37747E-04-2.31184E-05-4.11934E-05 1.03461E-06-4.19860E-06
 -1      4185-5.67123E-05-2.80890E-04-9.17267E-06 5.11951E-05-1.20052E-05 7.20713E-06
 -1      4186-8.10555E-05-3.38058E-04-2.65331E-05 4.30499E-05 1.71254E-05-8.79655E-06
 -1      4187-8.58428E-05-3.19842E-04-7.01635E-06 9.85424E-05-2.29970E-06 1.21105E-05
 -1      4188-5.28656E-05-2.69083E-04 1.71195E-05-8.01164E-05-3.42980E-07-1.84614E-06
 -1      4189 6.27722E-06 8.87054E-04-1.33249E-04 3.24196E-05-1.07462E-05 2.17328E-04
 -1      4190-1.04142E-03-1.30286E-04-1.41990E-05 1.79028E-04 1.66021E-05 5.49058E-05
 -1      4191-9.36366E-04-2.56099E-04-8.02648E-05 3.01482E-04-2.23914E-05 5.68965E-05
 -1      4192-1.40391E-03-2.05622E-04-1.39504E-04 1.02710E-04 1.39323E-05 2.49313E-05
 -1      4193-2.09131E-04-3.05131E-02-4.80479E-03 3.07598E-03-4.62381E-04-4.26134E-04
 -1      4194-5.81393E-04 3.44325E-04-8.92598E-04-5.71402E-04 1.05668E-04-3.07175E-05
 -1      4195-1.43494E-03-3.19102E-04-2.97647E-04 4.65330E-04 3.62123E-05-1.65022E-04
 -1      4196-1.66331E-03-2.87461E-04-3.01625E-04 2.77548E-04 2.96906E-05-8.15281E-05
 -1      4197-1.59284E-03-1.26166E-04-1.74479E-04 1.54301E-04 2.21022E-05-6.25370E-05
 -1      4198-1.38435E-03-2.45737E-04-2.64214E-04 3.72759E-04 6.21142E-05-1.26628E-04
 -1      4199-6.86888E-04-2.50419E-04-3.49862E-05 3.33293E-04-1.78459E-05 4.35956E-06
 -1      4200-4.46432E-04-2.79272E-04-1.30169E-05 2.80560E-04 1.46528E-05 8.98398E-06
 -1      4201-2.33004E-04-3.00855E-04-1.85814E-06 2.16437E-04-1.78536E-05 7.11773E-06
 -1      4202-1.46074E-03-6.23222E-04-5.37255E-04 7.07738E-04 1.97943E-04-4.17035E-04
 -1      4203-9.53855E-04-3.94005E-05-8.54226E-04 4.42334E-04 2.19642E-04-2.06440E-04
 -1      4204-1.31666E-03-5.21888E-04-6.28879E-04 5.22841E-04-4.41184E-05 1.10162E-04
 -1      4205-1.26498E-04-2.99953E-04-5.65872E-06 1.39229E-04 8.87015E-06 8.51853E-06
 -1      4206-1.98334E-03-3.62740E-02-8.73306E-03 8.68509E-04-1.15468E-04 3.39618E-04
 -1      4207 2.05861E-03-3.22177E-02-5.97000E-03-6.00462E-04-1.04906E-03 2.74103E-04
 -1      4208-1.21463E-04-3.62970E-04-2.17279E-05-1.42294E-04-6.64053E-06-9.69822E-06
 -1      4209-1.40016E-03-1.10094E-04-8.37575E-05-1.12798E-04 1.27389E-06 6.28782E-05
 -1      4210-1.71566E-04-2.83904E-04 6.21919E-06-1.75119E-04-6.39837E-06-6.04044E-06
 -1      4211 4.35655E-03-5.94269E-03 3.22488E-03-2.91151E-04 8.73197E-05 1.10035E-04
 -1      4212 1.81349E-03 1.31062E-03 1.73815E-03 1.49741E-03-2.97327E-04 4.12910E-05
 -1      4213 1.71943E+02 1.76358E+01-1.73967E+00-2.60047E+00 1.06880E-01 1.42096E-01
 -1      4214 1.71110E+02 1.83050E+01-1.99641E+00 2.67463E+00-1.28973E-01-6.96298E-02
 -1      4215 1.83094E+02 1.12236E+01-2.08170E+00 5.36717E-02 8.24728E-03-7.40553E-02
 -1      4216 1.83860E+02 9.24099E+00-9.44147E-01-4.55129E+00-2.35374E-02 4.26513E-02
 -1      4217 1.86682E+02 5.81993E+00-4.67609E-01 4.22444E+00-1.79392E-02 1.86252E-03
 -1      4218 1.97944E+02 1.27439E+01 2.44972E+00 1.83779E+00-1.87645E-01 2.57639E-01
 -1      4219 1.90153E+02 5.75589E-01-7.11346E-02-5.99065E+00-9.21492E-03 1.95614E-03
 -1      4220 1.82540E+02 1.82499E+01-4.51192E-01-1.59132E+01-6.03335E-01 7.62597E-01
 -1      4221 1.82879E+02 1.56747E+01-9.28747E-01 1.17273E+01-4.93041E-01-7.05267E-01
 -1      4222 1.80159E+02 1.35437E+01-1.90881E+00-8.96300E-01-2.06977E-01 1.18701E+00
 -1      4223-3.60212E-01 1.64698E+00 5.47855E-02-4.04965E-01 1.18166E-03-2.28118E-03
 -1      4224 1.77224E+02 1.64322E+01-1.42277E+00-4.06340E+00 5.04141E-01-1.17077E+00
 -1      4225 1.95019E+02-3.15778E+00-1.15908E-02 2.96602E+00 9.55333E-03 6.48569E-02
 -1      4226-3.30841E-01 1.60205E+00 4.91858E-02 3.45885E-01-8.51068E-04 7.98116E-04
 -1      4227 1.84425E+01-4.74440E+00 5.13427E-01-5.98728E+00-1.55280E-02 2.50579E-02
 -1      4228 1.12512E+02 1.00698E+01 1.14771E-01-1.68595E+01 3.04882E-01-2.83647E-01
 -1      4229 1.73857E+02 2.50285E+01-8.17601E-01 1.13998E+01 1.33743E+00 1.29832E+00
 -1      4230 1.28174E+02 1.04368E+01 4.35790E-01 1.26602E+01 1.73677E+00 4.24464E-01
 -1      4231 2.02460E+02-8.40694E+00-3.85699E-02-4.07919E+00-8.83153E-03-1.50194E-02
 -1      4232 1.68653E+02 2.78376E+01-6.77935E-01 8.99440E+00-1.37258E+00-9.89142E-01
 -1      4233-7.43545E+00 1.22068E+01 7.18909E-01-5.62336E-01-1.27848E-02-4.48717E-02
 -1      4234 1.61576E-02-4.32321E-02-2.06688E-03 3.30820E-02-1.36375E-03 2.75089E-04
 -1      4235 1.63177E+01-5.03470E+00 5.27875E-01 2.57646E+00 1.71321E-03-1.55673E-03
 -1      4236 2.39458E+00 1.22158E+00 1.59419E-01 3.28423E+00 4.50369E-03-5.49586E-03
 -1      4237 1.49054E+02 1.00665E+01-1.15786E+00 7.71035E+00-2.12911E+00-2.57838E-01
 -1      4238 1.56225E+02 1.27771E+01-9.48587E-01-2.89415E+00-1.08709E+00-3.73576E-01
 -1      4239 2.04557E+02-9.56754E+00-3.98169E-01 1.05743E+01 8.33883E-02 3.09669E-02
 -1      4240 1.60746E+02 1.48105E+01-8.28416E-01-1.62280E+00 1.00048E+00 6.37445E-01
 -1      4241 1.68939E+02 1.27498E+01 1.86289E+00 5.62743E+00 1.77088E+00 1.40355E-01
 -1      4242 1.91330E+02 1.50888E+01 8.17311E+00-6.64116E+00 4.02824E-01 1.36369E+00
 -1      4243 3.59270E-02-6.05928E-02-1.55388E-03-5.82116E-02-4.37921E-04-8.86094E-04
 -1      4244 1.70945E+00 1.47350E+00 1.36104E-01-3.18420E+00-2.73635E-03-7.33470E-03
 -1      4245 5.98914E+00-7.75938E-01 2.45664E-01 3.98919E+00-3.78258E-03-2.84169E-03
 -1      4246-3.00200E-01 1.35026E+00 5.41661E-02 3.69636E-02 4.22029E-03 4.14403E-03
 -1      4247 2.04513E+02-8.46755E+00-1.46587E+00-2.17794E+01-3.05499E-02-7.58091E-02
 -1      4248 1.80142E+02 1.13867E+01 1.35769E+00 8.95404E+00-8.72278E-01 6.21658E-01
 -1      4249 1.86025E+02 1.14867E+01-1.53251E+00-4.09353E+00-1.87087E-01 2.19555E+00
 -1      4250 1.75510E+02 2.99198E+01 5.98708E-01-1.65945E+01 1.71820E+00-1.23641E+00
 -1      4251-3.92791E-01 1.94727E+00 6.93647E-02-9.75553E-01 3.95459E-04-4.78071E-04
 -1      4252-4.07488E-01 1.89880E+00 7.64922E-02 8.09514E-01 8.10711E-04 5.70090E-03
 -1      4253 9.97654E+00-3.00338E+00 2.90733E-01-3.02344E+00-3.95244E-04-2.53019E-04
 -1      4254 2.93753E-01 1.98906E+00 9.40895E-02 2.01608E+00-1.32346E-03-1.75696E-04
 -1      4255 2.57829E+02-1.87588E+01-4.25092E+00 3.10271E+00-7.56009E-01 4.90177E-01
 -1      4256 1.23669E+01-4.62978E+00 3.67131E-01 1.88366E+00-2.34292E-02 4.93560E-03
 -1      4257 1.88641E+02 6.99635E+00-8.70784E-01-1.17872E+01 3.15709E-01-9.33477E-01
 -1      4258 1.88261E+02 3.54005E+00-1.55210E-01-9.68480E-01-9.60782E-03-7.54696E-02
 -1      4259 1.83924E+02 1.10317E+01-1.87191E+00 1.71918E+00 8.65230E-02-1.83345E+00
 -1      4260 1.78543E+02 1.41422E+01-1.69361E+00-1.30285E+00-2.14673E-01-1.75471E+00
 -1      4261-2.98615E-01 1.39293E+00 3.51560E-02-1.21703E-01 1.42024E-04-5.16121E-03
 -1      4262 3.17686E-01 1.96687E+00 6.72614E-02-1.99025E+00 2.86552E-03 3.31477E-03
 -1      4263 4.80446E+00-9.16165E-02 2.06361E-01-3.98754E+00-4.03460E-03-6.55785E-03
 -1      4264 1.81334E+02 1.14244E+01-8.18732E-01 3.82413E+00 3.00752E-01 7.95289E-01
 -1      4265-4.77576E-02 2.19614E+00 9.51087E-02-1.18149E+00 3.00130E-02 4.16434E-03
 -1      4266 2.22032E-01-7.20808E-02 2.01212E-02-1.30848E-01-1.37874E-03-2.71892E-03
 -1      4267 9.53112E-02-8.33432E-02 4.19051E-03 9.53746E-02-3.44602E-03 5.98786E-04
 -1      4268 2.80249E-01 1.58893E+00 1.07893E-01 7.46334E-01-7.88458E-03-1.51999E-02
 -1      4269 1.84274E+02 7.90633E+00-5.17732E-01 2.48199E-01 1.16872E-02 4.09650E-01
 -1      4270 4.34181E-01 3.19331E-01 5.81845E-02-2.73061E-02 7.33839E-03-4.91437E-03
 -1      4271 2.41590E+01 3.05666E+00 5.66148E-01-1.57402E+01 1.01371E-01 2.49053E-02
 -1      4272 1.59150E+02 2.78078E+01 2.85732E-01-7.83648E+00 1.75952E-01-5.57637E-01
 -1      4273 1.83029E+02 9.21559E+00-7.62849E-01-5.72409E-01 4.08089E-02-6.01832E-01
 -1      4274 1.80593E+02 1.26687E+01-1.96499E+00 4.93744E+00 4.46303E-01 2.84754E+00
 -1      4275 1.90032E+02 9.43964E-01-1.07533E-01 6.54346E+00-6.17976E-03 5.63252E-02
 -1      4276 1.71751E+02 1.31685E+01-7.80556E-01-4.82315E+00 2.19087E-01-1.97810E+00
 -1      4277 2.06358E+02-4.45092E+00-2.07205E+00 2.98715E+01 5.01651E-01-6.23680E-01
 -1      4278 1.81637E+02 1.13055E+01-9.61800E-01 2.64475E+00-2.20548E-01-8.42953E-01
 -1      4279 1.53738E+02 2.74933E+01-4.43171E-01-1.66580E+01 2.53689E-01-3.40168E+00
 -1      4280 1.91730E+02-1.60895E+00 6.98599E-03 7.64845E+00 4.71111E-02-4.10896E-02
 -1      4281 1.77574E+02 1.31349E+01 5.37978E-01-8.10032E+00-1.45840E+00-1.05212E-02
 -1      4282 4.21587E+01 1.34293E+01 1.13964E+00 2.26146E+01-9.24090E-03-1.58220E-02
 -1      4283 2.35544E+01-1.07595E+00 1.19021E+00 1.29903E+01-2.81504E-01 5.61281E-02
 -1      4284 1.88454E+02 5.89845E+00-5.71471E-01 9.75448E+00 2.87948E-01 8.12807E-01
 -1      4285 1.87421E+02 4.38014E+00-1.88443E-01-6.01069E+00 5.43959E-02-2.09135E-01
 -1      4286-3.99847E-01 8.92700E+00 7.18935E-01 1.02540E+01 9.99035E-02-1.83309E-01
 -1      4287 1.74211E+02 1.47227E+01-1.45487E+00 3.80366E+00-4.63690E-03-2.05190E+00
 -1      4288 1.86665E+02 6.31443E+00-5.63271E-01-8.90806E+00-2.23449E-01 6.25436E-01
 -1      4289 1.69569E+02 1.44568E+01-1.25063E+00-3.20595E+00 4.26632E-02 1.82640E+00
 -1      4290 1.94545E+02 1.75871E+01 1.01957E+01-1.94422E+00 1.58024E-01-4.29424E+00
 -1      4291 1.78852E+02 1.47691E+01-1.99526E+00 6.31414E-01 1.70605E-01 9.96592E-01
 -1      4292 4.26201E+01 1.53834E+01 5.70171E-01-2.26279E+01 2.25855E-02 2.09790E-02
 -1      4293 1.87093E+02 1.07580E+01-9.60596E-01-2.44540E+00-6.81549E-02-1.93512E+00
 -1      4294 1.89221E+02 2.97117E+00-2.88347E-01 8.03012E+00-5.12795E-02-4.40132E-01
 -1      4295 1.48814E+02 1.27869E+01-2.56443E+00 5.83773E+00 1.76091E+00 9.77267E-01
 -1      4296-1.79852E+00 1.22609E+01 7.32268E-01-1.49667E+01 4.51242E-02 3.93106E-01
 -1      4297 1.85743E+02 1.01486E+01-1.73177E+00 9.50811E-01-3.12747E-02 2.90822E+00
 -1      4298 1.62457E+02 3.32268E+01-6.51035E-01 8.94861E+00 1.59787E+00-1.08173E+00
 -1      4299 1.67763E+02 3.62058E+01 4.44755E+00 1.24801E+01 6.21194E-01-2.88954E-01
 -1      4300 1.87676E+02 4.15722E+00-1.58547E-01-3.53970E+00-1.78356E-02 1.18447E-01
 -1      4301 1.90904E+02-1.36525E+00-7.26374E-02-7.73335E+00 2.01603E-02 3.79903E-03
 -1      4302 2.03861E+02 2.81931E-01-3.91308E+00-4.27436E+01 9.98303E-01-6.58948E-01
 -1      4303 9.46675E-01 4.61218E+00 4.60552E-01-4.85359E+00 6.65967E-02-1.58291E-03
 -1      4304 1.90452E+02-2.86698E+00-3.55282E-01-1.16684E+01-9.41109E-02 9.73705E-03
 -1      4305 1.59968E+02 2.61430E+01 7.88829E-01-1.51414E+01-7.18879E-01 2.33560E+00
 -1      4306 1.89633E+02 2.13240E+00-7.73741E-02 8.79236E-01 1.88201E-02 3.42967E-02
 -1      4307-3.49939E-03-2.17886E-02-2.17083E-03-2.17321E-02-2.41263E-04-3.50043E-04
 -1      4308 6.27122E+01 1.84376E+01-2.74696E+00 3.12485E+01-3.11027E+00-1.54982E-02
 -1      4309 1.90416E+02 1.15353E+00-1.00467E-01 4.70160E+00 1.87453E-02-4.09227E-02
 -1      4310 1.70014E+02 2.17273E+01-1.28984E+00-3.64902E+00-1.33816E+00 1.52610E+00
 -1      4311 1.81764E+02 1.01346E+01-1.01951E+00-1.73864E-02 1.04687E-02 1.39710E+00
 -1      4312 1.94131E+02-2.71482E+00-7.99305E-02-3.45033E+00 6.23584E-03 4.12026E-02
 -1      4313-2.09063E-01 1.68962E+00 1.07069E-02 5.52353E-01-3.89023E-03 1.20590E-02
 -1      4314-1.76575E-01 1.67515E+00 1.68770E-02 4.74734E-01-2.89466E-03 7.91419E-03
 -1      4315-3.02440E-01 1.62745E+00 2.21420E-02 3.64084E-01 3.63256E-04 2.23904E-02
 -1      4316-1.76603E-01 1.67234E+00 1.72412E-02 4.75880E-01 2.60396E-03-7.60988E-03
 -1      4317-2.08683E-01 1.68985E+00 1.18570E-02 5.50544E-01 3.75870E-03-9.59886E-03
 -1      4318-3.01719E-01 1.61425E+00 1.95396E-02 3.63310E-01 9.88932E-04-1.96072E-02
 -1      4319 2.76862E+01 2.40725E+01-8.14555E-01-2.69330E+01-2.49321E+00-8.46877E-02
 -1      4320 1.59885E+01 2.03069E+01-3.20591E+00-1.85757E+01-1.66135E+00-1.68695E+00
 -1      4321 3.32859E+01 1.76715E+01 2.65719E-01-2.34109E+01-6.95253E-01-1.20684E+00
 -1      4322 2.79512E+01 1.92359E+01-2.85118E+00-2.17949E+01-1.68246E+00 3.08068E-01
 -1      4323 4.66437E+01 1.47509E+01-2.58815E-01-2.59735E+01-1.59139E+00-5.05487E-01
 -1      4324 1.58134E+01-3.83993E+00 2.26093E-01-3.33769E+00-2.04448E-01 2.31560E-02
 -1      4325 1.77521E+01-4.75022E+00 2.43484E-01-4.36685E+00-1.54109E-01-9.73949E-02
 -1      4326 1.59212E+01-2.10975E+00 1.53471E-01-5.25908E+00-1.79980E-01 7.80762E-02
 -1      4327 1.79286E+02 1.20826E+01-7.82599E-01-1.54677E+00-2.23992E-01 9.99063E-01
 -1      4328 1.81447E+02 1.13783E+01-1.57308E+00-3.03173E+00-6.66265E-02 5.88361E-01
 -1      4329 1.81662E+02 1.00024E+01-5.96828E-01-3.33672E+00-6.95029E-02 4.35645E-01
 -1      4330 1.80578E+02 1.06932E+01-3.34855E-01-9.39633E-01-5.77387E-02 8.17744E-01
 -1      4331 1.82990E+02 1.04432E+01-8.01181E-01-2.08291E+00-1.63942E-01 6.06664E-01
 -1      4332 1.80900E+02 1.14705E+01-1.42489E+00-3.94450E-01-1.69767E-01 1.31712E+00
 -1      4333 1.81537E+02 1.01770E+01-6.17720E-01-3.35905E+00 1.59899E-01-4.13446E-01
 -1      4334 1.81176E+02 1.26113E+01-9.98001E-01-4.68146E+00 2.48994E-01-5.64912E-01
 -1      4335 1.78130E+02 1.28977E+01-7.88125E-01-2.78700E+00 2.27448E-01-8.55269E-01
 -1      4336 1.81031E+02 9.94043E+00-3.75274E-01-1.25658E+00 3.13391E-03-4.37399E-01
 -1      4337 1.80635E+02 1.15789E+01-1.17551E+00-2.18450E+00 2.94832E-01-9.70344E-01
 -1      4338 1.83823E+02 9.48967E+00-7.39989E-01-2.52080E+00 5.80084E-02-3.46487E-01
 -1      4339 1.79788E+02 1.53984E+01-1.27521E+00-2.63321E+00 2.92490E-01-1.09593E-01
 -1      4340 1.81894E+02 1.10621E+01-1.62435E+00-1.10008E+00 5.83910E-02-4.13489E-02
 -1      4341 2.70603E+02 4.57653E+00 5.74455E+00 1.95829E+01-2.01021E+00 1.65150E+00
 -1      4342 2.83579E+02 7.67751E+00 3.00636E+00 6.80558E+00 2.86583E-01 2.56106E+00
 -1      4343 2.23687E+02 7.85668E+00 4.76879E+00 3.65761E+01-1.42879E+00-3.17645E-01
 -1      4344 2.35422E+02-1.12909E+00-6.42572E+00 2.89320E+01 1.66214E+00 1.54343E+00
 -1      4345 2.29802E+02-1.21766E+01-5.84909E+00 2.09683E+01 5.35226E-01 1.46198E+00
 -1      4346 1.89926E+02 1.45978E+00-9.40472E-02-3.97344E+00-5.10836E-04 4.52008E-02
 -1      4347 1.88956E+02 2.07433E+00-2.26560E-01-4.79929E+00-1.32410E-02 4.44541E-02
 -1      4348 1.91062E+02-1.40830E-02-3.82802E-02-5.34173E+00-4.14760E-02-1.68721E-02
 -1      4349 1.90961E+02 4.34294E-01-1.01037E-01-1.87075E+00-2.58768E-03-7.00200E-03
 -1      4350 1.89982E+02 1.29169E+00-8.00725E-02-2.88073E+00-1.33194E-02 5.20538E-03
 -1      4351 1.88641E+02 3.10375E+00-1.23753E-01-1.39452E+00 1.61291E-02 7.20341E-02
 -1      4352 2.16925E+02-1.53811E+01-2.11656E-01 5.70100E+00 2.16120E-01-8.35524E-01
 -1      4353 2.09897E+02-1.27649E+01-1.19799E+00-4.21354E+00-6.33215E-02 1.67150E-02
 -1      4354 2.20382E+02-1.61570E+01-1.34495E+00-1.13641E+01-5.19564E-03-6.14453E-01
 -1      4355 2.40676E+02-2.02241E+01-2.69195E+00 7.45391E-02-6.93935E-01-1.50622E+00
 -1      4356 2.34641E+02-1.22344E+01-7.29062E-01-1.13305E+01-2.87838E-01 9.99632E-02
 -1      4357 2.21486E+02-1.81379E+01-4.11452E+00 6.60808E+00-3.33677E-01 4.65711E-01
 -1      4358 2.31953E+00 9.03022E-01-1.90006E-01 2.40404E+00-2.25643E-01-1.32949E-02
 -1      4359 5.46936E+00 1.42408E+00 8.88781E-02 3.74161E+00-1.37569E-01 1.67052E-01
 -1      4360 2.76305E+00 5.97455E+00 1.61680E-01 7.29281E+00-5.53043E-01 1.30209E-01
 -1      4361 3.37113E+00 3.47991E+00-3.65188E-01 5.28305E+00-4.07112E-01-9.10272E-02
 -1      4362 2.13249E+00 2.73517E+00 1.61514E-01 3.29951E+00-8.58138E-02 1.29330E-01
 -1      4363 2.19337E+02-1.61917E+01-1.33802E+00-1.10219E+01-5.53243E-02 5.81714E-01
 -1      4364 2.16163E+02-1.53274E+01-3.22970E-01 5.66498E+00-2.17689E-01 8.05065E-01
 -1      4365 2.38631E+02-2.06452E+01-1.91120E+00 1.07378E+00-5.91124E-02 1.72730E+00
 -1      4366 2.71917E-01 1.12396E+00-8.88142E-03 2.72902E-01-6.56216E-03 2.91413E-02
 -1      4367 1.35820E-01 5.64326E-01-7.06959E-03 1.54783E-01 4.03953E-03 7.40136E-03
 -1      4368 3.25548E-01 1.55738E-01-1.83195E-02-6.74452E-02 5.29861E-03 1.77766E-02
 -1      4369 3.63838E-01 3.28592E-01-1.87368E-02 2.02239E-02 3.03081E-02-1.67639E-04
 -1      4370 2.26545E-01 5.20784E-02 2.71235E-02-7.90008E-02 1.24161E-03 5.57126E-03
 -1      4371 3.60361E-02 7.97828E-01-5.96153E-02 2.43657E-01 1.01864E-02-1.00051E-02
 -1      4372 1.82312E+02 1.26050E+01-1.69336E+00 2.56585E-01 5.16343E-02-3.59234E-01
 -1      4373 1.80051E+02 1.35407E+01-1.46263E+00-6.60886E-01 3.73902E-01-1.50827E+00
 -1      4374 1.82189E+02 1.00507E+01-1.58260E+00 2.04624E-01 1.64616E-02-1.22067E+00
 -1      4375 1.85022E+02 7.23897E+00-2.68546E-01 3.46781E+00-5.13727E-02-2.00766E-01
 -1      4376 1.84785E+02 7.70689E+00-5.32792E-01 1.78281E+00-2.95875E-02-2.94878E-01
 -1      4377 1.82999E+02 8.69316E+00-3.92846E-01 1.04288E+00-1.53321E-02-3.51611E-01
 -1      4378 1.82190E+02 9.63969E+00-5.09146E-01 2.76637E+00-1.55656E-01-4.98743E-01
 -1      4379 1.82342E+02 9.82670E+00-9.67215E-01 1.04021E+00-3.99713E-02-6.57988E-01
 -1      4380 1.83968E+02 8.24821E+00-8.96704E-01 3.57449E+00-1.20631E-01-3.89607E-01
 -1      4381 1.41626E+01 1.32026E+00 1.09820E-01-5.93210E+00 2.67082E-02 1.30182E-01
 -1      4382 1.41481E+01 2.43240E-01 9.94522E-02-4.48167E+00-4.89231E-02-1.31520E-02
 -1      4383 1.58498E+01-5.53021E-01 4.42316E-01-5.89143E+00-7.22930E-02 9.10958E-02
 -1      4384 1.32881E+02 5.12499E+00-1.98657E+00-8.37014E+00-1.83254E+00-1.30302E+00
 -1      4385 1.34263E+02 1.10047E+01-4.50945E-01-9.84380E+00-4.25952E-01-1.62748E-01
 -1      4386 1.13844E+02 1.18715E+01 1.90482E+00-1.29347E+01-2.05624E+00 4.77897E-01
 -1      4387 1.48403E+02 9.26806E+00 6.54548E-01-1.98598E+00-1.43490E+00 2.33933E-01
 -1      4388 1.47600E+02 1.40858E+01 2.34486E+00-1.35822E+00-2.57330E-01 3.61774E-01
 -1      4389 1.65170E+02 1.22399E+01-7.69141E-02 1.66293E+00-1.37658E+00-5.16440E-01
 -1      4390-1.88914E+01 2.26802E+01 6.39222E-01 7.13402E-01 5.38318E-02 4.82131E-01
 -1      4391-2.14982E+01 2.43317E+01 2.58656E-01 5.69109E+00 7.77862E-02 6.77301E-01
 -1      4392-7.64863E+00 1.56819E+01 3.38882E-01 1.15515E+01 5.37499E-02 2.92441E-01
 -1      4393-1.42071E+01 1.72171E+01 7.34572E-01 7.49289E+00-8.78437E-02 1.58550E-01
 -1      4394-8.71425E+00 1.31300E+01-2.25693E-01 6.27881E+00 1.46704E-01 3.60810E-01
 -1      4395 1.60403E+02 1.59740E+01 7.65455E+00-1.91402E+00 9.16805E-01 8.20952E-01
 -1      4396 1.68741E+02 2.13721E+01 2.90224E+01 6.51531E+00-1.31878E+00 7.81278E+00
 -1      4397 1.34898E+02 1.79007E+01 2.15435E+01 1.26390E+01-9.62860E-01 6.47522E+00
 -1      4398 1.52124E+02 1.33558E+01 6.83050E-02-2.00889E-01 3.80029E-01-1.74660E-02
 -1      4399 1.64576E+02 1.98926E+01 2.60464E+01 5.28994E+00-2.39972E+00 2.81326E+00
 -1      4400 1.85166E+02 1.54194E+01 7.46718E+00-8.30605E+00-1.36489E+00-1.35489E+00
 -1      4401 1.27924E+02 4.16691E+00-1.74180E+00 1.15752E+01-1.78007E+00 8.15826E-01
 -1      4402 1.39828E+02 6.71077E+00-1.26927E-01 9.73397E+00-1.59123E-01-5.85466E-01
 -1      4403 1.21226E+02 8.95634E+00 1.63216E+00 1.28984E+01-3.79660E-01-3.02257E-01
 -1      4404 1.45755E+02 7.74833E+00-9.88628E-01 2.38011E+00-1.79088E+00-3.00749E-01
 -1      4405 1.61621E+02 1.24764E+01 2.03478E-01 1.81132E-01-1.33785E+00 6.34525E-01
 -1      4406 1.89037E+02 2.87906E+00-4.63833E-02-2.36058E+00-9.03802E-03 5.79281E-02
 -1      4407 1.90048E+02 1.80038E+00-5.18112E-02-2.00238E-01 2.68803E-02-1.05509E-02
 -1      4408 1.80730E+02 1.39153E+01-3.86210E-01 8.23072E+00-6.59307E-01-6.30808E-01
 -1      4409 1.83706E+02 1.03342E+01-7.09181E-01 8.08975E+00-4.57473E-01-6.29581E-01
 -1      4410 1.79827E+02 1.17899E+01-4.54843E-01 4.28730E+00-2.78762E-01-5.57987E-01
 -1      4411 1.82900E+02 8.94201E+00-5.41608E-01 4.47133E+00-1.69399E-01-4.05170E-01
 -1      4412 1.81421E+02 1.33220E+01-1.19874E+00 6.01567E+00-4.42822E-01-6.62626E-01
 -1      4413 1.84052E+02 8.38732E+00-7.59867E-01-2.07048E+00-4.92833E-02 2.91825E-01
 -1      4414 1.82106E+02 9.33928E+00-2.14374E-01-1.13548E+00-3.01478E-03 3.97706E-01
 -1      4415 1.82668E+02 9.04496E+00-9.27407E-01 2.52042E-02-2.40639E-02 7.72577E-01
 -1      4416-8.82316E-02 8.42171E-01-5.56980E-02-4.81643E-01 6.04733E-02-5.28334E-02
 -1      4417-9.19425E-02 8.52285E-01 1.04836E-01-4.61334E-01 7.56183E-02-4.25013E-02
 -1      4418-2.75922E-01-7.52397E-02-3.92181E-02 1.20757E-01 2.86719E-02-7.82360E-02
 -1      4419 3.78398E-01 3.02507E-01 8.22090E-02-4.98832E-02 2.26668E-02 5.05872E-03
 -1      4420 1.85166E-01 2.38546E-01 1.18048E-01 3.63501E-02 1.66028E-02-6.57417E-03
 -1      4421-2.95145E-02 1.11733E+00-5.77742E-02-3.16287E-01 2.09475E-02-3.86982E-03
 -1      4422 1.80106E+02 1.69950E+01-1.36809E+00-7.51712E+00-3.20891E-01 8.44763E-01
 -1      4423 1.75532E+02 1.76714E+01-1.51920E+00 6.81798E-01-1.07132E-01 5.40693E-01
 -1      4424 1.73696E+02 2.20202E+01-8.60244E-01-6.69416E+00 1.22741E-01-1.76700E-01
 -1      4425 1.78528E+02 1.76264E+01-1.29418E+00-9.36377E+00 6.55983E-02-3.36879E-01
 -1      4426 1.74281E+02 1.99256E+01-7.85603E-01-1.21497E+00 2.96169E-01-6.80531E-01
 -1      4427 1.53068E+02 1.39714E+01 7.63325E-02 4.62001E+00 3.14966E-01 1.58217E-01
 -1      4428 1.71448E+02 1.48045E+01-1.28511E+00-3.47248E+00 3.34248E-01-8.87959E-01
 -1      4429 1.55802E+02 1.41134E+01 1.59511E+00 2.54866E+00 6.88493E-01-9.27915E-01
 -1      4430 1.71754E+02 1.24285E+01 9.93775E-04-4.85092E+00-5.83868E-02-1.04614E+00
 -1      4431 1.71500E+02 1.38245E+01-1.12530E+00-4.27831E+00-4.66922E-01 6.78828E-01
 -1      4432 1.85811E+02 6.20346E+00-3.22840E-01 5.11395E+00-6.56477E-02-2.08139E-01
 -1      4433 1.82154E+02 1.06314E+01-4.41597E-01-5.96672E+00 3.06960E-01-4.71441E-01
 -1      4434 1.78083E+02 1.41805E+01-6.90168E-01-5.79449E+00 3.96542E-01-8.93536E-01
 -1      4435 6.64786E+01 1.55492E+01-4.36239E+00 2.47274E+01 2.30718E+00 8.73227E-01
 -1      4436 8.65233E+01 1.20355E+01-1.54971E+00 2.76091E+01 2.43114E+00-6.98873E-01
 -1      4437 2.70644E+01 2.24511E+01-2.42467E+00 2.65521E+01 1.69189E+00-7.70935E-01
 -1      4438 2.83173E+01 1.89457E+01-2.28463E+00 2.17393E+01 1.28392E+00-9.40955E-01
 -1      4439 4.75954E+01 1.49969E+01 7.37691E-01 2.61772E+01 1.55892E+00-2.37233E-01
 -1      4440 8.01936E+01 1.07000E+01-9.15525E-01 1.92584E+01 5.21076E-01-9.16032E-02
 -1      4441 2.04228E+02-9.64404E+00-1.24213E-01-1.92019E+00-4.31431E-03 2.81693E-02
 -1      4442 1.99956E+02-5.58045E+00 3.35774E-01-2.96933E-01 3.73990E-02 7.53361E-02
 -1      4443 1.99766E+02-6.73089E+00-1.40520E-02 1.72488E+00 2.12708E-02 2.33566E-02
 -1      4444 2.04878E+02-1.06183E+01-5.99844E-01 4.61521E+00-1.95237E-01 2.83392E-02
 -1      4445 1.99501E+02-6.45438E+00-8.83320E-02 6.09024E+00-1.56240E-02 1.17402E-01
 -1      4446 2.05386E+02-9.29336E+00 8.48802E-01 2.61328E+00 7.42692E-03 3.62068E-02
 -1      4447 1.85022E+02 7.32138E+00-2.62638E-01 3.52511E+00 7.31750E-02 1.90429E-01
 -1      4448 1.85914E+02 6.42873E+00-2.66096E-01 5.20563E+00 1.03400E-01 1.95039E-01
 -1      4449 1.81931E+02 9.52968E+00-5.33579E-01 3.27026E+00 1.81154E-01 4.07571E-01
 -1      4450 1.83043E+02 9.46463E+00-2.64227E-01 5.11884E+00 2.59107E-01 4.21099E-01
 -1      4451 1.84358E+02 8.88503E+00-5.03658E-01 4.15675E+00 1.15467E-01 3.73540E-01
 -1      4452 2.39659E+02-1.28193E+01 2.30251E-01 2.02130E+01 9.06230E-01 2.15286E+00
 -1      4453 2.53323E+02 4.99831E-01 8.07496E-01 2.73661E+01 3.03681E+00 5.46335E-01
 -1      4454 2.11261E+02-1.07767E+01-1.80270E+00 3.02143E+01 1.46918E+00 1.35407E+00
 -1      4455 1.78891E+02 1.09894E+01-4.53580E-01 1.09863E+00 1.72134E-01 9.01021E-01
 -1      4456 1.80010E+02 1.29996E+01-1.50250E+00 2.39953E+00 3.18195E-01 9.18218E-01
 -1      4457 1.77047E+02 1.17602E+01-1.34456E+00-5.85885E-01 1.37362E-01 1.34532E+00
 -1      4458 1.79781E+02 9.83377E+00-3.24777E-01-6.41624E-01 1.32146E-02 1.28365E+00
 -1      4459 1.80424E+02 1.15317E+01-1.66905E+00 1.42572E-01 6.27747E-02 1.26796E+00
 -1      4460 1.81960E+02 1.08733E+01-6.78092E-01 1.40224E+00 1.05607E-01 1.09648E+00
 -1      4461 1.78511E+02 1.33766E+01 2.25507E+00-5.26311E+00 4.25015E-01-6.34422E-01
 -1      4462 6.87028E-01 5.15583E-01-9.09136E-02 1.15577E+00 1.24628E-01 5.63583E-02
 -1      4463 6.96074E-01 9.88430E-01 8.08422E-02 7.31521E-01 1.04028E-01-3.15439E-02
 -1      4464 2.39270E-01 1.81236E+00 3.99686E-02 1.56332E+00 9.40632E-02-9.76398E-03
 -1      4465 1.01791E+00 4.67987E+00 2.50805E-01 4.93290E+00 1.71128E-01-2.44597E-01
 -1      4466-9.92751E-02 4.09172E+00-9.60620E-02 4.08308E+00 7.89879E-02-5.04063E-02
 -1      4467 2.22134E+00 2.79076E+00 2.90595E-01 3.37036E+00 1.78337E-01-1.20741E-01
 -1      4468 2.23122E-01 1.64617E-01 1.46924E-02-1.89690E-02 6.82328E-03-1.87711E-03
 -1      4469 1.73928E-01 1.00205E+00-1.19068E-02 3.88469E-01 2.27707E-02 4.55981E-02
 -1      4470 2.64480E+00 7.28311E-01-3.09990E-01 2.50064E+00 1.62281E-01 9.92132E-02
 -1      4471 5.38699E+00 1.43085E+00-8.81596E-02 4.01080E+00 1.96021E-01-1.03378E-02
 -1      4472 3.94606E+00 3.80462E+00-1.39907E-01 5.51696E+00 7.00954E-01 9.37693E-02
 -1      4473 3.34303E+00 6.34855E+00 4.53658E-01 7.82913E+00 6.74612E-01-3.74524E-02
 -1      4474 3.20514E+00 4.38606E+00 5.83479E-01 4.92055E+00 1.28202E-01 1.08597E-01
 -1      4475-1.03448E+01 1.50861E+01 2.81567E-01-2.42305E-01-1.01654E-01 1.63305E-01
 -1      4476-1.59151E+01 1.90077E+01 8.71829E-01 6.90620E-02-6.67469E-02 1.07269E-01
 -1      4477-4.96041E+00 1.08660E+01 4.03119E-01 5.10970E+00 1.16411E-01-4.28229E-02
 -1      4478 1.69516E+02 2.00651E+01-1.95039E+00-3.51084E-01-1.01833E+00 9.31082E-01
 -1      4479 1.76486E+02 2.20636E+01 4.55647E-02-1.01623E+01-9.38749E-01 1.02867E+00
 -1      4480 1.74687E+02 1.61045E+01-2.00531E+00-2.48418E+00-8.21364E-01 1.44357E+00
 -1      4481 1.72242E+02 1.70285E+01-1.64515E+00 2.93720E+00 2.13372E-02-1.07775E+00
 -1      4482 1.78311E+02 1.47788E+01-1.71768E+00 1.22761E+00-5.01674E-02-4.05323E-01
 -1      4483 1.75172E+02 1.55826E+01-1.79502E+00-1.08742E-01 3.12374E-01-1.44989E+00
 -1      4484 1.82947E+02 1.01569E+01-9.47107E-01-2.57413E-01 3.65839E-02 2.54603E-01
 -1      4485-2.84701E-01 1.48352E+00 1.21089E-02 2.06326E-01-2.17825E-03-4.92736E-03
 -1      4486-9.45961E-02 1.67201E+00 2.11376E-02 3.89615E-01-1.77850E-03-3.69910E-03
 -1      4487-9.12482E-02 1.62678E+00 2.91663E-03 2.63672E-01 1.64612E-03-3.06127E-03
 -1      4488-2.74394E-01 1.37708E+00 1.56083E-02 6.44457E-02 3.90420E-03-7.02151E-03
 -1      4489-1.38590E-01 1.53933E+00 6.57328E-03 2.03185E-01 2.81179E-03-3.77522E-03
 -1      4490-3.81140E-01 1.33966E+00-5.37215E-03 1.57686E-01-8.13433E-03-2.71494E-03
 -1      4491 6.37878E-02-7.66489E-02 3.42546E-03-7.19699E-03 7.59891E-04-7.43924E-04
 -1      4492 5.20024E-02-5.51108E-02 5.94651E-03-8.43846E-03-2.16916E-03-8.46709E-04
 -1      4493 3.54423E-02-6.48924E-02-5.82538E-04 3.50113E-02 3.24897E-04-5.60055E-04
 -1      4494 7.13981E-02-8.11097E-02 2.45723E-03 6.20767E-02-1.27262E-04-1.92679E-04
 -1      4495 4.04121E-02-6.95974E-02-1.03635E-03 6.25142E-02-1.88916E-03-5.12872E-04
 -1      4496 9.51187E-02-8.13916E-02 5.16405E-03 8.67735E-03 8.41883E-04-1.95235E-03
 -1      4497 1.80457E+02 1.28316E+01-2.06037E+00-1.71961E+00 3.09165E-02 1.47632E+00
 -1      4498 1.80279E+02 9.88387E+00-1.03962E+00-2.58193E+00-1.33359E-01 1.85170E+00
 -1      4499 1.83393E+02 1.04822E+01-1.32844E+00-1.46901E+00-1.77352E-02 1.83701E+00
 -1      4500 2.47212E-02-6.23735E-02-3.99686E-03-2.42287E-02-3.54105E-04-1.92417E-04
 -1      4501 2.62753E-02-4.36394E-02 1.47180E-03 1.52753E-02-5.86668E-04-1.47086E-05
 -1      4502 8.57518E-03-3.72000E-02-1.58380E-03-1.57983E-02 4.56833E-04 9.84828E-04
 -1      4503 1.98791E-02-3.71643E-02 2.28105E-03-1.49740E-03-1.23284E-03 5.22986E-04
 -1      4504 3.02418E-03-4.55464E-02-5.64622E-03-3.99997E-02-1.95918E-04-4.20053E-04
 -1      4505 3.06411E-02-5.72647E-02-9.92418E-04-2.64008E-02 1.22005E-04-1.41663E-03
 -1      4506 2.47812E-02-4.66713E-02 8.78459E-04 1.44111E-02-5.60784E-04-1.64700E-04
 -1      4507 1.06510E-02-3.46122E-02-2.54058E-04-1.68486E-02-3.02084E-04-8.45912E-04
 -1      4508 1.74070E+02 1.30829E+01 5.16936E+00 7.70179E+00 1.40440E+00-2.15046E-01
 -1      4509 1.72636E+02 1.41878E+01 2.50929E-01 4.63370E+00-6.30769E-01-7.90556E-01
 -1      4510 1.68278E+02 1.32410E+01-1.27558E+00 3.21568E+00 8.26694E-01 2.62602E-01
 -1      4511 1.75472E+02 1.27800E+01-4.12673E-01 5.87175E+00 1.19046E+00 1.69019E+00
 -1      4512 1.76193E+02 1.58274E+01-1.42646E+00 4.08731E+00-1.24500E-01 7.88921E-01
 -1      4513 1.79254E+02 1.24309E+01 9.95354E-01 5.98720E+00-1.31038E-01 2.50965E-01
 -1      4514 1.98617E+02-6.39603E+00-1.76579E-01-1.74621E+00 7.25014E-02-1.99499E-01
 -1      4515 1.95382E+02-3.29263E+00-4.94972E-02 1.44380E+00-4.49458E-02-2.32482E-02
 -1      4516 1.94944E+02-2.91689E+00 1.10512E-02-1.83224E+00 5.38121E-03-4.21346E-02
 -1      4517 1.94837E+02-3.26007E+00-9.20345E-02-3.39283E-01 1.23994E-02 7.09649E-02
 -1      4518 1.98499E+02-5.41980E+00 5.92913E-02-3.87004E+00-2.55918E-02 2.25375E-02
 -1      4519 4.10836E+00 8.35547E-01 3.86530E-02 2.60084E+00 8.15950E-04 2.36593E-04
 -1      4520 4.55005E+00 6.33476E-01 8.03673E-03 2.57678E+00 8.70023E-03 8.61667E-04
 -1      4521 5.87013E+00 2.00506E-01 1.07385E-01 2.82689E+00-8.03173E-04 2.68364E-03
 -1      4522 6.42371E+00-4.32620E-02 9.55643E-02 2.71919E+00 1.19471E-02-1.84278E-02
 -1      4523 3.63141E+00 1.78779E-01 2.95400E-02 3.66794E+00 5.30400E-03-9.04309E-04
 -1      4524 4.55053E+00 6.31849E-01 7.54559E-03 2.57560E+00-7.53530E-03-1.27132E-03
 -1      4525 6.42595E+00-5.03964E-02 9.64629E-02 2.71332E+00-1.65939E-02 2.91040E-02
 -1      4526 1.95306E+02-3.72947E+00-8.13992E-02 4.03542E+00 9.44161E-02 3.44614E-03
 -1      4527 1.99970E+02-6.41093E+00 8.12019E-02 7.17147E+00-3.72497E-03-6.38487E-02
 -1      4528-1.16105E-01 1.65150E+00 2.33960E-02 3.10452E-01 6.96003E-05 3.13853E-04
 -1      4529-1.46227E-01 1.52800E+00 1.12423E-02 1.33365E-01 5.82297E-04-1.61506E-04
 -1      4530 5.87213E+00 3.98328E-01 1.07119E-02 2.36316E+00-1.61089E-03-1.72867E-02
 -1      4531 3.43538E+00 8.83776E-01 4.35482E-02 3.20783E+00-2.48943E-02 2.93745E-02
 -1      4532 5.15765E+00-4.90116E-02 9.93481E-02 3.56037E+00-3.81592E-02 3.21896E-02
 -1      4533 5.86655E+00 4.03613E-01 1.28168E-02 2.36499E+00 2.90410E-03 2.02120E-02
 -1      4534 3.42727E+00 8.90041E-01 4.98298E-02 3.20534E+00 2.46315E-02-3.20623E-02
 -1      4535 5.13050E+00-3.99737E-02 9.11683E-02 3.56392E+00 3.53873E-02-1.99393E-02
 -1      4536-9.44738E-02 1.67232E+00 2.07801E-02 3.89908E-01 1.61258E-03 4.34022E-03
 -1      4537-2.82455E-01 1.48501E+00 1.30551E-02 2.05418E-01 1.05323E-03 6.43852E-03
 -1      4538-9.17803E-02 1.62660E+00 2.62984E-03 2.64327E-01-1.66664E-03 4.09044E-03
 -1      4539-1.38728E-01 1.54011E+00 7.88547E-03 2.03347E-01-1.92155E-03 3.01082E-03
 -1      4540-2.78865E-01 1.37321E+00 1.59520E-02 6.39547E-02-4.04808E-04 9.43367E-03
 -1      4541 9.84160E+01 2.61546E+01-7.84877E-02-4.41144E+01-4.68584E+00 8.80136E-01
 -1      4542 5.55566E+01 1.99915E+01-8.74188E-01-2.92924E+01-4.34995E+00 4.97255E-01
 -1      4543 1.08195E+02 7.70560E+00 4.50760E-02-2.39325E+01-2.77770E+00 3.58192E-01
 -1      4544 6.18587E+01 1.77987E+01-4.37590E+00-2.53053E+01-1.39330E+00 3.41800E-02
 -1      4545 1.05131E+02 2.57011E+01 2.08960E-02-3.92252E+01-1.91941E+00 7.32209E-01
 -1      4546 1.50567E+01 1.83556E+01-4.34247E+00 1.76511E+01 1.28923E+00-1.74138E+00
 -1      4547 3.43975E+01 1.67448E+01 9.47056E-01 2.28798E+01 8.36318E-01-9.86411E-01
 -1      4548 6.92010E+00-2.95012E-01-7.68683E-04 2.52996E+00-9.62732E-03-1.30696E-03
 -1      4549 1.29528E+01-3.84684E+00-2.01199E-02 3.65215E-02-6.74933E-02 5.01945E-02
 -1      4550 1.40204E+01-6.32929E+00-3.34193E-01-1.47066E+00-3.44789E-02 1.07028E-01
 -1      4551 1.34410E+01-1.50510E+00 6.38417E-02-2.59054E+00-3.04612E-02 8.03740E-02
 -1      4552 1.92510E+02-6.03980E-01-1.76619E-02 3.29452E-01 1.06459E-02-9.96352E-03
 -1      4553 1.99458E+02-7.27079E+00-3.05040E-01 7.68372E+00 1.18204E-01 7.61067E-02
 -1      4554 1.95603E+02-3.76296E+00-2.63870E-02 4.39206E+00-8.92599E-02 2.44485E-02
 -1      4555 1.92561E+02-3.15230E+00-4.48139E-01 5.64222E+00 2.36623E-02 2.90260E-02
 -1      4556 1.93143E+02-3.20090E+00-2.82323E-01 6.80408E+00 6.93311E-02 8.39818E-02
 -1      4557 1.95982E+02-5.63589E+00-7.53179E-01 9.17241E+00 6.27901E-02-1.82276E-02
 -1      4558 8.89822E+00-8.09138E-01 6.96167E-02 1.62597E+00-2.12886E-02-6.80797E-03
 -1      4559 8.64049E+00-7.84574E-01 4.36301E-02 1.77163E+00 1.36859E-02 1.96027E-02
 -1      4560 8.16179E+00-3.92340E-01 1.96208E-01 2.20783E+00-2.90558E-03-1.12114E-02
 -1      4561 1.81268E+02 9.47869E+00-3.17305E-01-3.05880E-01 8.13951E-02-1.01830E+00
 -1      4562 1.83104E+02 1.02862E+01-1.44214E+00-1.52217E-01-9.58411E-03-4.71914E-01
 -1      4563 1.81330E+02 1.02794E+01-1.14883E+00-1.75759E-01-6.54534E-03-1.21681E+00
 -1      4564 1.80573E+02 1.06915E+01-2.21572E-01 7.48511E-01-5.28747E-02-1.05921E+00
 -1      4565 1.82341E+02 1.18390E+01-1.37046E+00 1.51473E+00-1.05015E-01-5.92895E-01
 -1      4566 1.17739E+01-1.88431E+00 1.66494E-01 3.77942E-01-2.94550E-02 3.32440E-02
 -1      4567 1.17046E+01-1.70606E+00 2.35352E-01 5.96259E-01 2.67799E-02-3.68102E-02
 -1      4568 8.12074E+00-3.11213E+00-7.78709E-02 3.35320E+00 1.25576E-02 3.80681E-02
 -1      4569 1.76503E+02 1.66395E+01-6.80204E-01 7.91833E+00-7.09168E-01-7.26526E-01
 -1      4570 1.76707E+02 1.41549E+01-4.95835E-01 3.87923E+00-3.75525E-01-7.49922E-01
 -1      4571 1.95613E+00 1.46727E+00 5.58440E-02-3.24701E+00 1.82973E-02 3.19390E-02
 -1      4572 2.67775E+00 1.16755E+00-6.00443E-03-2.91388E+00 4.13542E-03 1.39123E-02
 -1      4573 3.08496E+00 9.89293E-01 5.16299E-02-3.17761E+00 3.45454E-02 1.95838E-02
 -1      4574 2.66865E+00 1.16660E+00-1.26346E-02-2.90624E+00-3.28209E-03-1.72113E-02
 -1      4575 1.95949E+00 1.46677E+00 5.90702E-02-3.21949E+00-1.60344E-02-2.56831E-02
 -1      4576 3.08896E+00 1.01273E+00 5.32720E-02-3.16986E+00-3.31984E-02-2.67302E-02
 -1      4577 1.80421E+02 1.12972E+01-2.08217E-01 2.43821E+00 1.44781E-01 6.30731E-01
 -1      4578 1.80640E+02 1.05805E+01-2.52436E-01 3.61341E-01 1.29016E-01 8.55757E-01
 -1      4579 1.99546E+02-6.67930E+00 1.14707E-01-5.03300E+00 5.41014E-02-9.11994E-02
 -1      4580 1.94928E+02-3.72833E+00-1.57900E-01-4.35289E+00 2.13678E-02 1.47220E-02
 -1      4581 9.55414E+01-1.33114E+01 3.26268E+00-1.38929E+01 2.16979E+00 3.33010E+00
 -1      4582 1.31013E+02 1.14826E+01 1.98850E+01-1.56145E+01 2.83428E+00 9.05758E+00
 -1      4583 1.26129E+02 1.53991E+01 2.02435E+01-1.55537E+01 1.04747E+00 5.12772E+00
 -1      4584 9.32478E+01-6.96667E+00 6.79099E+00-1.45522E+01 7.80327E-01 1.66064E+00
 -1      4585 5.64447E-02 1.26117E+00-2.57799E-02-5.20827E-01 1.14172E-01-6.21507E-02
 -1      4586 3.57803E-01 5.26456E-01 6.74675E-02-8.09162E-02-8.69898E-03 1.71606E-02
 -1      4587 1.79210E+02 1.08396E+01-3.65194E-01 4.58568E-01-1.20925E-01-1.06142E+00
 -1      4588 1.80388E+02 1.12936E+01-2.19633E-01 1.57732E+00-5.47477E-02-6.32905E-01
 -1      4589 1.75275E+02 1.26288E+01 5.26310E+00-4.26862E+00 2.46423E+00 2.67563E+00
 -1      4590 1.42487E+02 1.13568E+01 2.86243E+00 4.29631E+00 1.12755E+00 4.90722E-01
 -1      4591 1.59656E+02 8.04042E+00-7.97938E-02-2.27824E+00 8.98519E-01-9.97424E-01
 -1      4592-3.87463E-02 1.69801E+00 1.33806E-03 3.85400E-01-2.05162E-03-1.70891E-03
 -1      4593-2.43151E-01 1.59937E+00 1.16318E-02 3.47456E-01-7.56146E-04 7.96507E-03
 -1      4594-3.94226E-02 1.69852E+00 1.20484E-03 3.85401E-01 2.15444E-03 1.39999E-03
 -1      4595-2.46928E-01 1.59764E+00 1.18745E-02 3.49576E-01-2.78449E-04-8.31428E-03
 -1      4596 1.88838E+02 3.04429E+00-6.30453E-01-8.04432E+00 2.05577E-01-4.86893E-01
 -1      4597 1.89535E+02 3.10959E+00-4.60313E-01-9.21389E+00 5.40059E-02-7.65083E-01
 -1      4598 1.88858E+02 4.52521E-01-4.06725E-01-6.69943E+00-1.09075E-01-9.32827E-02
 -1      4599 1.88567E+02 2.08264E+00-3.45409E-01-5.85097E+00 2.06870E-02 9.51233E-03
 -1      4600 1.88052E+02 1.91083E+00-3.01254E-01-7.10774E+00 1.36242E-02-3.76804E-01
 -1      4601 1.87104E+02 5.38786E+00-7.27845E-01-8.44094E+00 1.78034E-01-5.18567E-01
 -1      4602 1.82623E+02 1.27327E+01-1.18093E+00-8.92967E+00-3.32573E-01 4.32432E-01
 -1      4603 1.92621E+02-1.83585E+00-7.82890E-02-5.62511E+00-4.26599E-02-2.35514E-02
 -1      4604 1.90704E+02-4.04473E-01-5.99267E-02-6.43742E+00-3.84807E-02 1.11048E-02
 -1      4605-7.33759E+00 1.22640E+01 1.07333E-01-3.75584E+00-1.04830E-02 1.43902E-01
 -1      4606-3.87716E+00 9.61082E+00 5.65425E-01-2.16336E+00-3.22442E-02 1.54577E-01
 -1      4607-2.88910E+00 8.54259E+00 1.17010E-01-5.82308E+00-8.71600E-03 1.48378E-01
 -1      4608-9.60556E-01 5.58983E+00 1.57974E-01-3.90941E+00 4.17809E-02 1.08165E-02
 -1      4609-4.55513E+00 8.43364E+00 1.24792E-01-2.96134E+00 7.53312E-03 1.37883E-02
 -1      4610-1.10128E+00 3.70804E+00-1.89286E-01-2.29975E+00 1.10560E-02-9.39729E-02
 -1      4611-2.99374E+00 6.51573E+00 2.73472E-01-1.03457E+00 2.97487E-02 1.49787E-02
 -1      4612-3.98582E+00 9.69486E+00 5.52803E-01-2.16499E+00 2.57811E-02-1.35938E-01
 -1      4613-7.82170E-01 5.86179E+00 2.15436E-01-4.04496E+00-4.78969E-02-2.99635E-02
 -1      4614-8.04971E-01 2.67143E+00-3.27740E-01-2.90447E+00 4.23011E-02 1.13840E-02
 -1      4615 1.80996E+02 9.84967E+00-1.03933E+00 6.96591E-01 3.41383E-03-1.74419E+00
 -1      4616 1.83554E+02 1.10952E+01-1.83817E+00 3.48639E-01 6.92178E-03-8.37368E-01
 -1      4617 6.97025E-03-3.60091E-02-2.01525E-03 1.52195E-02-5.70087E-04-3.27859E-04
 -1      4618 7.49456E-03-3.83704E-02-2.86750E-03 9.04656E-04-4.27339E-05-1.13075E-03
 -1      4619 6.03435E-03-2.74880E-02-6.27196E-04-1.04381E-02-4.06709E-04-1.91422E-03
 -1      4620 1.62357E+02 1.72621E+01 2.58720E+01-4.78074E+00 1.42066E+00 9.65509E+00
 -1      4621 1.84483E+02 7.71037E+00-3.85628E-01-3.72486E+00-1.01372E-01 2.45263E-01
 -1      4622 1.84785E+02 7.30653E+00-1.30222E-01-1.40642E+00-1.71270E-02 1.94431E-01
 -1      4623 1.31499E+01 1.47931E+01-6.89942E-01-1.49066E+01 2.06908E-01-2.20783E+00
 -1      4624 2.37851E+01 1.57725E+01 8.61523E-01-1.74719E+01 1.54500E-01-6.24143E-01
 -1      4625-6.39345E-02-2.79816E-02 4.85927E-03-4.59046E-02 1.25064E-03-1.69698E-03
 -1      4626-8.02112E-02-3.24858E-02 1.21399E-03-5.82918E-02-1.61644E-03 7.15098E-03
 -1      4627-4.61661E-02-6.00376E-02 5.21556E-03-9.83183E-02-1.66023E-03 7.54514E-03
 -1      4628 8.71295E-02-7.62863E-02-1.52731E-03-8.62012E-02-2.02467E-03-2.22732E-03
 -1      4629-3.42305E-02-6.52535E-02 1.88656E-02-9.10331E-02-4.00225E-03-3.99808E-03
 -1      4630 1.82531E+02 1.15058E+01-1.89141E+00-2.97854E-01-4.57333E-02 5.79332E-01
 -1      4631 1.85152E+02 1.05740E+01-3.39940E-01 1.11563E+01-5.53847E-01-9.20266E-01
 -1      4632 1.72610E-01 1.76661E+00 2.13269E-03-6.90817E-01 2.81669E-03 7.75966E-03
 -1      4633 6.65178E-02 1.70999E+00 4.43676E-03-5.54497E-01-1.04356E-04 7.09603E-03
 -1      4634-8.69054E-03 1.70746E+00 2.46229E-02-5.91484E-01 4.43948E-04 1.66582E-03
 -1      4635-2.51638E-01 1.61987E+00 2.48161E-02-3.64746E-01-1.80868E-04-1.06216E-02
 -1      4636-1.95503E-01 1.65335E+00 8.22985E-03-4.90505E-01-1.37415E-03-1.18553E-02
 -1      4637 1.81386E+02 1.47267E+01 9.82469E-02-1.06573E+01-5.46193E-01 1.06349E+00
 -1      4638 1.81440E+02 1.01193E+01-7.53190E-01-5.71651E+00-2.04698E-01 3.68882E-01
 -1      4639 1.84815E+02 7.88528E+00-8.04971E-01-6.51606E+00-8.67139E-02 3.09686E-01
 -1      4640 1.82843E+02 8.72154E+00-5.12936E-01-7.90722E+00-2.71393E-01 5.23042E-01
 -1      4641 1.84692E+02 1.02179E+01-1.21050E+00-1.20997E+01-3.32177E-01 7.44836E-01
 -1      4642 2.62662E+02-2.32299E+01-1.94700E+00 2.49383E+00-8.67696E-02 5.10125E+00
 -1      4643 3.01387E+02 2.06634E+01 1.04608E+01 3.87883E+00 1.17962E+00 3.42534E+00
 -1      4644 2.50669E+02-2.00049E+01-3.50486E+00-2.79509E+01 2.56390E+00 6.46625E+00
 -1      4645 2.79284E+02 3.36291E+01 1.25102E+01-2.37348E+01 5.66229E-01 1.85250E+00
 -1      4646 2.48410E+02-7.05383E+00-5.99249E-01-2.08183E+01-6.10325E-01-7.40521E-01
 -1      4647 4.93100E+00 6.53369E-01 6.80751E-03-2.50549E+00 1.41736E-02-1.59824E-02
 -1      4648 4.52875E+00 8.96585E-01 1.45605E-02-2.35097E+00 1.68709E-02-6.14723E-03
 -1      4649 3.38103E+00 1.05944E+00 3.01816E-02-2.59493E+00 1.61290E-02-7.46912E-03
 -1      4650 4.52858E+00 8.97983E-01 1.57983E-02-2.34943E+00-1.67717E-02 5.47163E-03
 -1      4651 4.92858E+00 6.55663E-01 5.29514E-03-2.50983E+00-1.52682E-02 1.44538E-02
 -1      4652 3.37547E+00 1.05865E+00 2.67532E-02-2.59436E+00-1.74362E-02 5.56795E-03
 -1      4653 1.84578E+02 1.07257E+01-1.95749E+00-1.11360E+00-2.48239E-02-1.07984E+00
 -1      4654 1.82189E+02 9.19370E+00-8.91633E-01-9.53680E-01 2.16442E-02-1.81507E+00
 -1      4655 1.86051E+02 1.09351E+01-1.31653E+00 5.90472E-02 7.06170E-02-1.66113E+00
 -1      4656 1.82207E+02 1.02376E+01-1.65768E+00 8.95532E-02 8.21587E-02 8.19993E-01
 -1      4657 1.85642E+02 7.13923E+00-3.48170E-01 2.24240E+00 2.90887E-02 2.09698E-01
 -1      4658 1.83854E+02 8.22615E+00-1.49159E-01 1.49334E+00 3.29689E-02 2.78677E-01
 -1      4659 1.82985E+02 9.40405E+00-7.40882E-01 1.93520E+00 1.09393E-01 6.40984E-01
 -1      4660 9.95295E+01-2.11011E+00 1.07231E+01-1.52591E+01-1.34236E+00-2.89237E+00
 -1      4661 6.67344E+01-3.89388E+00 6.47741E+00-1.69942E+01-4.44915E-01-2.17942E+00
 -1      4662 6.38764E+01-3.70031E+00 5.99892E+00-1.66965E+01-3.97015E-02 1.88876E+00
 -1      4663 7.21409E+01 1.03089E+01-2.21507E+00-2.22058E+01 9.56534E-02-6.69625E-02
 -1      4664 1.56944E+01-9.53149E-01 4.57802E-01-4.85963E+00 9.95084E-02-9.19901E-02
 -1      4665 1.30728E+01-1.77532E+00 1.26538E-01-1.62384E+00 3.89197E-03 2.05228E-02
 -1      4666 2.39356E+00 4.39122E+00 4.46748E-01-5.75192E+00-5.07726E-02-1.28960E-01
 -1      4667-1.18144E+00 1.92025E+00 5.09779E-02 2.83367E-01 2.25805E-02-1.59908E-02
 -1      4668-1.47165E+00 2.43026E+00 1.16774E-01 7.39699E-01 4.47115E-02-6.92364E-03
 -1      4669-1.15934E+00 2.06023E+00 1.04782E-01 2.89638E-01 1.00899E-02 3.01153E-02
 -1      4670 1.39250E+02 7.73427E+00 1.57428E+00 6.15015E+00 1.83562E+00-1.77805E+00
 -1      4671 1.60931E+02 8.78251E+00 7.97964E-01-2.66677E+00 7.67926E-01-2.23611E+00
 -1      4672 5.15688E-03-4.04765E-02-4.62812E-03 8.47939E-03-1.51763E-03 7.79623E-04
 -1      4673 8.11721E-03-3.76352E-02-2.08160E-03-2.74796E-03 1.90981E-04 9.91228E-04
 -1      4674 1.24917E-03-2.64498E-02-2.05406E-03-1.34286E-02 3.19784E-05-3.54938E-04
 -1      4675 2.53491E+02 2.29665E+01 1.37572E+01 2.90991E+01 4.33614E+00-1.02313E+00
 -1      4676 1.92824E+02 2.99079E+00 1.78702E+00 3.02961E+01 1.63380E+00 1.22254E+00
 -1      4677 1.91565E+02 8.28451E+00 2.01617E-01-1.28027E+01-3.81186E-01 2.08689E-01
 -1      4678 1.95306E+02 9.85163E+00-3.72929E-01-1.68073E+01-5.38971E-01 6.82689E-01
 -1      4679 1.90248E+02 2.83268E+00-1.36000E+00-9.88209E+00 1.22486E-01-3.20247E-01
 -1      4680 1.96622E+02 4.48520E+00-9.90707E-01-1.38825E+01 2.74471E-01-3.43325E-01
 -1      4681 1.87141E+02 1.24384E+01-4.13916E-01-1.38369E+01-4.15237E-01-8.92280E-02
 -1      4682 1.93571E+02-3.04849E+00-1.85377E-01 6.78766E+00-4.75505E-02-8.76776E-02
 -1      4683 1.51620E-01 1.58157E+00 8.54223E-02-3.21183E-01-7.81142E-02 3.51497E-02
 -1      4684 5.27677E-01 2.84450E+00 4.88093E-01-9.08371E-02 8.72125E-03 1.45301E-03
 -1      4685 1.79997E+02-1.76678E+00-1.47176E-01 1.58108E+01-2.55736E-03 5.30726E-02
 -1      4686 2.00382E+02-7.13356E+00-2.62829E-01 1.61527E+01 2.08022E-01-2.27221E-01
 -1      4687 1.87183E+02-4.51672E+00-6.74633E-01 1.27507E+01-5.02112E-03-1.05908E-01
 -1      4688 1.83507E+02-3.34082E+00-2.12618E+00 1.86592E+01 1.02487E-01-4.76480E-01
 -1      4689 2.08891E+02-6.99242E+00-5.22646E-01 1.97223E+01 3.54937E-01 7.47639E-02
 -1      4690 1.98161E+02-7.00276E+00-1.17032E+00 2.32222E+01 3.42585E-02 1.33511E-01
 -1      4691 1.84266E+02 8.21755E+00 1.78695E-01-6.85018E+00 1.95639E-01-2.79164E-01
 -1      4692 1.86772E+02 5.72303E+00 1.01112E-01-6.47519E+00 5.55423E-02-2.25085E-01
 -1      4693 1.86318E+02 5.56520E+00-1.27371E-01-4.57156E+00 4.49828E-02-1.19188E-01
 -1      4694 1.79185E+02 1.28164E+01-2.16512E+00 1.91318E+00-1.56788E-02 1.70861E+00
 -1      4695 1.73160E+02 1.56001E+01-2.24341E+00 4.86053E-01-4.24806E-01 1.98699E+00
 -1      4696 2.35086E+02-6.52871E+00 4.60364E-01 3.97147E+01-5.39741E+00 5.20572E-01
 -1      4697 2.46943E+02-2.03304E+01-9.51023E-01 1.98135E+01-3.30134E+00-3.34993E+00
 -1      4698 2.12621E+02-9.68747E+00 2.91689E-01 3.21501E+01-2.24258E-01-2.13282E+00
 -1      4699 1.78547E+02 2.42448E+01-8.28041E-02-1.72600E+01 5.60465E-01 3.11620E-01
 -1      4700 1.70531E+02 2.35528E+01-1.13754E+00-5.52864E+00 7.89633E-01-7.76398E-02
 -1      4701 1.75979E+02 2.14834E+01-9.37313E-01-9.23041E+00 8.27403E-01-1.05383E+00
 -1      4702 1.37378E+01-5.80170E-01 8.60843E-02-2.79906E+00-6.51443E-02 1.57912E-02
 -1      4703 1.31893E+01-1.62551E+00 3.78653E-01-1.03433E+00-4.63001E-02 1.40774E-02
 -1      4704 1.70333E+02 2.22235E+01-1.21306E+00 2.47181E+00-4.25452E-01-5.66531E-01
 -1      4705 1.70748E+02 2.62445E+01-5.38072E-01 1.02076E+01-8.40780E-02 3.35444E-01
 -1      4706 1.70872E+02 2.05916E+01-2.07346E+00 3.18307E+00 7.26905E-02 6.68008E-01
 -1      4707 1.71357E+02 2.50684E+01 1.44636E+00 4.27262E+00 6.01133E-01 3.75246E-01
 -1      4708 1.67150E+02 3.29390E+01 7.22500E-01 1.44923E+01-2.72501E-01 2.12472E-01
 -1      4709 1.65729E+02 3.38033E+01 1.49750E+00 1.26797E+01 7.67120E-01 5.10747E-03
 -1      4710 1.87827E+02 4.15756E+00-2.95577E-01 5.43182E+00 4.52615E-02 1.53667E-01
 -1      4711 1.86132E+02 6.57405E+00-4.08337E-01 7.92775E+00 2.57749E-01 4.63426E-01
 -1      4712 1.88269E+02 4.09454E+00-2.85000E-01 7.73180E+00 1.45447E-01 3.11600E-01
 -1      4713 1.87442E+02 6.26666E+00-3.67437E-01 6.92201E+00 1.96427E-02 3.59161E-01
 -1      4714 1.86753E+02 5.44905E+00-1.81604E-01 3.23316E+00-4.17859E-02-1.35506E-01
 -1      4715 1.84657E+02 7.28546E+00-2.67315E-01 8.61060E-01 1.94993E-03-2.38984E-01
 -1      4716 1.90500E+02-1.38145E+00 3.74864E-02-8.99394E+00 1.07287E-01-4.78275E-02
 -1      4717 1.94432E+02-4.08677E+00-9.42988E-02-8.95671E+00 4.16859E-03-5.67904E-02
 -1      4718 1.94855E+02-5.37788E+00-3.69139E-01-1.12429E+01 2.05007E-01-4.64583E-02
 -1      4719 1.91629E+02-1.62198E+00 3.14166E-01-9.52677E+00 6.73752E-02 1.67234E-02
 -1      4720 1.90533E+02-1.99328E+00 1.29229E-01-1.08630E+01 2.93303E-01-3.17917E-02
 -1      4721-4.32464E-01-2.24173E-02-2.45336E-02 1.35140E-01 3.75768E-02-6.00733E-02
 -1      4722 5.71009E-02 1.58613E-01 1.02284E-01 6.36638E-02-8.40998E-04-1.72869E-02
 -1      4723 1.93734E+02-3.06892E+00-6.41029E-03-6.76847E+00 4.93994E-04-2.48373E-03
 -1      4724 1.91234E+02-1.26978E+00 8.77526E-04-7.52769E+00-3.17419E-02-3.38757E-02
 -1      4725 1.91176E+02-2.86496E-01 1.50940E-01-6.69894E+00 9.91809E-03-4.48181E-03
 -1      4726 1.83002E+02 9.54233E+00-6.77894E-01-9.50285E+00 3.84090E-01-6.66786E-01
 -1      4727 1.85387E+02 8.89024E+00-7.92130E-01-8.31347E+00 6.08538E-02-4.90583E-01
 -1      4728 1.80706E+02 1.14631E+01-1.94228E+00-8.62715E+00 4.86968E-01-1.09599E+00
 -1      4729 1.70891E+02 1.91739E+01-1.27653E+00 2.68337E+00 8.01218E-01 1.15469E+00
 -1      4730 1.70914E+02 1.35506E+01-5.35856E-01-2.31359E+00 8.30736E-02 1.21304E+00
 -1      4731 1.73033E+02 1.76318E+01-4.35864E-01 3.60173E+00 6.71708E-01 9.83506E-01
 -1      4732 1.76525E+02 1.83625E+01-1.47822E+00 4.53172E+00 3.01897E-01 1.21991E+00
 -1      4733 1.75657E+02 1.39846E+01-7.81237E-01-1.65408E-01 2.76241E-01 1.23316E+00
 -1      4734 1.75594E+02 1.57946E+01-1.13850E+00-9.26626E-01 1.55094E-01 1.55161E+00
 -1      4735 1.40127E+01 1.54316E+00 6.02230E-02-6.03979E+00 3.82369E-02-2.09196E-01
 -1      4736 1.41593E+01 7.79735E-01 1.20031E-01-5.16173E+00 2.49463E-02 4.33936E-02
 -1      4737 1.63536E+01-2.33794E+00 3.42279E-01-5.32913E+00 1.35866E-01-1.18271E-01
 -1      4738 1.54898E+01-3.25260E-01 2.75500E-01-6.10887E+00 4.36058E-02-1.25740E-01
 -1      4739 8.00130E-03-3.42577E-02-1.73022E-03-4.91441E-03-1.00977E-03-9.11154E-04
 -1      4740-2.45274E-03-2.45917E-02-2.48899E-03-1.16635E-02-4.06587E-04-3.59195E-06
 -1      4741 1.66003E+02 8.76054E+00 2.82753E-02-5.16194E+00 6.18356E-01-2.27747E+00
 -1      4742-2.15265E+01 2.41756E+01 5.77345E-01-4.84557E+00-2.46038E-01 9.45924E-01
 -1      4743-1.19470E+01 1.74858E+01 5.17710E-01-5.08826E+00 5.94651E-02 5.51447E-01
 -1      4744 1.83875E+02 8.73109E+00-7.48995E-01-1.75697E-01 4.36969E-02-2.95941E-02
 -1      4745 1.96341E+02-5.48714E+00-4.03317E-01 1.28882E+01-8.25945E-02-3.66678E-01
 -1      4746 2.01503E+02-8.19833E+00-1.64023E-01 1.00725E+01 1.56520E-02 1.14986E-01
 -1      4747 1.91166E+02-1.48506E+00 2.46887E-01 1.07337E+01 3.01253E-02-1.52264E-01
 -1      4748 1.94791E+02-3.96619E+00 1.19520E-01 9.04584E+00 2.22074E-02-7.29635E-02
 -1      4749 1.77770E+02 1.23306E+01 5.09300E+00-5.59328E+00 1.02941E+00 2.38071E-01
 -1      4750-4.13893E+00 1.21615E+01 4.18774E-01-1.01797E+01-1.81475E-01 7.27102E-02
 -1      4751-5.65856E+00 1.31655E+01 1.03764E+00-7.07288E+00-5.69190E-02 3.95273E-01
 -1      4752-6.99969E-01 7.54060E+00-1.64779E-01-9.09170E+00 1.69217E-01 5.36540E-02
 -1      4753 7.39868E+01-5.07075E+00 4.61508E+00-1.90867E+01 3.03142E-01 1.22625E+00
 -1      4754 8.32165E+01 1.07801E+01 5.97154E-01-2.26179E+01-1.49825E+00 2.52270E-01
 -1      4755 5.12203E+01 1.19222E+01 5.63664E-01-2.26615E+01-1.08675E+00 4.53322E-02
 -1      4756-1.40876E+00 2.38519E+00 3.41893E-02 1.49370E+00 3.66219E-03 6.41434E-04
 -1      4757-9.79937E-01 2.31141E+00 1.48659E-01 9.65162E-01-3.84774E-02 3.90931E-02
 -1      4758-2.83809E-01 1.86187E+00-6.53141E-03 1.32796E+00-1.51729E-02-2.05251E-02
 -1      4759 1.75160E+02 3.39695E+01 3.59038E+01 4.17789E+00 1.92887E+00-1.17879E+00
 -1      4760 1.76574E+02 3.66263E+01 3.60587E+01 2.07619E+00 1.78492E-01-5.80430E+00
 -1      4761 1.81252E+02 1.02744E+01-3.95566E-01 9.75131E-01-8.07890E-02-6.23861E-01
 -1      4762 2.71977E-01 1.08445E+00-2.58838E-03 2.85812E-01-3.75704E-03-2.22967E-02
 -1      4763 1.75458E-01 1.58661E+00 9.03951E-02-3.16184E-01 7.74169E-02-2.88642E-02
 -1      4764 3.58310E-01 3.17367E-01-1.84513E-02 2.11767E-02-2.89952E-02-1.71422E-03
 -1      4765 4.24453E-02 1.74216E+00 2.77117E-02-6.45014E-01 3.91460E-04 1.78195E-03
 -1      4766 1.04185E-01 1.72431E+00 2.29748E-02-7.46237E-01-5.30172E-03 3.34540E-04
 -1      4767 1.29840E-01 1.72506E+00 2.46351E-02-7.75781E-01 2.43341E-03-9.60567E-04
 -1      4768 5.42826E+00 4.99227E+00 5.17908E-02-7.46300E+00-7.78565E-02 1.62840E-02
 -1      4769 6.81361E-01 6.73289E+00-2.84653E-01-9.84179E+00-8.94699E-02-8.14371E-02
 -1      4770 7.31458E+00 1.60358E+00 2.86279E-01-3.80429E+00-3.43627E-01-3.75430E-01
 -1      4771 5.15660E+00 2.25765E+00 4.82827E-01-3.35856E+00-1.06510E-01-1.11146E-01
 -1      4772 1.85800E+02 1.05725E+01-1.69788E+00-1.44483E+00-1.21955E-01 2.52566E+00
 -1      4773 1.81008E+02 9.15497E+00-8.82298E-01-4.05592E-01-2.44937E-02 2.15932E+00
 -1      4774 1.82478E+02 9.84327E+00-1.62845E+00 5.74153E-01 4.53048E-02 1.96097E+00
 -1      4775-1.18581E+00 3.53224E+00-2.84473E-01-2.28176E+00-4.11874E-02 8.67829E-02
 -1      4776 6.74396E-01 2.09260E+00 2.35209E-01-1.42535E+00-1.30608E-01 2.22332E-02
 -1      4777-5.00942E-02 2.09058E+00-2.64988E-01-2.74505E+00 5.29826E-02 7.70083E-02
 -1      4778-2.05952E-01-1.15766E-02 4.57213E-02-1.72824E-01-4.72917E-03-3.55178E-02
 -1      4779-1.71848E-01-1.85030E-02 1.26561E-02-1.58473E-01-1.25068E-02-5.01859E-02
 -1      4780-9.82461E-02 6.03281E-03 4.41497E-02-1.52280E-01-1.42918E-02-2.68374E-02
 -1      4781 2.47319E-01-4.72465E-02 1.32826E-02-1.38820E-01-1.95377E-02 6.19956E-03
 -1      4782-1.58444E-01 4.22726E-02 6.75811E-02-1.58487E-01 3.57405E-03-2.56791E-02
 -1      4783 1.70908E+01-2.11152E+00 2.26888E-01-7.02302E+00-3.33523E-02 1.92908E-01
 -1      4784 1.46949E+01 5.83664E-01-1.82181E-01-7.42819E+00-1.74244E-01 2.17384E-01
 -1      4785 1.37926E+01 3.38748E+00 1.84918E-01-8.78931E+00-1.66290E-01 2.26354E-01
 -1      4786 1.92934E+01 2.33553E-01 2.40084E-01-1.13804E+01-7.57308E-02 9.85134E-02
 -1      4787 1.65628E+01 4.07070E+00 4.66909E-01-1.10976E+01-1.66148E-01 1.97388E-01
 -1      4788 1.90733E+01-2.96118E+00-6.22149E-01-1.03511E+01-1.22822E-01 1.12217E-01
 -1      4789 1.95006E+02 1.44526E+01 5.83816E+00 9.28045E-01 4.95579E-01-9.98660E-01
 -1      4790 1.84405E+02 3.48548E+01 3.14519E+01 3.61947E-01-8.60578E-01 5.94614E+00
 -1      4791 1.78786E+02 3.15680E+01 2.32186E+01 1.05009E-01-6.95113E-01 1.02412E+01
 -1      4792 1.91388E+02 1.50923E+01 6.80271E+00-2.54573E+00-5.19828E-01 5.34956E-02
 -1      4793 1.82608E+02 3.81049E+01 3.77054E+01 4.78630E-01-3.88274E-02 8.72104E+00
 -1      4794 1.96738E+02 1.87908E+01 8.90938E+00-1.48364E+00 4.80525E-01 3.73353E-01
 -1      4795-4.30022E-01 8.59505E-01 9.96836E-04-2.62871E-01 3.30342E-03-4.24810E-02
 -1      4796-4.01193E-01 1.13385E+00 7.49149E-02-7.69526E-02 6.65143E-03-6.67943E-03
 -1      4797-3.47973E-01 1.44725E+00 2.36255E-02 1.83983E-01 2.41855E-03-2.61672E-02
 -1      4798-3.40382E-01 1.30585E+00 2.53375E-02 3.84130E-02 2.11292E-02-1.72650E-02
 -1      4799-3.05963E-01 9.51994E-01 8.15561E-02-1.64588E-01 1.15602E-02-3.92792E-03
 -1      4800 1.91556E+02-1.63920E+00 8.85487E-02 8.56973E+00-1.81070E-01-8.32427E-02
 -1      4801 1.70653E+02 3.22335E+01 3.04069E+01-3.37717E+00-1.42541E+00-7.79646E+00
 -1      4802 1.89828E+02 1.83485E+01 8.00851E+00 5.46211E+00 4.88464E-01 3.23400E-01
 -1      4803 1.80704E+02 2.95589E+01 3.03096E+01-2.30100E+00-1.10202E+00-6.63910E+00
 -1      4804 1.77118E+02 3.38108E+01 3.39236E+01-2.87779E+00-5.23986E-01-2.29534E+00
 -1      4805 1.92587E+02 1.47690E+01 4.12908E+00 4.83347E+00-1.23650E+00 2.82225E-01
 -1      4806 1.03460E+02-4.02521E+00 6.91819E+00 1.34446E+01-9.06923E-01 3.25588E+00
 -1      4807 1.25786E+02 1.02751E+01 1.76197E+01 1.40362E+01 1.67929E+00-2.24042E+00
 -1      4808 8.67045E+01 3.80344E+00 1.63198E+01 2.07635E+01 4.31012E-01-1.87488E+00
 -1      4809 6.82070E+01-4.60965E+00 6.82922E+00 1.83950E+01-1.48783E+00 2.60599E+00
 -1      4810 1.73834E+02 1.75271E+01-2.69763E-01-4.99163E+00 6.76500E-01-8.66618E-01
 -1      4811 1.77488E+02 1.48641E+01-9.82351E-01-9.34673E+00 5.41041E-01-9.07978E-01
 -1      4812 1.72140E+02 2.07363E+01-5.65724E-01-1.04075E+01 1.48614E+00-9.61685E-01
 -1      4813 1.80638E+02 2.00710E+01 7.30175E-01-1.74387E+01 7.91025E-01-1.29998E+00
 -1      4814-1.54305E-01-4.25799E-02 2.50267E-02 1.15796E-01 1.30317E-03-1.29913E-03
 -1      4815-1.21925E-01-1.81858E-02 4.71393E-02 1.36493E-01 9.61496E-03-3.63708E-04
 -1      4816 1.50630E-01 1.62637E-02-2.77625E-02 5.77417E-02-9.99314E-04-8.82149E-03
 -1      4817 6.25957E-02 1.03644E-01 4.73638E-02 6.06848E-02 2.77757E-03-3.17133E-03
 -1      4818 1.89319E+02-2.84896E-01 4.98812E-02-7.26316E+00-4.19031E-02-1.31439E-01
 -1      4819 1.88933E+02 5.57478E-02-1.84947E-01-6.63261E+00 1.86612E-02-4.37771E-02
 -1      4820 1.89292E+02-2.41051E-01 6.53483E-02-7.27908E+00-5.54969E-02-6.62960E-02
 -1      4821-7.93822E-02-4.81291E-02 8.48573E-03-1.03375E-01-5.48785E-04 7.46801E-03
 -1      4822 4.87489E-02-7.85524E-02 2.45774E-03-1.00849E-01 2.45251E-03 1.61067E-03
 -1      4823 1.09528E-01-8.45749E-02 5.86313E-03-1.36707E-01-7.33955E-03 6.95406E-03
 -1      4824 1.80746E+02 3.88921E+01 2.79703E+01-2.02161E+00-9.66013E-01 1.27851E+01
 -1      4825 1.93803E+02 1.87225E+01 8.31342E+00 2.09295E+00 6.99836E-01 8.51745E-01
 -1      4826 1.83141E+02 1.02194E+01 2.94401E+00 5.50522E+00 9.08146E-02 6.68365E-01
 -1      4827 1.80973E+02 3.67928E+01 3.58532E+01 4.34427E-01 5.07779E-01 9.02810E+00
 -1      4828-3.00992E+00 9.86352E+00-3.60096E-02 9.02260E+00 7.95102E-02-1.09421E-01
 -1      4829-6.19178E-02 1.05803E+00 2.38890E-01-4.53116E-01 4.37729E-02-2.33945E-02
 -1      4830 4.96166E-02 2.67316E-01 1.19028E-01 7.33962E-02 1.39393E-02-1.75206E-02
 -1      4831-9.20588E-02 1.68438E+00 1.89266E-02-4.38758E-01 1.82987E-03-5.47963E-03
 -1      4832-4.22219E-02 1.69321E+00 1.09392E-02-5.37696E-01-1.76884E-03 1.61731E-03
 -1      4833 2.86596E+02 1.04713E+01 1.20264E+01-1.41707E+01-5.04844E+00 2.02567E+00
 -1      4834 2.20073E+02 3.03595E+00-1.05323E+00-4.25782E+01-3.75788E+00-6.55852E-01
 -1      4835 5.69968E+01 1.60328E+01-4.38731E+00-2.10318E+01 1.67974E-01-1.68153E-01
 -1      4836 2.70699E+01 2.03916E+01-1.12324E+00-1.84654E+01-1.02576E-01 8.09991E-02
 -1      4837 1.86669E+02 5.39512E+00-2.89342E-01 3.29689E+00 6.08041E-02 1.53689E-01
 -1      4838 1.93716E+02 1.20325E+01 4.27088E+00 2.53508E+00 1.01888E+00-8.74169E-01
 -1      4839 1.68360E+02 2.90116E+01 1.99373E+01-4.53771E+00-3.18239E+00-9.79314E+00
 -1      4840 1.76775E+02 1.40748E+01 3.13682E+00 3.94923E+00 7.38780E-01 1.47691E-01
 -1      4841 1.77591E+02 1.04750E+01 4.99091E-01 6.14003E+00-8.81415E-01-2.29785E+00
 -1      4842 1.80783E+02 1.11861E+01-3.57792E-01 4.70638E+00-1.97585E-01-1.53173E+00
 -1      4843 1.80189E+02 8.62664E+00-8.63164E-01 3.30802E+00-3.89422E-01-2.71755E+00
 -1      4844 1.74412E+02 9.85120E+00-1.00691E+00 4.16751E+00-4.48640E-01-2.46101E+00
 -1      4845 1.79758E+02 1.27097E+01-1.65771E+00 3.00065E+00-8.60611E-04-1.93914E+00
 -1      4846 1.73257E+02 1.27327E+01-1.10721E+00 5.48918E+00-5.32259E-01-1.52609E+00
 -1      4847 1.68217E+02 2.56966E+01-7.78152E-02 1.01422E+01-1.84413E+00-8.59783E-01
 -1      4848 1.65177E+02 3.02185E+01-6.68719E-01 1.23047E+01-2.41734E+00 1.54801E-01
 -1      4849 1.66327E+02 2.44127E+01-1.91409E-01 5.44539E+00-1.37675E+00 1.07547E-01
 -1      4850-5.80537E+00 1.06125E+01 3.98072E-01 2.55744E-01-9.04324E-02-1.01689E-01
 -1      4851-1.93476E+00 5.38830E+00 5.02988E-02-5.60854E-01-9.23691E-02 6.28151E-03
 -1      4852-3.61649E-01 1.12180E+00 8.66221E-02 6.02100E-02-5.99044E-03-3.04385E-02
 -1      4853-5.50440E-01 1.24409E+00 7.17441E-02 9.22652E-02 9.64961E-03 9.53793E-03
 -1      4854-3.85402E-01 1.14413E+00 9.85942E-02 1.91455E-01 9.64488E-03 1.69457E-02
 -1      4855-4.00224E-01 1.41578E+00-1.19400E-02-2.34249E-01-1.09777E-02-2.26583E-03
 -1      4856-3.20619E-01 9.03014E-01 4.20238E-02 1.12109E-01 1.45191E-04-1.91301E-02
 -1      4857 1.54462E+02 3.28663E+01-1.13437E-01-1.55994E+01-2.74516E+00-1.85505E+00
 -1      4858 1.58352E+02 2.30868E+01-8.64954E-01-1.09429E+01-7.42226E-01-1.55834E+00
 -1      4859 1.59668E+02 2.76363E+01-5.89764E-01-1.29765E+01-2.88519E+00-1.30285E+00
 -1      4860-2.56593E-01 1.60046E+00 1.87600E-02-3.64315E-01 2.87794E-03 1.27313E-02
 -1      4861-9.95006E-02 1.67393E+00 2.00112E-02-4.38172E-01-2.58218E-03 2.82923E-03
 -1      4862-2.55889E-02 1.71117E+00 6.48306E-03-4.05017E-01 8.26614E-04-1.81723E-03
 -1      4863-2.46898E-01 1.48832E+00 1.30133E-03-2.18673E-01-2.07160E-03 5.57140E-03
 -1      4864-1.03770E-01 1.59323E+00 1.54814E-02-2.83452E-01 4.59232E-03 1.15874E-03
 -1      4865 2.72369E+01 2.41031E+01-2.98869E+00-2.88913E+01-4.72678E+00 1.26678E+00
 -1      4866 2.91124E+00 1.30349E+00 6.78510E-02 2.57705E+00 1.57278E-02 2.82533E-02
 -1      4867 2.26216E+00 1.38594E+00 7.73206E-02 2.92162E+00-2.55101E-02 3.09923E-02
 -1      4868 2.82686E+00 1.34846E+00 2.50752E-02 2.30173E+00-1.20656E-02-1.32137E-02
 -1      4869 1.74679E+00 1.55581E+00 2.64677E-02 2.07547E+00-2.14518E-02-5.14615E-03
 -1      4870 1.06918E+00 1.68453E+00-5.40735E-03 2.31115E+00-1.82772E-02 1.92600E-02
 -1      4871 9.37555E-01 1.52934E+00-4.50746E-03 2.64670E+00-3.16295E-03-3.97370E-02
 -1      4872 1.77433E+02 1.27609E+01-1.67603E-01 1.77320E+00 1.92121E-01 7.79487E-01
 -1      4873 1.81835E+02 9.26467E+00-3.39155E-01-2.90599E-01 2.86612E-02-5.02962E-01
 -1      4874 1.84076E+02-5.55153E-01-1.87076E-02-9.94629E+00 2.32126E-01-4.30836E-01
 -1      4875 1.87999E+02-4.23361E-01 2.13254E-01-8.90693E+00 2.28060E-01 3.24822E-02
 -1      4876 1.88360E+02-9.53104E-01 1.85388E-01-9.20311E+00 9.27005E-03-6.44273E-02
 -1      4877 1.83584E+02-1.13121E+00-1.20486E-01-1.03028E+01 1.55122E-01-2.19874E-01
 -1      4878-8.10025E-02-3.11649E-02 1.00301E-02-6.46727E-02-1.41144E-03-5.96989E-03
 -1      4879-5.87720E-02-6.52403E-02 1.50103E-02-1.11387E-01 1.68202E-03-7.30543E-03
 -1      4880-2.92186E-01 8.07118E-01 4.07345E-02-1.87717E-01-1.36759E-02 3.42207E-02
 -1      4881-3.51723E-01 1.46738E+00 2.89665E-02 1.67728E-01 5.20339E-03 2.50788E-02
 -1      4882-2.89621E-01 1.07407E+00 1.02522E-01-4.20197E-02-9.43665E-03 3.16441E-02
 -1      4883-2.52183E-01 8.64836E-01 7.04113E-02-1.14051E-01-5.02756E-03 2.45377E-02
 -1      4884-3.53917E-01 1.22760E+00-4.78718E-03 2.98382E-02-9.45313E-03 2.46048E-02
 -1      4885 1.04717E+01-6.88480E-01 2.99834E-02 5.30541E-01-1.00068E-02-1.89160E-02
 -1      4886 7.33434E+00-1.15488E+00 1.55163E-02 3.23940E+00-5.97086E-02 2.61436E-02
 -1      4887 1.03269E+01-2.70924E+00 1.71561E-01 2.34289E+00-8.23336E-02 5.72925E-03
 -1      4888 1.55219E-01 1.76963E+00-5.18713E-03-7.78749E-01-1.41545E-03 2.59091E-03
 -1      4889-2.11248E-01 1.72181E+00 2.46892E-02-5.87119E-01-5.41107E-03-1.10403E-02
 -1      4890 1.85941E+02 6.82540E+00-3.16882E-01-4.08649E+00-5.22913E-02 1.77821E-01
 -1      4891 1.85806E+02 6.04366E+00-3.50206E-01-1.67072E+00-4.09060E-02 2.03126E-01
 -1      4892 1.86440E+02 5.35846E+00-9.32515E-02-3.27733E+00-3.49269E-02 1.08006E-01
 -1      4893 1.64860E+01 4.07381E+00 3.53414E-01-1.12547E+01 2.87648E-01-2.00162E-01
 -1      4894 1.60686E+01 5.07855E+00 2.06931E-01-1.14505E+01 1.93176E-01 1.05504E-01
 -1      4895 1.63836E+01 7.27926E+00 7.59038E-01-1.19234E+01 3.48362E-01-3.89557E-01
 -1      4896 1.87898E+02 1.13804E+01 2.37656E+00 3.20171E+00 1.62464E-01-1.81174E+00
 -1      4897 1.87605E+02 1.10467E+01-1.07446E+00 1.38603E+00 1.69411E-01-7.92046E-01
 -1      4898 1.80873E+02 1.27543E+01-2.12944E+00 3.14691E-01 2.58328E-03 4.63750E-01
 -1      4899 1.84073E+02 1.16669E+01-1.46252E+00-1.85118E+00-1.08670E-01 1.06871E+00
 -1      4900-1.87572E+01 2.29641E+01 4.57285E-01 3.30337E-01 3.51100E-02-6.16558E-01
 -1      4901-2.17724E+01 2.42225E+01 5.60774E-01-5.23082E+00 2.30012E-01-1.02976E+00
 -1      4902-1.06481E+01 1.48080E+01-4.16884E-02-2.83979E-01 6.38859E-03-2.35105E-01
 -1      4903-1.18777E+01 1.70700E+01 5.63987E-01-4.62902E+00 1.38115E-02-5.55535E-01
 -1      4904-1.56875E+01 1.92187E+01 1.39238E+00-8.46832E-02 7.70987E-02-2.31579E-01
 -1      4905 1.88771E+02 1.28630E+01 4.16748E-01 3.11776E+00 3.23040E-02 1.59001E+00
 -1      4906 1.77940E+02-2.91483E+00-1.52835E+00-1.70295E+01-2.15690E-01-5.67163E-01
 -1      4907 1.90660E+02-3.52437E+00 1.91053E-02-2.43325E+01-3.68391E-01 1.07166E-01
 -1      4908 1.63112E+02-4.14728E-01-2.62601E-01-1.69338E+01-1.60260E-01-4.69723E-01
 -1      4909 1.71982E+02 9.78180E-01-1.30311E+00-2.27120E+01-1.12228E-01-3.86937E-01
 -1      4910 1.85160E+02 1.04504E+00-1.58684E+00-3.13615E+01-8.58259E-01-2.50809E-01
 -1      4911 2.04145E+02-4.03645E+00-2.49757E+00-3.08625E+01 4.44938E-01-2.11535E-01
 -1      4912-6.05681E+00 1.04325E+01 1.61109E-01 5.73616E-02-4.95908E-02 8.33879E-02
 -1      4913-1.94108E+00 5.24200E+00 9.25213E-03-5.73240E-01 6.13085E-02-3.88643E-02
 -1      4914 1.84457E+02 9.46145E+00-6.56056E-01 7.15794E+00 3.77748E-01 6.69093E-01
 -1      4915 1.77789E+02 1.56424E+01-1.22056E+00 6.64537E+00 5.41970E-01 1.03355E+00
 -1      4916 1.79842E+02 1.18770E+01-3.85386E-01 4.97249E+00 1.66183E-01 5.30198E-01
 -1      4917 1.76853E+02 1.69244E+01-6.28804E-01 8.08452E+00 7.22664E-01 6.97292E-01
 -1      4918 1.82742E+02 1.40074E+01-6.78486E-01 1.20286E+01 9.23483E-01 1.28020E+00
 -1      4919 1.83458E+02 9.54606E+00-3.18130E-01 8.32918E+00 3.62413E-01 6.43504E-01
 -1      4920 1.44634E+02 1.46764E+01 3.99278E+00-3.52260E+00 5.93352E-01-2.99524E-01
 -1      4921 1.53481E+02 1.27205E+01 2.36314E+01-6.16032E+00-4.46145E-01-6.19943E+00
 -1      4922 1.27808E+02 1.71942E+01 2.31890E+01-1.54094E+01-1.62016E-01-3.74747E+00
 -1      4923 1.58581E+02 1.38296E+01 2.44456E+01-5.39282E+00-5.00788E-01-2.33660E+00
 -1      4924 1.88084E+02 3.96488E+00-2.00025E-01 9.26827E+00-8.94713E-02-6.03480E-01
 -1      4925 1.86738E+02 8.40090E+00-7.15900E-01 1.03856E+01-7.04325E-04-5.19228E-01
 -1      4926 1.87024E+02 5.01447E+00-1.40870E-01 7.22653E+00-9.89779E-02-3.28231E-01
 -1      4927 1.87448E+02 4.73477E+00-2.34158E-01 1.60803E+00-3.22561E-02-8.17205E-02
 -1      4928 1.87492E+02 4.29161E+00-9.77226E-02 7.08542E-01-6.30491E-03-4.00368E-02
 -1      4929 1.85466E+02 6.60211E+00-3.74065E-01-7.51221E-01 2.89910E-03-2.86860E-01
 -1      4930 1.85983E+02-8.30733E-01 4.71518E-03 1.08021E+01-1.99795E-01-1.92755E-01
 -1      4931 1.84879E+02-3.13191E+00-1.42026E+00 1.41666E+01-3.47984E-01-1.97170E-01
 -1      4932 1.92130E+02-3.85921E+00 9.70279E-02 1.10755E+01 1.62117E-01-2.15314E-01
 -1      4933 3.28291E+00 1.17356E+00 3.75376E-02 2.65812E+00 2.49902E-03 3.36680E-03
 -1      4934 2.07881E+00 1.46905E+00 3.90608E-02 2.16104E+00-3.73669E-04-4.92167E-03
 -1      4935 1.43628E+02 6.49615E+00 1.34320E+01-1.14219E+01 2.54705E+00 8.74388E+00
 -1      4936 1.69335E+02 9.85764E+00 2.95334E+00 3.97820E+00-2.27093E+00 1.34366E+00
 -1      4937 1.56655E+02 1.28795E+01 2.27424E+01 5.00771E+00 5.96709E-01-5.68200E+00
 -1      4938 1.96887E+02-4.54569E+00 1.42508E-01-6.78955E+00-5.70640E-02 9.56951E-02
 -1      4939 2.00858E+02-7.89091E+00-2.44532E-01-7.62866E+00-9.58096E-02-4.76747E-02
 -1      4940 1.96025E+02-6.87919E+00-7.36646E-01-8.67906E+00-8.74433E-02-2.46097E-03
 -1      4941-5.27784E-02 1.68115E+00 1.40903E-02 4.62735E-01 9.24576E-05 3.22425E-04
 -1      4942 4.43668E+00 9.06152E-01 1.25671E-02 2.33579E+00 2.23671E-02-9.32661E-03
 -1      4943 3.60835E+00 1.11911E+00 2.26375E-02 2.34412E+00 1.80322E-02-1.81394E-02
 -1      4944 3.70477E+00 1.02043E+00 7.49239E-02 2.63254E+00-6.00340E-03 1.25491E-02
 -1      4945 2.98355E+00 1.07683E+00 1.79178E-02 2.93611E+00-1.93390E-02 4.19890E-02
 -1      4946 4.43324E+00 9.06569E-01 1.23592E-02 2.33311E+00-2.08844E-02 1.39895E-02
 -1      4947 3.60859E+00 1.11865E+00 2.03415E-02 2.34363E+00-1.53485E-02 2.07510E-02
 -1      4948 2.98525E+00 1.07982E+00 3.04159E-02 2.92774E+00 2.35253E-02-4.17656E-02
 -1      4949 2.26336E+00 1.37749E+00 7.76761E-02 2.92098E+00 3.47638E-02-2.98849E-02
 -1      4950 3.70392E+00 1.02113E+00 8.51372E-02 2.62817E+00 7.58303E-03-1.08485E-02
 -1      4951-7.67971E+00 1.23331E+01 2.07623E-01-3.80969E+00-9.66778E-02-2.48412E-01
 -1      4952 1.81277E+01-1.01407E+01 1.01428E+00-3.92295E+00 2.29396E-01-3.53925E-01
 -1      4953 1.80872E+01-1.04500E+01 1.09531E+00-4.10713E+00-1.94046E-02 7.41892E-02
 -1      4954 2.51218E+01-1.00758E+01 1.91968E+00 1.50631E+00-6.71216E-01 1.77085E-01
 -1      4955 1.77816E+01-6.20119E+00-6.22223E-01 6.80256E+00-4.74262E-02 5.34161E-02
 -1      4956 2.47439E+01-1.12616E+01 2.10893E+00 1.23014E+00 1.12525E-01-3.43695E-01
 -1      4957-2.22166E+01 2.25152E+01-6.64458E-01 1.00623E+01-1.59143E-01 7.07914E-01
 -1      4958-1.29479E+01 1.71240E+01 8.48777E-01 1.12660E+01-1.75614E-01-4.09976E-01
 -1      4959 1.92652E+02-3.85156E+00 2.57200E-01 2.80358E+01 6.48610E-01 2.26234E-01
 -1      4960 2.08382E+02-1.20842E+01 4.07737E-02 1.11649E+01-4.56937E-02 5.46060E-01
 -1      4961 2.09620E+02-1.06970E+01-1.66426E-01 2.07543E+01 7.08052E-01 6.49680E-01
 -1      4962 1.47153E-01-7.79468E-02 1.22219E-02 1.35804E-01 6.83720E-03 3.44803E-03
 -1      4963-2.22793E-01-5.50437E-02 6.21378E-03 1.92893E-01 1.59784E-02-3.39926E-02
 -1      4964 2.72941E-01 6.33078E-02 1.74804E-02 7.13910E-02-8.36933E-03-1.21520E-02
 -1      4965 6.61458E-04-9.76255E-05 3.84562E-04-3.45688E-04 1.22189E-04 4.42633E-04
 -1      4966 1.09908E-04-3.89847E-04 8.57879E-05-3.37110E-04-2.68326E-04 3.94174E-04
 -1      4967-2.24195E-03-1.78163E-03 6.16127E-04 5.61115E-04-5.66459E-04 5.24360E-04
 -1      4968 1.76954E+02 1.11529E+01-1.31424E+00-2.78797E+00 6.32619E-02 1.74955E+00
 -1      4969 1.77449E+02 1.23731E+01-1.56297E+00-3.80207E+00-4.46465E-02 2.05245E+00
 -1      4970 1.77400E+02 1.25032E+01-3.94889E-01 9.96027E-01-1.23670E-01-7.81274E-01
 -1      4971-4.85805E-01 2.03122E+00 4.88800E-02 3.63368E+00 2.42110E-02-2.30699E-02
 -1      4972 7.22603E-01 1.65027E+00 2.95892E-01 5.09846E+00-7.48474E-02 5.40794E-03
 -1      4973-2.60451E-01 2.18002E+00 1.62266E-01 3.84780E+00-6.79950E-02 3.98387E-02
 -1      4974-3.35771E-01 1.65077E+00 3.04277E-02-3.74602E-01 3.07744E-03-1.93071E-02
 -1      4975-1.72259E-01 1.66987E+00 1.91197E-02-5.05747E-01 3.15497E-04 8.52907E-03
 -1      4976-3.16593E-01 1.64337E+00 3.13906E-02-3.83177E-01 1.04588E-02 1.23293E-02
 -1      4977 1.90668E+02-2.83164E+00 2.39331E-01-1.50527E+01 3.70804E-02 3.71213E-03
 -1      4978 1.29211E+02 7.67327E+00-1.67162E+00-1.56792E+01-1.80091E+00 2.26829E-03
 -1      4979 1.05870E-01 2.19317E-01-8.59306E-02-4.70767E-01 2.99863E-02-4.93213E-02
 -1      4980 6.01653E-01 1.99434E+00 1.50044E-01-1.42531E+00 1.45647E-01-3.86834E-02
 -1      4981-2.37234E-02 1.70719E+00 5.52123E-03-4.06884E-01-3.60960E-03 1.56477E-03
 -1      4982-9.78170E-02 1.59779E+00 2.05062E-02-2.84982E-01-2.15269E-03-2.02192E-03
 -1      4983-2.58630E-01 1.48752E+00 3.87197E-03-2.20841E-01 3.52112E-03-8.13767E-03
 -1      4984-1.32113E-01 1.54842E+00 2.75039E-02 8.58078E-02 5.95997E-04-6.95228E-04
 -1      4985 1.47799E+01-3.56489E+00 2.12608E-01 2.12777E+00 8.13645E-02-3.52048E-03
 -1      4986 1.44498E+01-1.44423E+00 2.90614E-01 2.74162E+00 6.45299E-02 4.35753E-02
 -1      4987 1.36111E+01-7.21646E-01 6.68138E-02 2.56371E+00 1.57028E-02-6.88851E-02
 -1      4988 1.17808E+01-3.04856E+00 1.05262E-02-7.69919E-01 1.09047E-01 7.86522E-03
 -1      4989 1.15463E+01-1.51759E+00 3.08975E-02 5.36833E-02 5.49917E-02-3.05182E-02
 -1      4990 1.19072E+01-5.36772E+00-4.13375E-01-8.51904E-01 2.25091E-02 4.14760E-02
 -1      4991 1.44618E+01-1.46214E+00 2.78313E-01 2.75074E+00-7.67552E-02-5.76352E-02
 -1      4992 1.48223E+01-3.60983E+00 1.66844E-01 2.13973E+00-9.42444E-02 4.19773E-03
 -1      4993 1.36600E+01-7.33322E-01 7.19985E-02 2.58009E+00-1.92000E-02 6.65035E-02
 -1      4994 1.15536E+01-1.53615E+00 3.91618E-02 4.49069E-02-4.18583E-02 2.86339E-02
 -1      4995 1.18182E+01-3.06296E+00 5.00858E-02-7.52707E-01-1.28933E-01-1.30304E-02
 -1      4996 1.49891E+01-7.36515E-01 3.87093E-01 4.36270E+00-1.27284E-02 1.03878E-01
 -1      4997 1.45226E+01-8.58592E-01 1.12640E-01 4.68406E+00-3.34594E-02 6.91134E-03
 -1      4998 1.44183E+01-1.78459E-02 2.42362E-01 5.89606E+00 1.69083E-01 7.74234E-02
 -1      4999 1.92765E+02 3.04024E+01 6.10814E+00-2.68427E+01-1.53939E-01 1.27095E+00
 -1      5000 2.05666E+02 3.71431E+01 1.65147E+01-3.93968E+01 4.93556E-01-2.06009E+00
 -1      5001 1.88630E+02 2.80202E+01 4.04368E+00-2.38450E+01-1.54995E+00 1.19597E+00
 -1      5002 1.60260E+02 2.63025E+01-1.83691E+00-8.03096E+00-1.29094E+00 3.05156E-01
 -1      5003 1.66445E+02 2.28830E+01-9.62322E-01-7.58848E+00-1.57418E+00 1.21941E+00
 -1      5004 3.16511E-01 1.78226E+00 4.40888E-03-9.44901E-01 1.38696E-05 2.22614E-03
 -1      5005 1.94308E-01 1.83411E+00 3.43139E-02-1.00839E+00 3.10636E-03-1.71189E-03
 -1      5006-5.28557E-01 1.66797E+00-2.62265E-02-6.31722E-01-1.55274E-02 8.19071E-03
 -1      5007-1.87859E-01 1.85080E+00 2.74261E-02-8.45935E-01-4.82905E-03-2.09529E-03
 -1      5008-9.10340E-03-1.13637E-02 8.68974E-04 1.63577E-02-2.04244E-03 8.77459E-04
 -1      5009-7.02236E-03-1.25613E-02-1.05050E-03 5.08566E-03-1.18340E-03-7.25260E-04
 -1      5010 3.51712E-03-2.13845E-02 4.50057E-04 1.29928E-02-9.03197E-04-9.52344E-05
 -1      5011 4.16969E-03-3.47478E-02-1.87564E-03 2.99123E-02-1.81361E-03 6.66226E-04
 -1      5012 7.27953E-03-2.99017E-02-5.90582E-04 1.51754E-02-1.24638E-03-3.40947E-04
 -1      5013-7.75196E-03-1.89323E-02-7.25963E-04 2.06846E-02-4.31820E-04 2.34799E-04
 -1      5014 1.81347E+02 1.43548E+01-4.05070E-01 1.34127E+01-9.30545E-01-1.07950E+00
 -1      5015 1.75850E+02 2.24978E+01 4.57683E-01 1.41773E+01-9.72261E-01-1.27024E+00
 -1      5016 1.70206E+02 2.08524E+01-6.02226E-01 6.75623E+00-8.33679E-01-6.59266E-01
 -1      5017 1.76713E+02 2.22796E+01-3.26634E-01 1.14981E+01-1.28293E+00-8.91067E-01
 -1      5018 1.65415E+01 1.35718E+00 7.35777E-01 8.86749E+00-1.36681E-02 3.20190E-02
 -1      5019 1.69801E+01 2.96632E+00 7.11841E-01 1.00887E+01 7.01792E-02 1.68726E-01
 -1      5020 1.91341E-01-8.94227E-02 5.17790E-03-3.33212E-02-8.05115E-03 3.22974E-03
 -1      5021 1.17876E-01-1.02892E-01-6.92241E-05-3.02292E-02-1.57390E-03 2.03396E-03
 -1      5022 1.59514E-01-1.11239E-01 2.84205E-03 4.87505E-02 3.96142E-03 4.02547E-03
 -1      5023 1.60768E-01-6.52059E-02 1.68127E-02 2.49870E-02-6.40787E-04 1.35856E-04
 -1      5024 1.48111E+01 5.87377E+00-1.33618E-01-1.14543E+01-1.30537E-01 3.68342E-01
 -1      5025-1.03218E+00 2.53593E+00 1.28033E-02 4.54653E+00-1.56199E-01 1.22503E-01
 -1      5026-7.43420E-02 1.72340E+00 1.44958E-01 6.06882E+00-1.04244E-01 9.56606E-02
 -1      5027 1.97710E+00 1.37095E+00 1.07847E-01 3.91294E+00-7.47215E-02 1.44700E-02
 -1      5028 4.77005E+00-1.21937E+00 4.89945E-01 7.03531E+00 1.22926E-01-1.04524E-03
 -1      5029 5.79532E+00-2.09968E+00 6.05233E-01 7.46920E+00-1.89689E-01-6.69949E-02
 -1      5030 9.00746E+00-5.69511E+00 1.81102E-01 6.66740E+00-1.19410E-01-9.91064E-02
 -1      5031 8.03912E+00-4.38334E+00 3.43421E-01 6.57607E+00 1.61033E-01 7.26166E-02
 -1      5032 5.55766E-02 1.71253E+00 9.91208E-03 5.35535E-01 5.64738E-04-2.30669E-03
 -1      5033 1.47211E-01 1.75351E+00 4.29625E-03 6.63512E-01 1.43858E-03-5.06065E-03
 -1      5034-7.27722E-03 1.70304E+00 2.99145E-02 5.42916E-01-2.37324E-03-1.64774E-03
 -1      5035 1.47225E-01 1.75250E+00 4.24304E-03 6.63890E-01-1.15466E-03 4.95326E-03
 -1      5036 5.47419E-02 1.71262E+00 9.93068E-03 5.35649E-01-5.16553E-04 1.92537E-03
 -1      5037-7.36210E-03 1.70230E+00 3.01243E-02 5.43156E-01 2.21598E-03 2.25471E-03
 -1      5038 7.67363E+00-3.81743E-01 1.32232E-01 2.34680E+00-5.23523E-03 1.61837E-03
 -1      5039-5.20216E-03 1.71489E+00 2.36029E-02-5.94898E-01-4.61574E-04-4.50011E-03
 -1      5040-1.17887E-01-5.10627E-02 5.59919E-03-1.11619E-01-5.79308E-04-1.94585E-02
 -1      5041 3.97951E-02-6.89667E-02 1.51997E-03-9.53591E-02-4.53391E-03-5.29566E-03
 -1      5042 1.16836E-01-9.08948E-02 4.19191E-05-1.25138E-01 4.06234E-03-5.85533E-03
 -1      5043 1.85847E+02 6.99525E+00-5.33608E-01-5.38675E+00 1.14337E-01-2.60089E-01
 -1      5044 1.70976E+02 1.76622E+01-5.10199E-01-2.03724E+00 6.36249E-01-7.51237E-01
 -1      5045 1.68199E+02 2.23733E+01-6.00846E-01-6.39673E+00 1.14382E+00-8.03259E-01
 -1      5046 1.44053E+01 3.89103E-02 2.11015E-01 5.90068E+00-2.15633E-01-6.58326E-02
 -1      5047 1.70187E+01 3.05500E+00 7.84360E-01 1.00512E+01-6.37342E-02-9.75867E-02
 -1      5048 1.88555E+02-8.16061E-01 1.07559E-02-7.65084E+00 7.60996E-02-4.62117E-02
 -1      5049 1.56153E+02 1.11749E+01-3.73713E-01-6.32697E-02-5.29371E-01-4.61481E-01
 -1      5050 1.58219E+02 7.90649E+00-3.40398E-01 1.41759E+00-7.28730E-01-1.37507E+00
 -1      5051 1.65306E+02 1.27135E+01-3.75670E-01 3.30434E+00-1.33982E-01-1.26355E+00
 -1      5052 1.67935E+02 9.45645E+00-3.61651E-01 5.25096E+00-4.94323E-01-1.88125E+00
 -1      5053 1.65037E+02 1.47281E+01-8.73267E-01 1.18772E+00-3.34771E-01-1.18193E+00
 -1      5054 1.49954E+01-7.09131E-01 3.65246E-01 4.39234E+00-1.74838E-02-1.00877E-01
 -1      5055 1.87919E+02 3.80457E+00-2.53385E-01-2.30503E+00-1.55993E-02 1.88761E-02
 -1      5056 1.89304E+02 1.89103E+00-1.97678E-01-3.66197E+00 6.18251E-03 6.79621E-03
 -1      5057 1.89029E+02 2.82554E+00-1.06615E-01-7.72579E-02 4.61172E-03-1.05268E-02
 -1      5058-8.31935E-03-1.12081E-02 1.18525E-03 1.59648E-02 1.96545E-03-3.30756E-04
 -1      5059 2.88421E-03-2.49799E-02-3.94027E-04 1.14830E-02 1.47126E-04 1.77368E-04
 -1      5060-7.35825E-03-1.57571E-02-1.55952E-03 5.59037E-03 2.74580E-04 1.55061E-03
 -1      5061-6.52405E-03-1.80103E-02 2.90077E-04 2.06800E-02-5.51390E-04 5.09847E-04
 -1      5062 6.05196E-03-3.48479E-02-2.67750E-04 2.80697E-02 4.46712E-04-1.90365E-04
 -1      5063 1.89540E+02 6.52879E+00-2.62884E+00-1.36408E+01-1.07439E+00 1.68973E+00
 -1      5064 1.84093E+02 1.21214E+01 4.42502E+00-5.61494E+00-1.79578E-01-6.47181E-01
 -1      5065 1.73056E+02 9.65090E+00-3.65832E-01-5.28255E+00 3.11836E-01-2.31207E+00
 -1      5066-5.50505E-01 2.43170E+00 1.65787E-01 2.78018E+00-7.22535E-02 1.46140E-02
 -1      5067 1.90159E+02 3.43076E+00-8.38231E-01-9.17424E+00-9.16615E-02 6.26797E-01
 -1      5068 1.87005E+02 6.76205E+00-8.31146E-01-1.01753E+01-7.65409E-02 3.96547E-02
 -1      5069 1.05178E+02 1.75579E+01 2.83203E+00 2.52756E+01-4.18916E-01 6.10088E-01
 -1      5070 3.03535E+01 1.91747E+01-8.76652E+00 2.66466E+01 5.61493E-01-1.48710E+00
 -1      5071 4.98655E+01 1.44982E+01-1.79050E+00 2.64830E+01-1.72589E+00-3.77953E-01
 -1      5072 1.82025E+02 1.17036E+01-1.22304E+00 1.72875E+00 1.31811E-01 5.32132E-01
 -1      5073 4.79191E+00 6.69077E-01-1.69117E-02 2.51002E+00 1.27996E-02 5.23933E-03
 -1      5074 4.80005E+00 6.63875E-01-1.83577E-02 2.51097E+00-1.18783E-02-3.38514E-03
 -1      5075 3.66768E+00 1.10521E+00 7.68581E-03-2.36205E+00 8.42345E-03-3.66846E-03
 -1      5076 1.99327E+00 1.49194E+00 7.06344E-02-2.83269E+00-3.73276E-03 1.54671E-02
 -1      5077 3.66767E+00 1.10740E+00 8.28168E-03-2.36137E+00-7.59861E-03 5.23488E-03
 -1      5078 2.00096E+00 1.49340E+00 7.38863E-02-2.82508E+00 3.69097E-03-1.89126E-02
 -1      5079 5.27058E+01-1.17132E+01 6.69656E+00-1.44723E+01 6.07742E-01 1.04347E+00
 -1      5080 5.48914E+01-1.16370E+01 7.07282E+00-1.52583E+01-1.01234E+00-1.80785E+00
 -1      5081 2.97909E+01 8.70409E+00-1.29471E+00-1.85600E+01 3.32059E-01 9.40161E-02
 -1      5082 1.66022E+01-4.90321E+00 2.15329E-01 2.89268E+00-2.58121E-01-2.24375E-02
 -1      5083 1.60624E+01-3.02684E+00-4.44042E-02 5.56560E+00-4.69490E-02-4.92057E-04
 -1      5084 1.55455E+01-2.37948E+00 3.11283E-01 4.06598E+00-1.06469E-01-3.62332E-02
 -1      5085 1.63858E+01-4.83596E+00 2.34403E-01 2.84887E+00 1.94082E-01-6.15688E-03
 -1      5086 1.54597E+01-2.45728E+00 2.94448E-01 4.00820E+00 9.12145E-02 5.49732E-02
 -1      5087 1.61119E+01-2.96192E+00 3.13143E-02 5.50226E+00 4.26878E-02 3.25520E-02
 -1      5088 1.67603E-01 1.74307E+00 2.46058E-04-6.85540E-01-2.38199E-03-4.23281E-03
 -1      5089 1.59821E-01 1.77333E+00 3.19582E-03-7.76764E-01 8.38465E-04 5.38727E-04
 -1      5090-2.02032E-01 1.72641E+00 2.09355E-02-5.84288E-01 2.67257E-03 6.84662E-03
 -1      5091 1.85482E+02 6.51686E+00-1.93531E-01 1.29383E+00 2.90058E-02 1.67203E-01
 -1      5092 1.45192E+01 3.18338E+00 3.56438E-01 8.92914E+00 3.90940E-02 1.47621E-01
 -1      5093 1.91418E+01-6.47816E-01 4.19865E-01 1.04777E+01 9.65670E-02-4.75213E-02
 -1      5094 4.86622E+00 5.98687E+00 4.30820E-01-7.46875E+00-1.37731E-01 3.04501E-02
 -1      5095 5.00743E+00 2.84137E+00 5.57074E-01-3.06778E+00-3.07091E-02-5.29466E-02
 -1      5096 2.44751E+02-1.21812E+01 1.97663E+00-1.44692E+01-2.33770E+00 2.27648E+00
 -1      5097 2.13909E+02-6.06825E+00-1.36841E+00-3.91585E+01-1.09368E+00 2.23336E+00
 -1      5098 5.86892E+00-7.66545E-01 2.23095E-01 4.85418E+00-1.36551E-01 2.49261E-02
 -1      5099 5.21708E+00-2.62039E+00 3.70690E-01 8.88700E+00-2.39933E-01 7.61336E-02
 -1      5100 8.43017E+00-3.30566E+00-3.43028E-02 4.36006E+00-1.47162E-01-7.66289E-03
 -1      5101 1.44833E+01 3.21075E+00 3.23646E-01 8.89955E+00 2.45602E-03-1.48286E-01
 -1      5102 1.92743E+01-3.19162E-01 6.42544E-01 1.03103E+01-4.99317E-02 5.80462E-03
 -1      5103 1.74202E+02 2.47718E+01-7.62968E-01 1.73200E+01-1.71227E+00-2.44005E+00
 -1      5104-6.82559E-01 2.04001E+00 6.99574E-03 8.81968E-01-2.82743E-02 3.36154E-02
 -1      5105-1.54397E+00 2.24128E+00 1.32698E-02 3.41901E-01-4.73936E-02 4.72704E-02
 -1      5106-3.35160E-01 2.21404E+00 6.84205E-02 1.50766E+00-1.53657E-02 4.99112E-02
 -1      5107 1.82387E+02-1.64954E+00 1.77939E-01-1.40937E+01-1.30520E-01-2.86940E-01
 -1      5108 5.03202E+00-4.87012E-01 7.24616E-01-5.75417E+00-1.96987E-01-5.93673E-03
 -1      5109 5.55934E+00-1.17480E+00 5.51355E-01-6.01210E+00 1.13767E-01-7.57479E-03
 -1      5110 1.96576E+00 8.57940E-01 3.44669E-01-5.80034E+00-5.64261E-02-1.11900E-02
 -1      5111 2.48473E+00 5.34423E-01 4.22820E-01-6.18142E+00 1.21767E-01-1.38156E-02
 -1      5112 6.53641E+00-1.97327E+00-1.64160E-01-3.77259E+00-1.15124E-02 2.55502E-02
 -1      5113 2.33956E+00 1.36437E+00 1.07329E-01 3.26729E+00 3.15289E-02-2.38809E-02
 -1      5114 2.32779E+00 1.36637E+00 9.46459E-02 3.28216E+00-2.60147E-02 3.01215E-02
 -1      5115 1.47863E+01-1.37544E+00 2.30742E-01 3.42099E+00-1.21888E-02-7.61296E-03
 -1      5116 1.19272E+01-1.59098E+00 4.31072E-02 6.11738E-01 9.19783E-03-3.00276E-03
 -1      5117 1.88863E+02-1.84719E-01 5.74989E-01 8.44960E+00-3.07187E-02 1.92499E-01
 -1      5118 1.68812E+02 2.13303E+01-5.63302E-01-3.43550E+00-1.22573E-01 4.25806E-03
 -1      5119 1.73534E+02 4.07830E+01 6.39116E+00-1.42534E+01 3.92187E-01-2.26177E-01
 -1      5120 1.77685E+02 3.48489E+01 5.34730E+00-1.59088E+01 9.69221E-01-5.05563E-01
 -1      5121 1.46503E+02 9.71153E+00 1.50813E+01 1.13896E+01-1.90799E+00 9.79580E+00
 -1      5122 1.83294E+02 9.92160E+00-1.13382E+00 4.01989E-01 4.97669E-03 2.99655E-01
 -1      5123 1.81826E+02 1.14156E+01-1.11540E+00 3.25671E+00 1.11697E-01 3.37596E-02
 -1      5124 1.82883E+02 9.23925E+00-1.08853E+00 1.64458E+00-2.63310E-02-8.53619E-02
 -1      5125 1.87774E+02 4.71905E+00-4.57575E-01 6.27888E+00-3.08041E-02-1.34567E-01
 -1      5126 1.88306E+02 4.14211E+00 5.78184E-02 5.46490E+00-1.06818E-02-7.31170E-02
 -1      5127 1.89401E+02 2.00497E+00-3.73138E-01 6.34196E+00 1.92242E-02-2.11978E-01
 -1      5128 1.88729E+02 3.53789E+00-1.72039E-01 4.48200E+00 2.78187E-02-1.18857E-01
 -1      5129 1.71219E+02 1.53567E+01-6.18742E-01-1.21867E+00-3.85416E-01-1.21774E+00
 -1      5130 1.73285E+02 1.27331E+01-4.99406E-01-2.95354E+00 3.90393E-02-1.54091E+00
 -1      5131 1.68347E+02 1.15575E+01-6.33379E-01-4.99528E+00-3.17140E-02-1.47087E+00
 -1      5132 1.75155E+02 1.42012E+01-1.23298E+00-3.02744E+00 9.37668E-02-1.77308E+00
 -1      5133 1.66015E+02 1.44746E+01-7.42717E-01-2.54827E+00-3.16112E-01-1.31065E+00
 -1      5134 2.19395E+00-3.88548E-02 8.79073E-02 5.76433E+00-8.15057E-02-2.97318E-02
 -1      5135 3.45705E+00 1.96174E-01 1.29895E-03 4.50288E+00-8.99275E-02 2.63369E-02
 -1      5136 1.82013E+02 9.45002E+00-1.55291E-01 8.85725E-01 2.42935E-03 4.48896E-01
 -1      5137 1.73834E+02 1.84113E+01-1.83705E+00 2.18038E+00-4.62556E-01-1.25439E+00
 -1      5138 1.66606E+02 2.01981E+01-6.83930E-01 2.96680E+00-8.16382E-01-5.67215E-01
 -1      5139 1.68753E+02 1.89287E+01-1.26622E+00 3.75544E-01-7.78484E-01-1.37703E+00
 -1      5140 3.17808E+01-1.44896E+01 2.52827E+00 4.33868E+00 3.31880E-02-5.25148E-01
 -1      5141 8.18687E+00-2.10557E+00-3.64835E-03 3.21593E+00 5.24284E-02-3.97108E-02
 -1      5142 5.92540E+00-7.85103E-01 2.43924E-01 4.94454E+00 1.36196E-01-3.21271E-02
 -1      5143 1.17402E+01-3.52967E+00 2.03021E-01 2.01439E+00 1.22760E-01-4.06925E-02
 -1      5144 8.28406E+00-3.62937E+00-1.21276E-01 4.48179E+00 1.66374E-01-6.63559E-02
 -1      5145 5.52723E-02-6.34571E-02 3.36124E-03 8.55972E-03-1.97972E-03 2.12999E-03
 -1      5146 6.68933E-02-7.66085E-02 2.87856E-03-4.26371E-02-2.89973E-04 2.28084E-03
 -1      5147-1.08318E-01 1.61099E+00 8.05560E-03 1.30196E-01 1.69536E-03 2.16189E-03
 -1      5148 1.75938E+02 1.71723E+01-1.27518E+00-1.48428E+00-2.49627E-02-8.29839E-01
 -1      5149 1.74860E+02 1.86654E+01-1.68591E+00 3.70235E+00-2.47011E-02-7.60618E-02
 -1      5150 1.75580E+02 1.75614E+01-1.29418E+00-4.52403E-01 6.29162E-02 4.35605E-01
 -1      5151 1.78533E+02 1.45141E+01-1.91630E+00-4.55375E-01-1.85415E-02-2.64363E-01
 -1      5152 1.81138E+02 8.78467E+00-1.95515E-01-4.15658E+00 3.32709E-01-2.30034E+00
 -1      5153 1.78721E+02 1.22237E+01-9.52680E-01-4.20890E+00 2.33620E-01-1.95673E+00
 -1      5154 1.87440E+02 1.33464E+01 1.77344E+00-4.54579E+00-8.52754E-02-1.10490E+00
 -1      5155 1.92987E+02-1.57114E+00-1.63063E-01 4.89818E+00 1.06736E-02-2.97043E-02
 -1      5156 1.92572E+02-9.32380E-01 4.92333E-03 3.75802E+00 2.90515E-02-2.18774E-02
 -1      5157 1.91606E+02-4.21453E-01 1.70586E-01 6.07508E+00 2.25881E-03-7.81643E-03
 -1      5158-5.88393E-01 2.54017E+00 2.44404E-01-3.68442E+00 4.23900E-02 6.96372E-03
 -1      5159-4.86378E-01 2.52542E+00 2.40321E-01-3.68974E+00-9.16039E-02-2.40223E-02
 -1      5160 1.12572E+00 1.87222E+00 4.07021E-01-4.31799E+00 6.45431E-02-2.71580E-03
 -1      5161 1.08876E+00 1.79747E+00 4.23458E-01-4.38887E+00-1.22387E-01-5.08895E-02
 -1      5162 2.66116E+00 4.48407E-01-1.24088E-01-3.64098E+00-8.75109E-03-6.05095E-03
 -1      5163 1.94231E+02-4.25155E+00-2.18451E-02-8.87026E+00-1.25337E-01 2.23560E-02
 -1      5164 1.91608E+02-1.91154E+00 1.49379E-01-9.24436E+00-5.69727E-02 6.21462E-02
 -1      5165-6.28194E-01 2.88691E+00-3.53893E-02-6.58091E-01-5.02785E-02 3.54305E-02
 -1      5166-1.80575E-01 2.78443E+00 1.13804E-01 5.02884E-01 2.16333E-02-9.50024E-03
 -1      5167-5.95831E-01 2.91119E+00 1.06435E-02-6.57283E-01 6.25987E-02-3.05731E-02
 -1      5168-1.90530E-01 2.76547E+00 1.53679E-01 4.82837E-01-5.99126E-02 4.00070E-02
 -1      5169 1.57480E+02 1.60436E+01-6.22488E-01-2.80435E+00 3.99912E-01 3.55158E-01
 -1      5170 1.53383E+02 1.16907E+01-2.00301E-01-4.02546E+00-3.59220E-01 5.66883E-01
 -1      5171 1.84253E+02 1.61875E+01-1.12311E-01-1.64360E+01 1.23069E+00-1.40542E+00
 -1      5172 1.20317E-01-8.06889E-02 4.70944E-03 1.31368E-01-1.05512E-02 5.03006E-03
 -1      5173-1.34592E-01-4.61789E-02 3.10065E-02 1.66102E-01-4.53675E-03 9.16178E-03
 -1      5174 2.66937E-01 6.58710E-02 1.93096E-02 7.83494E-02 1.00928E-02 1.36057E-02
 -1      5175 1.84548E+02 1.06699E+01-1.82629E+00 2.53593E-01 1.71079E-01 1.08599E+00
 -1      5176 1.86735E+02 1.09070E+01-1.02142E+00-2.41617E-01 4.01227E-02 2.79030E-01
 -1      5177 1.85173E+02 1.12467E+01-1.41312E+00 1.28492E+00-4.31322E-02 2.81728E-01
 -1      5178 1.68484E+02 1.52868E+01-6.83134E-01 1.98039E+00 3.13911E-01-1.22159E+00
 -1      5179 1.71486E+02 1.99414E+01-1.22618E+00-4.00399E+00 9.21633E-01-1.52107E+00
 -1      5180 6.62729E-02-8.63673E-02 1.93156E-04 6.25196E-02-3.38868E-04-2.14033E-03
 -1      5181 1.56818E-01-1.19615E-01-3.51181E-03 5.01466E-02-5.75137E-03-2.22573E-03
 -1      5182 9.62153E-02-1.00116E-01 2.21957E-03 2.61052E-02-6.63423E-04-4.89367E-04
 -1      5183 1.24662E+01-4.84945E+00 1.26803E+00-4.78320E+00-2.58202E-01 1.22927E-01
 -1      5184 1.36503E+01-5.87650E+00 1.06688E+00-4.53657E+00 3.01458E-01-2.27761E-02
 -1      5185 7.72757E+00-3.52730E+00 5.01887E-01-7.09701E+00-6.57030E-02 3.26274E-02
 -1      5186 8.87965E+00-4.23109E+00 6.20078E-01-7.18247E+00 1.67690E-01-1.15783E-01
 -1      5187 3.48915E-01 1.78415E+00 7.34131E-03-9.75279E-01-2.03298E-03-5.24749E-04
 -1      5188-2.18418E-01 1.83927E+00 1.63772E-02-8.62763E-01 6.08299E-03 7.52381E-03
 -1      5189 2.31884E-01 1.84171E+00 4.34371E-02-1.04315E+00-1.87363E-03 6.40381E-03
 -1      5190 6.57253E-01 5.66929E-01 3.53250E-02-7.63233E-01 1.31066E-01-1.25683E-02
 -1      5191 6.28808E-01 1.56649E+00 3.40301E-01-8.94836E-01 4.91016E-02 3.75070E-03
 -1      5192 2.86672E+00 1.34120E+00 2.03345E-02-2.32608E+00 1.07733E-03-1.25213E-02
 -1      5193 2.70031E+00 1.34965E+00 7.60901E-02-2.52759E+00-1.11150E-02-2.95748E-03
 -1      5194 1.83811E+00 1.54552E+00 3.38438E-02-2.08076E+00 8.33023E-03 9.99520E-04
 -1      5195 6.71728E-01 1.59752E+00-4.65630E-02-2.56056E+00 1.05070E-02-5.28756E-03
 -1      5196 1.11839E+00 1.70317E+00 5.05630E-03-2.29929E+00 1.11478E-02 2.07760E-02
 -1      5197-8.99713E+00 1.65154E+01 2.33151E-01-1.27466E+01 7.49181E-02 5.46242E-01
 -1      5198 1.47648E+01-1.25980E-01-8.59212E-02-6.67191E+00-3.62691E-02 3.35997E-02
 -1      5199 1.92016E+01-8.70862E+00 4.21039E-02 2.88835E+00 3.56468E-01-2.00999E-01
 -1      5200 2.18453E+01-1.51519E+01 1.96001E-01-4.58895E+00 4.15322E-01-2.57717E-01
 -1      5201 2.54104E+01-7.21155E+00 9.40032E-01 8.80418E+00 1.90905E-01-1.14723E-01
 -1      5202-2.25629E-01-5.23408E-02 1.24662E-01-2.25556E-01-2.85926E-03-8.84741E-02
 -1      5203 1.96320E+02-5.41746E+00-2.71722E-01 1.29500E+01 1.60378E-01 3.37850E-01
 -1      5204 1.91832E+02-3.94739E+00-1.59592E-02 1.12810E+01-8.54497E-02 1.71392E-01
 -1      5205 1.85177E+02-9.38480E-01-1.64576E-01 1.08807E+01 2.54938E-01 2.59892E-01
 -1      5206 1.90741E+02-1.46052E+00 1.68684E-01 1.06371E+01 4.91968E-02 1.82412E-01
 -1      5207 1.88969E+02 1.90920E-01 8.78501E-01 8.67046E+00-3.70517E-02-3.29178E-01
 -1      5208 1.88850E+02 3.17818E+00 8.46784E-03 3.59952E+00-4.97752E-03-2.69481E-03
 -1      5209 1.86285E+02 4.44183E+01 4.75057E+01 7.80411E-01-7.48068E-01 1.45752E+00
 -1      5210 1.97966E+02 1.86079E+01 7.92301E+00-1.09224E+00-5.12088E-01-1.96860E+00
 -1      5211 1.93821E+02 1.79172E+01 1.39587E+01-2.86510E+00 1.41444E+00-1.21150E+00
 -1      5212 9.64719E-03-3.45224E-02-5.16300E-04 2.33370E-03-1.32916E-03 8.40229E-04
 -1      5213-1.67461E-02 1.85546E+00 4.50273E-03 1.18790E+00-3.45545E-03 1.27640E-02
 -1      5214 4.56312E-01 1.95878E+00 4.64433E-02 1.78178E+00-1.86833E-03 1.38688E-02
 -1      5215-1.30191E+00 2.74204E+00 1.72384E-01 1.81628E+00-2.18742E-02 4.53680E-02
 -1      5216-1.20705E+00 2.81358E+00 2.06598E-01 2.71205E+00 6.41352E-02 3.89752E-03
 -1      5217 1.96599E+02 4.28447E+00 2.04583E+00 3.87689E+01-5.52604E+00 2.78189E+00
 -1      5218 1.84824E+02 3.25273E+00-6.65908E-01 3.28745E+01-1.62132E+00 4.68845E-01
 -1      5219-1.00879E-01-3.16542E-02 2.52099E-02-1.34513E-01 2.93203E-03-4.40361E-04
 -1      5220 2.34387E+00 1.42324E+00 6.16836E-02-2.43170E+00 6.86866E-04-1.64453E-03
 -1      5221 2.69971E+00 1.34953E+00 7.60590E-02-2.52540E+00 1.08361E-02 1.15116E-03
 -1      5222 1.55166E+00 1.62725E+00 2.01979E-02-1.97714E+00-1.88716E-03-1.04296E-03
 -1      5223 1.84291E+00 1.54433E+00 2.76583E-02-2.07876E+00-1.39535E-02 9.03410E-05
 -1      5224-4.43058E-01 1.38614E+00-2.98744E-03-1.42812E-01 4.34790E-03 2.67736E-02
 -1      5225-5.13604E-01 9.68007E-01 3.63071E-02 3.55521E-01-2.67095E-03 4.10673E-02
 -1      5226-3.08534E-01 1.33625E+00 4.17261E-02-4.69865E-02 7.04632E-03 1.81601E-02
 -1      5227-1.12275E+01 1.68393E+01-8.14702E-03-1.34096E+01 2.00297E-01-3.37345E-01
 -1      5228-1.54538E+01 2.00978E+01 1.73567E+00-8.79818E+00 8.41886E-02 6.90204E-01
 -1      5229 1.55871E+01 7.47698E+00-1.80527E-01-1.18547E+01 6.52976E-02-2.54076E-01
 -1      5230 1.69390E+01 9.87545E+00 1.50365E-01-1.33743E+01-9.91258E-02-7.47644E-01
 -1      5231 2.21382E+01 1.41403E+01 6.31655E-01-1.64246E+01-3.45216E-01 2.37094E-01
 -1      5232 1.89067E+02 1.07791E-01-4.11255E-04-6.65379E+00-2.40288E-02-4.44764E-02
 -1      5233 1.89256E+02-4.31383E-01 1.91937E-02-7.36788E+00-3.09928E-03-9.09027E-03
 -1      5234-8.91882E-03 1.86445E+00-8.65346E-03 1.18221E+00-2.68757E-03-1.62065E-02
 -1      5235-5.93826E-01 2.09468E+00 5.67998E-02 8.86771E-01 1.81555E-02-1.43145E-02
 -1      5236-4.32115E-01 2.12613E+00 2.15747E-03 1.49455E+00 2.94675E-02-2.54944E-02
 -1      5237 4.48057E-01 1.94438E+00 4.55058E-02 1.79382E+00 1.21015E-02-1.39611E-02
 -1      5238 1.71145E+02-1.18636E+00 6.46773E-01 1.75161E+01 4.42859E-01-4.63756E-02
 -1      5239 6.13483E+01 1.55772E+01-4.56462E+00-2.45711E+01 2.07573E+00-1.53866E-01
 -1      5240 8.09548E+01 1.32571E+01-3.63217E-01-2.76944E+01 2.44818E+00 9.73029E-01
 -1      5241 2.81458E+01 2.25854E+01-2.76813E+00-2.57041E+01 1.43279E+00 4.12819E-01
 -1      5242 2.90795E+01 1.89979E+01-2.27632E+00-2.17043E+01 1.72188E+00-3.45612E-01
 -1      5243 4.60132E+01 1.48451E+01-4.23456E-01-2.59493E+01 1.42840E+00 4.85089E-01
 -1      5244 7.74247E+01-4.30548E+00 4.99662E+00-1.95671E+01-1.39794E+00-1.87485E+00
 -1      5245 8.42353E+01 1.07142E+01 7.47656E-01-2.22649E+01 1.85823E+00-3.36486E-01
 -1      5246 5.12578E+01 1.21909E+01 6.43731E-01-2.27751E+01 1.27142E+00-2.37797E-03
 -1      5247 6.45247E+00 6.33301E-02-1.06005E-02 2.52002E+00 2.96030E-03 2.81388E-02
 -1      5248 7.63469E+00-1.84468E-01 4.15530E-02 2.14000E+00-2.06721E-02 1.45503E-02
 -1      5249 5.96045E+00-5.35499E-01 1.00541E-01 3.77773E+00 6.11087E-02-4.85289E-02
 -1      5250 7.72179E+00-2.53368E-01-1.21058E-02-2.14857E+00-3.37100E-02 3.86406E-03
 -1      5251 9.18289E+00-5.96642E-01 1.59984E-02-1.44262E+00-2.16353E-02 3.10156E-02
 -1      5252 6.72541E+00-7.88651E-01 4.16897E-02-3.24764E+00-6.38539E-02-3.18541E-02
 -1      5253 6.92194E+00-2.38460E-01 1.88841E-02-2.40100E+00-2.02283E-02-2.90204E-03
 -1      5254 5.39987E+00-2.14376E-01 7.88104E-02-3.79935E+00-1.96664E-02-4.47170E-02
 -1      5255 9.17743E+00-5.98846E-01 2.03494E-02-1.43949E+00 2.11277E-02-3.09222E-02
 -1      5256 7.71663E+00-2.57952E-01-1.36429E-02-2.14809E+00 3.55758E-02-6.61386E-03
 -1      5257 5.37199E+00-2.19437E-01 5.22460E-02-3.80130E+00 2.01605E-02 4.39062E-02
 -1      5258 6.92633E+00-2.38885E-01 1.98343E-02-2.39822E+00 1.92964E-02-5.80769E-03
 -1      5259 6.72200E+00-7.90327E-01 4.10094E-02-3.25320E+00 5.61900E-02 1.97231E-02
 -1      5260 7.83341E+00-2.08111E+00 2.45413E-01-4.57979E+00-1.00876E-01-9.55819E-02
 -1      5261 1.78020E+00 3.29953E-01 1.01005E-01-6.88126E+00-1.97526E-01-1.26123E-02
 -1      5262 4.88498E+00-7.57468E-01 4.53724E-04-4.92678E+00-1.30772E-01-1.58196E-02
 -1      5263 1.99782E+01 1.05031E+01 2.79220E-01 1.53407E+01 4.78255E-01 5.64897E-01
 -1      5264 2.13416E+01 1.21364E+01 6.44471E-01 1.58294E+01-3.64665E-02 2.19945E-01
 -1      5265 1.46903E+01 4.63630E+00-8.80831E-01 1.08102E+01 2.77133E-02 2.55575E-02
 -1      5266 2.82791E+01 3.75318E+00-7.94679E-01 1.70508E+01 3.08720E-01 3.57254E-01
 -1      5267 1.49888E+01 4.06724E+00 3.87572E-02 1.03865E+01 1.16150E-01 1.92778E-01
 -1      5268-3.39218E-01 7.55610E-01 2.15686E-03 2.59209E-01-1.08162E-02-3.44464E-02
 -1      5269-3.69001E-01 1.46775E+00 5.23347E-02-1.54260E-01 3.53437E-03-3.20597E-02
 -1      5270-3.45403E-01 1.28046E+00 8.22778E-03-4.01895E-02-3.12613E-03-2.93937E-02
 -1      5271 2.02374E+00 1.40855E+00 1.44544E-01 3.92171E+00 8.89414E-02-2.47766E-02
 -1      5272 3.43095E+00 2.20664E-01 1.75970E-02 4.48585E+00 9.79114E-02-2.58894E-02
 -1      5273-1.02750E+00 2.58403E+00 6.52361E-02-4.48222E+00-1.37956E-01-6.46565E-02
 -1      5274 1.40817E+00 1.45434E+00 1.77989E-02-3.86284E+00-8.50832E-02-3.45885E-02
 -1      5275 3.20686E+00 7.46080E-01 1.65167E-01-4.38964E+00-5.70297E-02-7.25701E-02
 -1      5276 1.82521E+02 8.94348E+00-2.07222E-01 7.99225E-02 1.93301E-02 3.36104E-01
 -1      5277 1.80689E+02 9.69936E+00-6.39995E-01-9.12731E-02 1.47693E-02 7.63843E-01
 -1      5278-1.05278E-01-4.74918E-02 3.87830E-03 1.47189E-01 1.30377E-02-1.46933E-02
 -1      5279-7.17250E-02-2.66987E-02 2.53574E-02 9.02566E-02-1.12401E-03-5.44654E-03
 -1      5280-8.77764E-01 1.74420E+00 1.10057E-01 6.35279E-03 3.14712E-02 3.07743E-02
 -1      5281-6.74495E-01 1.40957E+00 8.07355E-02 1.11065E-01 3.33142E-03-1.75834E-02
 -1      5282-1.10609E+00 1.90655E+00 7.56873E-02-3.03956E-01 1.54995E-02 3.44736E-03
 -1      5283-7.57224E-01 1.72261E+00 1.26618E-01-1.51693E-01-1.52781E-02-4.37586E-02
 -1      5284 1.09325E-02-4.42334E-02-1.51872E-03-3.86846E-02 9.19855E-04-7.62205E-04
 -1      5285-2.70130E-03-2.21807E-02 3.54076E-04-2.20527E-02 9.35673E-04-7.54830E-04
 -1      5286 1.00836E-02-4.15287E-02-4.29289E-04-3.91465E-02-1.37654E-03-5.19599E-04
 -1      5287-2.37325E-03-2.22354E-02 4.10979E-05-2.20326E-02-1.15179E-03 1.99998E-04
 -1      5288-1.26036E-01-7.18806E-02-7.15005E-03-1.47044E-01-1.72897E-02-1.89810E-02
 -1      5289-5.31739E-02-2.87797E-02 4.88293E-04 3.89413E-02-2.13372E-04 1.32739E-03
 -1      5290-1.75783E-02-2.07558E-02 3.84791E-03 2.61021E-02-4.88268E-04 6.27987E-04
 -1      5291-3.14460E-02-2.22270E-02 1.08092E-04 3.00432E-02-6.53426E-04 2.90519E-03
 -1      5292-3.27648E-02-2.31203E-02-1.43295E-03 3.04574E-02-3.43750E-04-1.26923E-03
 -1      5293 5.70543E-01 1.80937E+00-3.80000E-03 1.28082E+00-6.67420E-03 8.10004E-03
 -1      5294 9.38600E-01 1.78002E+00 1.25357E-02 1.52923E+00-8.51935E-03-3.82738E-03
 -1      5295-2.35110E-01 1.93109E+00 3.29708E-02 9.35890E-01 7.27469E-04 1.30174E-02
 -1      5296 3.55506E-01 1.77915E+00 2.37954E-02 1.14243E+00-1.00969E-02-2.69100E-04
 -1      5297 2.71456E+00 1.32101E+00-2.46663E-02-2.97966E+00-9.38561E-02-1.04820E-01
 -1      5298 1.55475E+00 1.97701E+00 3.28735E-01-2.46402E+00 7.66694E-02-3.90779E-02
 -1      5299-2.28170E-02-2.23228E-02 8.06657E-03-4.12518E-02 1.22195E-04-3.09135E-03
 -1      5300-2.00610E-01 8.55430E-01 7.82929E-02 7.74157E-02 4.99153E-03 3.60037E-02
 -1      5301-2.58489E-01 8.57581E-01 7.88877E-02 1.16009E-01 5.57813E-03-1.93816E-02
 -1      5302-3.41346E-01 1.26068E+00-2.22048E-03-4.32049E-02 4.34073E-03-7.19427E-03
 -1      5303-2.49429E-01 8.74661E-01 6.46497E-02 4.65277E-02 1.13050E-02 1.09301E-02
 -1      5304-4.83196E+00 1.25390E+01 4.79142E-01-1.07676E+01 7.70074E-02-2.10234E-01
 -1      5305 1.14239E+01-1.21798E+00 1.77687E-02 1.87103E-01-1.02409E-02-4.62711E-02
 -1      5306 1.17019E+01-3.60591E+00 1.41452E-01 1.83912E+00-1.33586E-01 5.53301E-02
 -1      5307 5.90720E+01-9.26411E+00 5.69428E+00 1.52674E+01 1.51333E+00-5.96445E-01
 -1      5308 1.71987E+02 2.50872E+01 6.37767E-01 1.13547E+01 1.66139E+00 8.25813E-01
 -1      5309 1.72329E+02 2.00435E+01-8.05080E-01 7.55037E+00 1.06040E+00 7.22983E-01
 -1      5310 1.69095E+02 2.03323E+01-3.36406E-01 4.51400E+00 9.57688E-01 7.26257E-01
 -1      5311-2.24596E-01 7.67595E-01 5.92842E-02-1.50906E-01-4.66444E-03-5.15679E-02
 -1      5312-2.47320E-01 7.94762E-01 5.36494E-02-6.49470E-02 6.26046E-03-9.19697E-03
 -1      5313-1.96367E+00 3.01172E+00 1.88613E-02 2.13935E+00-1.06106E-01 6.27308E-02
 -1      5314-1.90797E+00 3.12097E+00 1.24139E-01 3.34578E+00-6.28123E-02 6.87971E-02
 -1      5315 8.50863E-01 1.90454E+00 6.20786E-02 3.10847E+00-3.85141E-02 6.43549E-02
 -1      5316 1.26625E+01 1.42194E+01-5.72861E-01 1.36941E+01-4.09977E-01-2.02206E+00
 -1      5317 2.23314E+01 1.37393E+01 6.24829E-01 1.56683E+01-1.99588E-01-8.94195E-01
 -1      5318 1.82976E+02 1.18743E+01-1.58828E+00 3.34125E-01-2.18595E-01 1.67024E+00
 -1      5319-2.81198E-01 1.19393E+00 2.23624E-02-5.61244E-03-8.54847E-04-1.85258E-02
 -1      5320-2.11755E-01 6.46817E-01 3.07469E-02 1.45566E-01 5.55984E-03-3.06469E-02
 -1      5321-2.60242E-01 1.19299E+00 1.94630E-02-4.80767E-02-6.22270E-03-2.16045E-02
 -1      5322 8.91065E+01 9.40193E+00-9.06718E-01 2.13049E+01 2.16438E+00-1.01842E-01
 -1      5323 5.20504E+01 1.13920E+01 1.60330E+00 2.32535E+01 1.49100E+00 2.02597E-01
 -1      5324 1.65406E+02 9.27065E+00-2.83028E-02-4.86738E+00-4.02813E-01 1.87286E+00
 -1      5325 1.67897E+02 1.21401E+01-4.38075E-01-4.37286E+00-1.61802E-01 1.46794E+00
 -1      5326 1.72276E+02 9.82892E+00-3.70964E-01-4.45308E+00-3.66655E-01 2.14185E+00
 -1      5327 1.49058E+02 6.77077E+00-7.56682E-01 4.42145E+00 1.89382E+00-8.70666E-01
 -1      5328 1.39743E+02 1.10889E+01-5.76236E-01 1.01567E+01 3.90833E-01 5.72535E-01
 -1      5329 1.62356E+02 1.18493E+01-1.65936E+00 6.02761E-01 8.94916E-01-1.10481E+00
 -1      5330 2.38514E+02 4.42580E+00 6.53782E+00-3.53740E+01-6.52528E+00 1.19297E+00
 -1      5331 1.89319E+02 2.52214E+00-2.80228E-02-1.05729E+00 4.73995E-03-2.12552E-02
 -1      5332 1.91826E+02 1.21035E-01 8.64777E-03 9.22840E-01-5.38252E-03 5.12083E-02
 -1      5333 1.92766E+02-1.00872E+00 6.00890E-03 8.07464E-01 1.12384E-02 5.27822E-02
 -1      5334 1.92279E+02-6.95113E-01 1.21017E-02-2.26129E+00 5.98290E-03 2.71041E-02
 -1      5335 1.91406E+02 4.75124E-01 1.06476E-03-2.15350E+00 1.78010E-02-5.73506E-02
 -1      5336 9.39288E-01 1.78687E+00 1.43443E-02 1.53273E+00 9.39384E-03 1.41450E-03
 -1      5337 5.72516E-01 1.80804E+00-1.55584E-03 1.27927E+00 4.74676E-03-7.44288E-03
 -1      5338-2.18896E-01 1.92752E+00 3.29002E-02 9.33173E-01-8.85427E-04-3.69867E-03
 -1      5339 3.50074E-01 1.77693E+00 1.88706E-02 1.14196E+00 7.90996E-03-3.49037E-03
 -1      5340 1.35290E+02 2.86228E+01 2.63197E+00 3.55541E+01-3.67251E+00-2.69582E+00
 -1      5341 1.46174E+02 7.88916E+00-1.39972E-01 1.53594E+01-1.68616E+00-1.65043E+00
 -1      5342 1.19154E+02 2.96598E+01 1.09103E+00 4.51886E+01-4.25326E+00-3.42849E+00
 -1      5343 1.47767E+02 4.80396E+01 7.96534E+00 4.30184E+01-3.78320E+00-2.65030E+00
 -1      5344 1.57740E+02 1.80053E+01-3.45643E-01 1.44864E+01 1.24081E-01-2.47511E+00
 -1      5345 1.54904E+02 1.69058E+01-2.25021E+00 7.79560E+00-1.56669E+00-5.53660E-01
 -1      5346-2.33294E+01 2.36454E+01-2.31788E-01-1.06468E+01 1.70232E-01-1.12366E+00
 -1      5347-1.46310E+01 2.00420E+01 1.27688E+00-1.41193E+01-2.44193E-01 4.83171E-01
 -1      5348 1.61579E+02 1.47667E+01-7.64992E-01 2.81902E+00-1.22519E+00 3.06463E-01
 -1      5349 1.55509E+01 4.10961E+00 2.12812E-01-1.17913E+01-5.17213E-03-1.36474E-01
 -1      5350 1.48644E+01 6.87153E+00 2.95540E-01-1.26905E+01 6.68718E-02-6.28211E-01
 -1      5351 2.37444E+01 8.00270E-01 2.04075E-02-1.53072E+01 5.36515E-02 1.28039E-01
 -1      5352 1.76719E+02 1.01336E+01-1.51532E+00 2.79176E+00 1.54058E-01 2.07007E+00
 -1      5353 1.78063E+02 1.11731E+01-8.33804E-01 2.88368E-01-1.36392E-01 1.23544E+00
 -1      5354 1.80543E+02 9.36359E+00-8.48777E-01 1.01540E+00-1.57363E-02 1.99785E+00
 -1      5355 1.83416E+02 1.10646E+01-1.93193E+00 2.83761E+00 1.91518E-01 2.86559E+00
 -1      5356 6.56969E+00 5.18804E-02 5.25052E-04-2.48912E+00-1.55492E-02 3.16887E-03
 -1      5357 6.02967E+00 2.35037E-01 1.25648E-01-2.62985E+00 1.15243E-02-9.00384E-03
 -1      5358 6.57094E+00 5.10449E-02 1.09051E-03-2.49095E+00 1.89852E-02-2.28058E-03
 -1      5359 6.02628E+00 2.33262E-01 1.15790E-01-2.63320E+00-8.13096E-03 9.93189E-03
 -1      5360 1.87259E+02-5.98745E-01 5.98482E-02 9.03618E+00-2.96257E-01-9.93299E-02
 -1      5361 1.92290E+02-7.21816E-01 3.32410E-02 4.91544E+00-3.08694E-02 8.90229E-03
 -1      5362 1.90570E+02 5.10892E-01-9.26112E-02 5.10474E+00 2.05559E-02-5.08253E-03
 -1      5363 1.93438E+02-1.43079E+00 2.80867E-02 3.16420E+00-3.53146E-02 1.59818E-02
 -1      5364 1.92563E+02-3.44036E-01 6.77852E-02 1.90780E+00 8.04293E-03 3.02651E-02
 -1      5365 1.90820E+02 1.13134E+00 1.37548E-02 2.19633E+00-4.03914E-03 5.65256E-03
 -1      5366 1.89709E+02 1.55678E+00-1.34734E-01 4.01683E+00 4.72419E-03 7.10125E-02
 -1      5367 6.46625E+00 7.26455E-02-1.11804E-02 2.51217E+00-1.58622E-03-2.78181E-02
 -1      5368 6.00607E+00-5.29187E-01 1.02187E-01 3.76061E+00-5.28176E-02 5.10318E-02
 -1      5369 2.09199E+02-1.14459E+01-1.31000E-01-1.70663E+01 4.29885E-01-4.03679E-01
 -1      5370 2.05608E+02-1.07233E+01-9.62021E-01-1.15401E+01-7.92058E-02 2.29493E-02
 -1      5371 2.06779E+02-1.09584E+01-1.79311E-01-8.15269E+00-1.62554E-01-2.20173E-01
 -1      5372 2.00200E+02-8.27178E+00-1.87366E-01-1.33155E+01-3.10532E-01-3.43447E-01
 -1      5373 1.96148E+02-4.89404E+00-6.76684E-01-1.64806E+01-8.24261E-02-7.34910E-02
 -1      5374 1.34565E+01 9.83786E+00-2.16036E-01 1.38280E+01-1.27683E-01 8.54011E-01
 -1      5375 3.10887E+01 1.19038E+01 4.77188E-01 2.07708E+01-6.29046E-02 3.97709E-01
 -1      5376 2.26626E+01 5.29265E+00 5.10855E-01 1.58769E+01-4.01168E-01 3.62051E-01
 -1      5377-1.36697E+01 2.04083E+01 1.63729E+00-1.85794E+01 4.16250E-01 5.37857E-01
 -1      5378 3.65002E+01 5.20045E+00 2.93889E+00-1.96417E+01-5.17028E-02 1.31707E+00
 -1      5379 1.66215E+01 1.48993E+01 3.60868E+00-2.01721E+01-6.51156E-01-8.84635E-01
 -1      5380-1.49454E+01 2.05576E+01 1.07960E+00-1.51324E+01-3.08628E-01 4.38406E-01
 -1      5381 2.27062E+01 3.19691E+00-1.26171E+00-1.66049E+01 7.51834E-03-5.64807E-01
 -1      5382 5.96088E-01 1.05002E+01-5.00062E-01-1.75659E+01 4.47698E-01-1.39467E-01
 -1      5383 2.03371E-01-8.06003E-02-1.08204E-02 5.91717E-02 1.10195E-03 1.13509E-02
 -1      5384 2.94809E-01-3.09782E-02 1.47266E-02-3.19467E-02-9.84961E-03 1.34875E-02
 -1      5385 3.12592E-01 1.16647E-01 1.32330E-02-1.53704E-02 1.07752E-02 2.23864E-02
 -1      5386 3.11478E-01 1.81447E+00-1.40448E-02 1.07085E+00-5.06500E-04 3.72475E-03
 -1      5387 1.75516E-01 1.81538E+00 3.75730E-02 9.50945E-01 5.54919E-03-1.68987E-03
 -1      5388 1.92323E+02 7.06517E+00-2.73380E-01 1.48731E+01-9.52055E-01-1.94887E+00
 -1      5389 1.92609E+02 9.37856E+00-7.42553E-01 1.42424E+01-2.33105E-01-1.41242E+00
 -1      5390 1.84699E+02 1.37474E+01-1.36932E+00 1.51753E+01-1.72899E+00-1.84008E+00
 -1      5391 1.86202E+02 6.39678E+00-3.85687E-01-2.74867E+00 4.75125E-02-5.44165E-02
 -1      5392 1.87647E+02 3.94884E+00-2.34895E-01-3.40672E+00-1.73785E-02-1.06979E-01
 -1      5393 1.85051E+02 7.22777E+00-3.42883E-01-3.27433E+00 3.56515E-02-3.64363E-01
 -1      5394 1.41156E+01 1.41766E+01 5.21374E-01-1.46960E+01 2.12019E-01-1.23833E+00
 -1      5395 3.07750E+01 1.18338E+01-8.24572E-02-2.06852E+01-4.71563E-01-6.71204E-01
 -1      5396-1.77725E-01-4.06127E-02 2.02009E-03 1.34036E-01-4.54571E-03 1.50291E-02
 -1      5397-7.03808E-02-3.52285E-02 8.18789E-03 1.01142E-01-5.10687E-03 1.59849E-02
 -1      5398-4.95146E-02-3.23718E-02 2.31180E-02 8.19671E-02-5.38482E-03 1.05805E-02
 -1      5399 9.18301E-02-7.65400E-02 7.53619E-03 1.12119E-01-3.37458E-03 5.98950E-03
 -1      5400 3.97778E+00-1.91549E+00 1.31662E-01 8.42489E+00 1.45889E-01-5.70795E-02
 -1      5401 1.91117E+02 1.19286E+01 5.77620E+00 6.98753E-01-6.48224E-01 2.07821E+00
 -1      5402 1.92505E+02 1.71272E+01-4.28957E-01 5.98465E-01 3.29224E+00-4.32363E+00
 -1      5403 1.82127E+02 1.19233E+01 1.99787E+00-8.10320E-01-5.84804E-01 3.00057E+00
 -1      5404 1.44606E+01 1.36909E+00 1.50453E-02-7.20653E+00 7.56999E-03 8.51395E-02
 -1      5405 2.01824E+02-8.16262E+00-1.64175E-02 1.02147E+01 7.73331E-02-1.08646E-01
 -1      5406 1.94641E+02-4.05533E+00 1.21033E-01 9.07879E+00 2.48288E-02 2.31325E-02
 -1      5407-1.47719E-01 1.53909E+00 1.82223E-02-3.62619E-02 8.58252E-04-1.63283E-04
 -1      5408-2.47164E-01 1.40862E+00 1.60833E-02 2.92962E-02 4.02847E-03 2.60861E-03
 -1      5409-9.61649E-02 1.64649E+00 6.46347E-03-7.34409E-02-2.39079E-03-1.09631E-04
 -1      5410-1.27896E-01 1.58517E+00 2.54822E-02-1.39626E-01-4.26379E-03 3.70665E-03
 -1      5411-2.49990E-01 1.43613E+00 1.17331E-02-5.26112E-02-1.43987E-03 7.84357E-03
 -1      5412 2.93053E-01 1.84797E+00 6.67713E-02 1.03179E+00-6.41862E-04 1.32815E-03
 -1      5413 7.66571E+00-3.75676E-01 1.49268E-01 2.35764E+00-9.17147E-03 4.35611E-03
 -1      5414 2.05037E+02-1.06967E+01-7.18799E-01 4.70868E+00 2.82100E-01 6.39985E-02
 -1      5415 2.08304E+02-1.18477E+01 3.04345E-02 1.13503E+01 2.15463E-01-4.92085E-01
 -1      5416 3.59288E+01 9.46302E-01 2.65069E+00-1.80148E+01 1.64957E-01-1.18496E+00
 -1      5417 6.79493E+01-1.88256E+01 3.75229E+00-1.59198E+01-1.95225E+00-3.09456E+00
 -1      5418 4.50032E+01 7.00854E+00 2.19685E+00-1.96014E+01 3.42926E-01-6.95813E-01
 -1      5419 4.64298E-01 1.75315E+00 1.75596E-02 1.25006E+00-2.23763E-03-1.18098E-03
 -1      5420 1.86818E+02 1.16353E+01-4.81387E-01-3.24140E+00-4.23992E-01-2.58775E-01
 -1      5421 3.14032E-01 1.81127E+00-1.23218E-02 1.06904E+00-1.27417E-03-1.30575E-03
 -1      5422 1.75863E-01 1.81543E+00 3.66200E-02 9.50662E-01-5.46726E-03 1.33962E-03
 -1      5423-1.33801E+01 1.73927E+01 8.16511E-01 7.70671E+00-3.05515E-03-6.04912E-01
 -1      5424 1.55988E+02 1.92760E+01-9.01945E-01 6.42050E+00 6.70665E-01 4.62892E-01
 -1      5425 1.51248E+02 1.40512E+01 2.96014E-04 6.14599E+00 1.01310E+00 2.53780E-01
 -1      5426 1.54087E+02 1.06345E+01-1.28713E-01 1.87289E+00 1.01331E+00-4.03042E-01
 -1      5427 2.12618E+02-1.28743E+01-3.98645E-02-2.49445E+01-1.84677E+00 1.17559E+00
 -1      5428 1.31201E+01 5.59994E+00 3.23889E-01 9.86671E+00-3.47193E-01-4.17504E-01
 -1      5429 1.50179E+01 4.08728E+00 1.88029E-01 1.04089E+01-9.74253E-02-2.07305E-01
 -1      5430 1.78402E+02 1.97184E+01 1.58826E-01 1.46026E+01 8.91130E-01 1.15506E+00
 -1      5431 1.85356E+02 9.71099E+00-1.01163E-01 1.25824E+01 6.69036E-01 1.07740E+00
 -1      5432 1.31322E+01 5.53146E+00 3.57927E-01 9.88646E+00 3.98660E-01 3.93285E-01
 -1      5433 1.71053E+01-2.18639E+00 3.25414E-01-7.05081E+00 3.19216E-03-1.48374E-01
 -1      5434 1.77837E+01-5.02060E+00 3.86881E-01-4.24667E+00 2.24985E-01 1.09200E-01
 -1      5435 1.60835E+01-1.18894E+01 5.99247E-01 8.51094E+00-4.67986E-01 2.74236E-02
 -1      5436 1.54941E+01-7.35211E+00-2.04875E-01-3.03188E-01-1.89732E-01-1.36032E-01
 -1      5437 1.98390E+01-1.24801E+01 5.73044E-01 2.02557E+00-1.32640E-01-3.25615E-01
 -1      5438 1.62608E+01-9.65321E+00 1.23722E+00 6.34095E+00-3.11488E-01-2.57098E-01
 -1      5439 1.31372E+01-5.30712E+00 4.00729E-01 2.98898E+00-2.23480E-01-7.57997E-02
 -1      5440 2.81342E+02 7.95792E+00 3.95195E+00-6.66863E+00 2.70575E+00-2.57481E+00
 -1      5441 2.66540E+02 3.22677E+01 1.07281E+01-2.72708E+01 2.37048E+00-4.06320E+00
 -1      5442 2.08897E-01-8.26627E-02 5.01885E-03-1.70650E-01 1.27406E-02 6.06348E-03
 -1      5443 1.46909E+01 5.70884E-01-1.47798E-01-7.43794E+00 8.53801E-02-1.55207E-01
 -1      5444 1.74410E+02 1.44895E+01-8.02452E-01-1.33168E+00 2.37156E-01-1.01196E+00
 -1      5445 3.76810E-01 5.25324E-01 7.96231E-02-8.01656E-02 1.15122E-02-1.56686E-02
 -1      5446 3.61365E-01 2.85188E-01 8.26583E-02-4.11635E-02-1.43538E-02 1.04562E-02
 -1      5447 7.81897E+01-3.79317E+00 6.05182E+00 1.95975E+01-1.73805E+00 1.95681E+00
 -1      5448 1.89539E+02 1.69967E+00-1.40000E-01 6.56749E+00 3.42006E-02 7.58556E-02
 -1      5449 1.88390E+02 3.04650E+00-3.71794E-01 5.52902E+00 5.50321E-02 7.45212E-02
 -1      5450 1.89253E+02 2.45805E+00-7.22027E-02 3.86580E+00-3.45906E-02 7.41080E-02
 -1      5451 1.87954E+02 3.81838E+00-3.29640E-01 2.57753E+00 2.36470E-02 6.03728E-02
 -1      5452 1.78230E+02 1.49918E+01-1.84575E+00 4.05852E+00-4.64512E-01-8.96533E-01
 -1      5453 1.79753E+02 1.56458E+01-1.57871E+00 5.28747E+00-3.19481E-02 1.00745E-01
 -1      5454 1.88781E+02-6.95664E-01-3.59469E-02-7.66375E+00-2.87572E-02 2.31413E-02
 -1      5455 1.88569E+02-7.08496E-01-4.36405E-02-7.70429E+00-8.89083E-02 1.59251E-02
 -1      5456 1.56121E+02 3.35517E-01-2.38258E-02 1.89221E+01 7.57234E-01-6.06572E-01
 -1      5457 1.76891E+02 2.66830E-01-8.82345E-02 2.17105E+01 7.85155E-02-6.72170E-01
 -1      5458 1.83109E+02 8.58699E+00-3.42533E-01-2.77113E-01 9.98016E-03-2.92544E-01
 -1      5459-5.74887E-05 7.88513E-05 1.74735E-05 2.82418E-05-1.13808E-06 1.80426E-06
 -1      5460-2.86737E-05 6.94533E-05 2.77154E-05 4.39505E-05 7.98022E-08-1.22453E-05
 -1      5461-6.90167E-05 7.95030E-05 2.67197E-05 1.01970E-05-2.26448E-06-5.52268E-06
 -1      5462 1.88935E+02 3.81880E-01 6.74419E-02-7.00971E+00 2.93697E-02-7.57657E-02
 -1      5463 1.90039E+02 5.98966E-01-6.74800E-03-6.47420E+00 1.74262E-02 1.06964E-02
 -1      5464 1.95312E+02-5.79954E+00-4.27488E-01-2.05339E+01-9.40752E-02-1.01882E-01
 -1      5465 1.86320E+02-2.80055E+00-4.82946E-01-1.61812E+01 6.97619E-02-2.47549E-01
 -1      5466 1.00671E+02-1.06848E+01 4.14824E+00-1.39473E+01-3.00476E+00-4.25652E+00
 -1      5467 1.13270E+02 1.11817E+01 1.25649E+00-1.29776E+01 1.87198E+00-6.93270E-01
 -1      5468 1.90173E+02 6.78130E-01 3.16631E-02-6.49408E+00-4.12779E-02 2.75477E-02
 -1      5469 1.88650E+02 2.59407E-01-2.99337E-01-7.17111E+00-2.43323E-03-1.02788E-01
 -1      5470 1.88716E+02 2.15368E+00-8.12194E-02-6.51761E+00 1.68928E-02-8.89584E-02
 -1      5471-3.66966E-01-1.78286E-02 2.79480E-02 1.65890E-01-2.00379E-02 5.23853E-02
 -1      5472-4.09539E-01-1.22595E-02-1.36621E-02 9.80670E-02-3.34893E-02 7.43442E-02
 -1      5473-2.95321E-02 1.73946E-01 6.90995E-02 5.71234E-02 6.61363E-03 3.14428E-03
 -1      5474 9.23666E-01 1.82416E+00 4.01460E-02-1.70169E+00 4.91790E-03-3.40359E-04
 -1      5475 1.17108E+00 1.74383E+00 1.41915E-02-1.81733E+00-3.18597E-04-3.38744E-03
 -1      5476 1.34177E+00 1.72805E+00 5.57428E-02-1.88340E+00-3.81487E-03-1.33591E-03
 -1      5477 1.86841E+02-2.90498E+00-3.23629E-01-1.60515E+01-5.48819E-03-1.09109E-01
 -1      5478 1.83171E+02-2.00679E+00-2.87031E-01-9.94730E+00-8.71300E-04-6.33297E-02
 -1      5479 1.63268E+02-9.46644E-01-2.86989E-01-1.68188E+01-1.86804E-01 1.80920E-01
 -1      5480 1.89866E+02-3.69734E+00-1.79054E-01-2.43021E+01 2.16657E-01 6.46560E-03
 -1      5481 1.77993E+02-3.10054E+00-1.69274E+00-1.69258E+01 1.37025E-01 4.10358E-01
 -1      5482 1.73083E+02 1.44174E+00-1.12655E+00-2.24007E+01 2.61531E-01 2.26101E-01
 -1      5483 1.84884E+02-4.62333E-01-2.16790E+00-3.11952E+01 1.26692E+00 2.91236E-01
 -1      5484 1.52253E+01-6.12904E+00 4.31980E-01-1.03720E+00-2.32142E-01-1.29724E-01
 -1      5485 8.74998E+00-5.59909E+00 1.88971E-01-8.45866E+00-3.28501E-01 8.82348E-02
 -1      5486 1.10480E+01-5.07396E+00-1.86518E-02-3.85635E+00-2.11570E-01 5.56793E-02
 -1      5487 1.24039E+01-1.19897E+00-2.03812E-02 8.06615E-01-8.09406E-02 1.15125E-02
 -1      5488 1.06247E+01-2.85928E+00 1.27256E-01-2.41370E+00-7.60146E-02-5.84699E-02
 -1      5489 1.23683E+01-1.19161E+00-2.28942E-02 8.12006E-01 8.05159E-02-2.25502E-02
 -1      5490 1.05978E+01-2.84728E+00 1.01074E-01-2.38831E+00 7.68128E-02 4.50626E-02
 -1      5491-1.92726E+00 3.02397E+00 9.28702E-02 3.19255E+00 6.08936E-02-8.38069E-02
 -1      5492 7.45528E-01 1.80712E+00 4.69317E-03 3.05946E+00 6.31456E-02-3.24686E-02
 -1      5493 7.41160E-05 2.28358E+00 9.93721E-02 2.31861E+00 4.20506E-02-2.97141E-02
 -1      5494 1.91577E+02 4.83547E+00-6.87550E-01-1.08702E+01-3.54978E-01 1.60158E+00
 -1      5495 1.16182E+00 6.97206E-01 4.96626E-02-7.33919E-01-2.10200E-01 8.85717E-02
 -1      5496 6.57878E+01 3.21631E+01-5.43671E+00-5.00718E+01-6.59701E+00 1.63713E+00
 -1      5497 1.40713E+01 5.64601E-02 1.84877E-01 4.11758E+00-1.39883E-02-9.47549E-02
 -1      5498 1.43748E+01 1.16080E+00 1.24850E-01 5.62116E+00-2.27970E-02-1.41277E-01
 -1      5499 1.43637E+01 1.14915E+00 1.29405E-01 5.60123E+00 3.21350E-02 1.50970E-01
 -1      5500 1.40529E+01 6.14341E-02 1.92050E-01 4.09395E+00 6.59051E-03 1.00916E-01
 -1      5501 2.83755E+01-1.46064E+01 1.90408E+00-7.62975E-01 5.08541E-01 3.85754E-01
 -1      5502 3.31584E+01-1.62197E+01 3.21597E+00-2.68287E+00-5.63240E-01-7.07956E-01
 -1      5503 3.19573E+01-1.38106E+01 1.43142E+00-5.93468E+00 1.27793E-01 8.01037E-01
 -1      5504 3.61752E+01-1.53300E+01 1.85276E+00-7.93565E+00-4.78320E-01-8.07008E-01
 -1      5505 1.58771E+02 9.20607E+00-9.32659E-01 3.14045E+00 9.28917E-01 1.25387E+00
 -1      5506 1.60908E+02 1.19590E+01-1.64565E+00 9.10846E-01 1.40144E+00 1.10009E+00
 -1      5507 1.57021E+02 1.16258E+01-5.18836E-01 5.49188E-01 4.64991E-01 6.16436E-01
 -1      5508 1.67777E+02 1.14651E+01-6.17235E-01 4.27642E+00 3.65653E-01 1.83024E+00
 -1      5509 1.70049E+02 1.47384E+01-8.04427E-01 3.11569E+00 3.64588E-01 1.57372E+00
 -1      5510 2.21691E+01-7.33819E+00 9.13989E-01-5.70108E+00-2.20442E-01-5.09902E-01
 -1      5511 3.50019E+01-2.26599E+01 8.25155E-01-5.14839E-01-1.07052E+00-3.84101E-01
 -1      5512 2.41166E+01-5.61072E+00 3.74143E-01-9.77269E+00-1.09458E-02-5.14075E-01
 -1      5513 1.64350E+02 1.54573E+01-1.63191E+00 1.96065E+00 1.19694E+00 2.38999E-02
 -1      5514-2.48636E-01 1.21171E+00 3.92932E-02 1.18346E-02 4.71799E-03 2.31650E-02
 -1      5515-1.79035E-01 6.18983E-01 2.91032E-02 8.86724E-02 2.56827E-03 3.43657E-02
 -1      5516-2.97819E-01 1.18216E+00 4.41290E-03-3.70580E-02-1.69757E-03 1.76774E-02
 -1      5517 1.12889E+01-1.14054E+00 3.50994E-01-6.05000E-01 9.46758E-03-2.00095E-03
 -1      5518 1.98079E+01 1.06104E+01 3.89490E-01 1.55772E+01-4.18900E-01-5.37218E-01
 -1      5519 1.70392E+02 1.23835E+01-3.16264E-01 4.68708E+00-1.92070E-01-1.45868E+00
 -1      5520-2.60859E-01-2.81217E-02 1.15543E-02 1.86508E-01-2.20352E-02 4.64880E-02
 -1      5521 1.78970E+01-1.05219E+01 7.09831E-01 2.78532E+00 2.02146E-01 3.44144E-01
 -1      5522 1.39344E+01-7.89702E+00 8.71120E-01 6.69464E+00 2.43396E-01 7.07113E-02
 -1      5523 1.91381E+02 3.06865E+00-1.27414E+00 1.13932E+01-1.35629E-01-1.68695E+00
 -1      5524 1.91343E+02 1.39765E+00-1.67690E+00 9.74638E+00-4.43579E-01-1.16975E+00
 -1      5525-5.75287E-01 1.06194E+00 2.43823E-02-3.22820E-01-1.31164E-03 3.02146E-02
 -1      5526-5.61243E-01 1.31828E+00 8.77102E-02-1.24902E-01-4.02819E-04 2.05395E-02
 -1      5527 8.94481E-02 1.23238E+00-4.99757E-02-5.25001E-01-1.04137E-01 6.31931E-02
 -1      5528 1.92134E+01 4.85803E+00 6.84991E-01 1.41603E+01 3.37067E-01-1.67419E-01
 -1      5529 3.64894E+01 2.89673E+00 1.12969E-03 2.04466E+01 1.32341E+00-1.16590E+00
 -1      5530-7.70528E+00 1.19592E+01-3.83508E+00 3.34808E+01 8.78192E-01 1.45838E+00
 -1      5531 5.02714E+00 1.28918E+01 2.01839E+00 1.89615E+01 1.94357E-01 1.45945E+00
 -1      5532-1.14003E+01 1.89562E+01-6.50033E-01 2.28503E+01-3.35121E-01 4.09701E-01
 -1      5533 1.51452E+02 1.85696E+01-4.27128E+00 9.02867E+00-1.65472E+00 5.30022E-01
 -1      5534 1.62952E+02 2.67872E+01 2.23302E+00 7.16639E+00 2.73115E-01-7.33421E-01
 -1      5535-1.35335E-01 2.19262E+00 1.00636E-02 2.30137E+00-5.24932E-02 4.15052E-02
 -1      5536 9.31848E+01 1.22200E+01 1.29689E+00 2.36038E+01-3.44374E+00 5.02692E-01
 -1      5537 1.14598E+02 1.57749E+01 1.12771E+00 2.24380E+01-3.43084E+00-1.26675E+00
 -1      5538 2.92684E+02 9.66304E+00 5.52482E+00-3.84104E+00 1.87308E+00-3.44584E+00
 -1      5539 2.62242E+02-1.75642E+01-2.61647E-01 1.78561E-01 3.73217E-01-3.78809E+00
 -1      5540 2.49276E+02-1.21741E+01-6.07219E-01-2.55966E+01 1.65945E-02-4.68642E+00
 -1      5541 3.10644E+00 1.27242E+00 1.07183E-01-2.55803E+00-9.56695E-05-2.97629E-05
 -1      5542 9.29310E-01 1.50401E+00 2.81750E-01-1.01933E+00-7.41625E-02 1.43883E-03
 -1      5543 1.30261E+02 1.12384E+01 2.02633E+01-1.51497E+01-1.91213E+00-6.91253E+00
 -1      5544 1.86725E+02-7.71339E-01-4.66889E-01 1.00836E+01 3.27735E-02 2.66469E-01
 -1      5545 1.88438E+02-5.89430E-01-8.23745E-02 8.44189E+00 1.51865E-01 1.42186E-01
 -1      5546 1.91237E+02-1.67298E+00 1.05331E-02 8.57892E+00 2.32515E-01 1.69950E-02
 -1      5547 1.90282E+02-4.61332E-01 4.90160E-01 7.67817E+00 8.74452E-02-1.65597E-01
 -1      5548 1.60171E+02 1.84036E+01-1.06492E+00 3.95680E+00 6.82000E-02-1.30644E-01
 -1      5549 1.58930E+02 2.10274E+01-8.67818E-02 8.64339E+00 7.12763E-01-7.08861E-01
 -1      5550 1.62902E+02 2.48898E+01-8.79654E-01 8.78122E+00 5.47262E-01-6.73681E-01
 -1      5551 1.49510E+02 8.50853E+00-6.89665E-01-5.46872E+00 1.03605E+00 7.01708E-01
 -1      5552 1.36731E+02 1.02743E+01-9.09024E-01-9.46563E+00 1.14621E+00 1.09879E-01
 -1      5553 1.24437E+02 7.82350E+00-2.63924E-01-1.27636E+01 1.08001E+00 4.29409E-01
 -1      5554 1.45101E+02 1.15804E+01-7.15149E-01-1.37376E+01 1.51465E+00-9.42011E-01
 -1      5555 1.29981E+02 1.03579E+01-1.73508E+00-1.63110E+01 1.26045E+00-1.62436E+00
 -1      5556 1.57903E+02 1.95416E+01 6.09632E-02-9.47868E+00 1.51607E+00-2.43776E-01
 -1      5557-5.32196E-02 7.67146E-01-8.82518E-02-4.78131E-01-5.86129E-02 6.00472E-02
 -1      5558 2.08372E-01-7.40106E-02-1.20777E-02 5.91827E-02-1.73440E-03-8.37190E-03
 -1      5559 2.84468E-01-3.41370E-02 2.13072E-03-3.22111E-02 9.73676E-03-9.85782E-03
 -1      5560 3.22425E-01 1.18562E-01 1.36055E-02-1.27713E-02-9.01810E-03-2.01975E-02
 -1      5561-3.53134E-03-1.20058E-03 1.62798E-03 7.65739E-04-5.61036E-04-5.31028E-04
 -1      5562 2.57865E-03-1.89858E-02 4.41743E-05 1.33851E-02-5.24925E-04-2.79142E-04
 -1      5563 1.62851E+02 1.21774E+01-3.13582E-01-3.04128E+00 3.22091E-03 1.13672E+00
 -1      5564 1.63582E+02 1.71018E+01-2.18817E-01 2.21161E-01 5.69717E-01 6.91375E-01
 -1      5565 1.65741E+02 1.52162E+01-7.97428E-01-1.83486E+00 2.23493E-01 1.04253E+00
 -1      5566-5.22210E-01 1.58357E+00-4.38694E-03 2.74865E-01-1.03109E-02 3.12822E-02
 -1      5567-7.52074E-01 1.33195E+00 2.64865E-02-2.58933E-01-1.64371E-02 4.70938E-02
 -1      5568-6.29300E-01 1.59367E+00 1.46504E-01 6.59923E-02-1.18131E-02 5.15354E-02
 -1      5569-5.27846E-01 1.85066E+00 6.05862E-02 4.93491E-01-2.16686E-03 3.35810E-02
 -1      5570-5.07794E-01 1.61943E+00-2.61236E-02 5.28846E-01-4.79751E-03 1.07214E-04
 -1      5571 1.09785E+02 4.62135E+01 1.65715E-01 5.59548E+01-6.50788E+00-6.37744E+00
 -1      5572 1.71550E+02 4.08240E+01 7.12619E+00 2.33472E+01-1.90029E-01-2.68629E+00
 -1      5573 1.89217E+02 3.01378E+00-3.80389E-01 7.81377E+00 1.70150E-01 3.85269E-01
 -1      5574 2.86560E+00 1.33964E+00 2.19752E-02-2.32233E+00 3.79153E-05 1.36642E-02
 -1      5575 1.48823E+02 1.15237E+01-3.83927E-01 5.89124E+00 1.80162E-01-1.69258E-01
 -1      5576 2.40042E+01 7.34031E+00 6.23420E-01-1.77268E+01-8.24244E-01-5.14763E-01
 -1      5577 1.75774E+02 1.37426E+01-5.76178E-01-1.39806E+00-1.61704E-01-1.29242E+00
 -1      5578 1.94930E+01-8.79380E+00 5.49996E-02 3.16269E+00-3.74664E-01 2.78688E-01
 -1      5579 1.43968E+01 1.83950E+00 7.68216E-02-7.53260E+00 9.64550E-02-1.37914E-01
 -1      5580 1.82190E+02 1.37229E+01-1.65085E+00-1.93764E+01-1.17313E+00 1.33996E+00
 -1      5581 1.76322E+02 2.37657E+01 1.05829E+00-1.48652E+01-9.68775E-01 1.28160E+00
 -1      5582 1.82587E+02 1.42576E+01-2.26874E-01-1.55562E+01-4.81216E-01 1.19685E+00
 -1      5583 1.67624E+02 2.73807E+01 1.66659E+01 5.33826E+00-2.72628E+00 1.27909E+01
 -1      5584 1.79877E+02 3.83610E+01 2.68208E+01 1.63382E+00 1.65054E+00 1.28671E+01
 -1      5585 1.75421E+02 3.57057E+01 3.33172E+01 3.86032E+00-2.37564E+00 1.18062E+01
 -1      5586 1.89591E+02 1.42263E+01 8.49954E+00-4.48137E+00-3.24487E-01 5.84458E-01
 -1      5587 1.88930E+02 5.60182E-01-2.93749E-01-6.67893E+00 5.86226E-02 2.17257E-02
 -1      5588 1.73009E+02 1.33521E+01-7.62311E-01 2.38021E+00-4.21680E-02-1.51803E+00
 -1      5589 1.35527E+02 1.45455E+01 2.04989E+01 1.56626E+01-2.63095E+00 8.21097E+00
 -1      5590 1.00639E+02-1.20848E+01 3.14946E+00 1.40130E+01-2.49671E+00 3.84207E+00
 -1      5591 1.19291E+02 9.79852E+00-2.33550E-01 1.16067E+01 2.37800E+00-5.69745E-01
 -1      5592-6.63995E-01 1.04653E+00 9.46265E-03 3.79478E-01-7.02618E-03-2.75419E-02
 -1      5593-9.24763E+00 2.03238E+01 1.33050E+00 1.68348E+01-2.09322E-01 1.06271E+00
 -1      5594 2.09178E+00 1.16198E+01 1.06125E+00 1.62168E+01-5.17814E-01-3.79314E-01
 -1      5595 1.38877E+01 4.57892E-01-1.73534E+00 6.13835E+00 4.00489E-01-3.49485E-01
 -1      5596 2.12960E+01 4.55065E+00 6.74709E-01 1.36349E+01-2.46100E-01-4.53131E-01
 -1      5597 1.29192E+01 2.47316E+00-4.78363E-01 8.09974E+00-1.60895E-01 7.62922E-01
 -1      5598 2.85300E+01-2.10496E+01-6.40201E-01-1.85890E+00 5.15327E-01-2.78825E-01
 -1      5599-5.75369E-01 1.63825E+00-2.02075E-03-3.01453E-01-1.39870E-02-3.32959E-02
 -1      5600-8.99035E-01 1.42446E+00 1.32099E-02 2.66334E-01-2.58194E-02-4.70360E-02
 -1      5601-5.70841E-01 1.91710E+00 5.94412E-02-5.86117E-01-5.69872E-03-3.22182E-02
 -1      5602-5.91097E-01 2.61382E+00 2.51456E-01-2.55516E+00-5.21113E-02-4.56868E-02
 -1      5603-6.63570E-01 2.60964E+00 2.82016E-01-2.24834E+00 7.08172E-02 2.88612E-02
 -1      5604-1.25117E+00 2.74249E+00 1.94290E-01-1.79026E+00-3.58514E-02-1.79140E-02
 -1      5605-1.31132E+00 2.50675E+00 8.74070E-02-1.50615E+00 2.38299E-02 2.22915E-02
 -1      5606 7.64175E+00-1.70966E-01 4.06862E-02 2.12629E+00 1.94921E-02-1.78715E-02
 -1      5607 4.41463E+01 3.59523E+00 1.55480E+00 1.94062E+01 2.15644E-01-6.71492E-01
 -1      5608 5.92697E+01-1.99287E+01 3.30584E+00 1.33984E+01 6.91971E-01-1.84024E+00
 -1      5609 4.64881E+01-1.49180E+01 6.06168E+00 1.13494E+01-2.45524E-01-9.50556E-01
 -1      5610 3.39744E+01-3.10725E+00 1.44539E+00 1.64871E+01-1.87103E-01-9.17352E-01
 -1      5611 1.88375E+02 3.70156E+00-1.54791E-03 1.66905E+00 1.85135E-02 2.89136E-02
 -1      5612 1.86879E+02 5.09576E+00-2.21158E-01 5.28106E-01 1.46783E-03 1.67342E-01
 -1      5613 2.48707E+00 1.01898E+01 4.98824E-01 1.48585E+01 3.15420E-01 3.02932E-01
 -1      5614-1.18922E+01 1.85231E+01 7.27930E-01 1.65890E+01 8.26818E-01-1.69216E+00
 -1      5615 1.11461E+01 2.76439E+00 1.31979E-02 8.73769E+00 1.97218E-01-4.10369E-01
 -1      5616 1.68646E+02 8.86107E+00 1.14586E+00-5.84422E+00-1.18507E+00 2.02669E+00
 -1      5617 1.76025E+02 1.07515E+01 8.07847E-01-5.39920E+00-8.49560E-01 2.68297E+00
 -1      5618 1.70419E+02 1.30086E+01-1.43296E+00-4.60054E+00-6.58289E-01 1.94655E+00
 -1      5619 7.06978E+01 2.66276E+00 2.55952E+00 2.40214E+01-8.03949E-02-5.25485E-01
 -1      5620 2.65804E+01 1.09606E+01 1.56161E+00 2.43944E+01 3.43249E-01 1.28578E+00
 -1      5621 1.71382E+02 2.70535E+01 6.36104E-01-1.40127E+01 1.93926E+00-1.28368E+00
 -1      5622-1.44512E+00 2.47082E+00 1.23472E-01-8.59465E-01 4.67103E-02 8.77419E-03
 -1      5623-1.19523E+00 2.17213E+00 1.25378E-01-4.12210E-01-9.39558E-03-3.02746E-02
 -1      5624-9.10814E-01 2.32193E+00 1.55718E-01-9.66192E-01-3.90979E-02-8.69342E-03
 -1      5625-1.91366E-01 1.88011E+00-8.40834E-03-1.43004E+00-2.84871E-03 2.27851E-02
 -1      5626 1.21217E+01-1.19032E+00 4.46648E-02-6.28071E-01-1.59181E-02 2.55153E-03
 -1      5627 1.11777E+01-1.25500E+00 4.85539E-02 4.06545E-01 2.52581E-02 1.62788E-02
 -1      5628 1.26615E+01-1.80341E+00 1.80079E-01-6.03574E-01-6.13082E-03-2.45607E-02
 -1      5629 1.89321E+02 2.37610E+00-1.64833E-01 1.92424E+00-2.22613E-02-6.64302E-02
 -1      5630-4.15160E-05 8.93751E-05 8.87960E-06 1.22208E-05-7.22974E-06-1.26179E-05
 -1      5631-4.62908E-05 8.58402E-05 1.44786E-05-1.71683E-06-8.95472E-06-1.25575E-05
 -1      5632-2.12018E-05 8.18889E-05 1.50937E-05 3.13336E-05-3.54967E-06-9.70196E-06
 -1      5633-8.48327E-02 1.62895E+00-4.85890E-04-2.81571E-01 3.28437E-03-3.88722E-04
 -1      5634-1.22080E-01 1.60475E+00-1.86996E-03-1.39008E-01 7.29846E-04 7.72405E-05
 -1      5635-2.64126E-01 1.43831E+00 1.22366E-02-1.16575E-01-5.88823E-04 8.33942E-03
 -1      5636-3.26814E-03-1.19120E-03 1.67561E-03 1.12087E-03 1.65512E-04 1.03266E-03
 -1      5637 2.06512E+00 1.55230E+00 6.04142E-03 2.12949E+00 1.48637E-02-1.64602E-03
 -1      5638 1.47464E+00 1.70417E+00 7.18230E-03 1.92404E+00 1.75703E-03 3.34187E-03
 -1      5639 5.52088E-01 1.97960E+00 4.55181E-02 2.07003E+00 6.52977E-03-2.01274E-02
 -1      5640 1.26061E+00 1.72400E+00 4.45622E-02 1.87983E+00-1.12168E-02-3.62434E-03
 -1      5641 1.74348E+00 1.55542E+00 2.19759E-02 2.07489E+00 2.06540E-02-6.26478E-03
 -1      5642 2.06219E+00 1.55394E+00 7.25421E-03 2.13268E+00-1.72049E-02 4.45093E-03
 -1      5643 1.46760E+00 1.70812E+00 3.32024E-03 1.92830E+00-4.76826E-03 1.49454E-03
 -1      5644 1.25394E+00 1.72767E+00 3.85396E-02 1.88017E+00 9.89881E-03 3.87621E-03
 -1      5645 5.19748E-01 1.98357E+00 3.61292E-02 2.07657E+00-8.81680E-03 3.66536E-02
 -1      5646 1.81296E+02 1.34003E+01-1.13810E+00 6.92061E+00 1.48422E-01 1.65306E-01
 -1      5647 1.84364E+02 9.64684E+00-9.26831E-01 7.11969E+00-2.23341E-01-2.81131E-01
 -1      5648 5.73984E-02-7.69411E-02 1.85860E-03-4.08173E-02 2.58626E-04 2.15940E-05
 -1      5649 1.50098E+02 8.88415E-02-1.79220E+00-1.59688E+01-3.27264E-01-2.79167E-01
 -1      5650 1.58524E+02 2.55389E+00-4.06331E+00-2.13933E+01 1.24786E-02-9.00660E-02
 -1      5651-4.99261E-01 1.71742E+00 5.49049E-02-3.08036E-01 1.86419E-02 2.42546E-02
 -1      5652-1.20695E+00 1.80270E+00 5.27090E-02 1.57323E-01 8.34343E-03 5.59980E-02
 -1      5653-6.66726E-01 1.82377E+00-1.18996E-02-5.75375E-01 1.66923E-02 2.69335E-02
 -1      5654 1.85066E+02 9.43980E+00-4.67181E-01-1.36996E+01 8.77186E-01-1.12833E+00
 -1      5655 2.00361E+02-6.99369E+00-6.87640E-02 1.63155E+01-1.95616E-01 2.17474E-01
 -1      5656 1.82523E+02 3.56357E+01 3.19041E+01 1.09870E+00 8.31704E-01-7.95407E+00
 -1      5657 1.82584E+02 4.40938E+01 4.36771E+01-6.70375E-01 1.60329E+00-1.10824E+01
 -1      5658 1.81906E+02 1.29835E+01-1.44338E+00-2.69951E+00-1.82942E-01-9.69954E-02
 -1      5659 1.78338E+02 1.43541E+01-1.54953E+00-3.57621E+00 1.54819E-01 7.28981E-01
 -1      5660 1.55570E+02 1.22784E+01-1.05528E-01-3.17033E+00 2.76857E-01-5.54461E-01
 -1      5661 1.52490E+02 1.73402E+01-8.10457E-01-1.09894E+01 3.25318E-01-1.80936E+00
 -1      5662 1.53717E+00 1.69803E+00 9.56270E-03-1.96004E+00-3.84522E-03-1.07283E-03
 -1      5663 2.11125E+00 1.53332E+00 9.14192E-03-2.15157E+00-9.43941E-03-1.59822E-03
 -1      5664 5.48513E-01 1.97294E+00 2.00741E-02-2.06650E+00-7.70459E-03-2.59470E-02
 -1      5665 1.33590E+00 1.72516E+00 4.12626E-02-1.88532E+00 7.88614E-04-5.29813E-03
 -1      5666 1.90690E+02 1.20596E+01 7.28832E-01-4.74068E-01-1.61368E-02-8.15948E-01
 -1      5667 1.89354E+02 1.15352E+01 7.80399E-03 1.05676E+00-7.94160E-02 1.28369E+00
 -1      5668 1.25942E+01-9.19183E-01 1.51595E-01-1.11107E+00 1.75392E-02 6.18766E-04
 -1      5669-3.19186E+00 8.68479E+00-5.43389E+00-3.92283E+01-3.04152E+00 2.17516E+00
 -1      5670-1.27703E+01 1.61985E+01-3.47211E+00-2.75280E+01-7.43446E-01-1.79194E-01
 -1      5671 1.89397E+01 6.90838E+00-1.06385E+00-2.82153E+01-6.07724E-01-6.65464E-03
 -1      5672 3.28161E+01 4.61328E+00 2.56989E+00-1.86557E+01-2.74150E-01 1.92706E-01
 -1      5673 5.22998E+01 1.68865E+00 2.49965E+00-2.34731E+01-8.89002E-01 1.00618E-01
 -1      5674-3.81433E-05 7.74511E-05 1.65082E-05-5.66297E-06-7.54641E-06-3.80189E-06
 -1      5675 1.09363E-05 8.53167E-05 3.15862E-05 3.24370E-05 2.80648E-06-9.94720E-06
 -1      5676 3.17016E-01 1.62056E-01-7.05337E-03-7.43595E-02-6.41506E-03-1.10087E-02
 -1      5677 4.86408E-05 3.82256E-05 2.01034E-05 7.35439E-05-4.82156E-06-1.17055E-05
 -1      5678-1.17304E-05 7.81034E-05 1.49792E-05 4.49205E-05-6.46473E-06-1.13975E-05
 -1      5679-1.13058E-05 4.61266E-05 2.40226E-06 4.80241E-05-9.20154E-06-3.08676E-06
 -1      5680-1.89693E-02-2.32439E-02 5.48733E-03-4.20872E-02 6.98148E-04 1.02534E-03
 -1      5681-1.66452E-02-2.48099E-02 5.86925E-03-3.90893E-02 9.89138E-04 3.09974E-04
 -1      5682-2.04433E-02-1.07673E-02 1.34167E-03-1.34243E-02-1.66802E-04 2.13520E-04
 -1      5683-2.47414E-02-8.56464E-03 2.82517E-03-1.89592E-02-7.32138E-05 1.44732E-03
 -1      5684-2.16640E-02-6.00023E-03 4.45718E-03-1.83566E-02-9.75396E-04-2.09260E-03
 -1      5685 4.02750E+00-2.64602E+00-6.59301E-02-8.61103E+00-8.60641E-02-6.54050E-02
 -1      5686 3.08815E-01 1.81941E+00-5.20511E-03-1.06373E+00-2.14741E-03-3.57038E-03
 -1      5687-2.21517E-01 1.95236E+00 3.64162E-02-1.01964E+00 1.50801E-03-1.56380E-02
 -1      5688 1.86343E+02 5.84638E+00-3.08857E-01-3.54094E-01 7.60874E-03 1.06674E-01
 -1      5689 2.01048E+02-8.16907E+00-2.58526E-01-7.56419E+00 1.15078E-01 7.72156E-03
 -1      5690 1.95656E+02-5.10048E+00-8.18149E-02-1.14434E+01-2.54921E-01 7.61152E-02
 -1      5691 1.49693E+02-2.32845E-01-5.15903E+00 2.88405E+01-1.67483E+00-1.84701E+00
 -1      5692 1.52670E+02-4.30578E-02-1.76392E+00 2.77411E+01-2.47067E+00 1.33938E+00
 -1      5693 1.51928E+02-6.33714E+00 8.71900E-01 2.43955E+01-1.00862E-01 2.68097E+00
 -1      5694 3.95752E-02-5.77092E-02 2.80583E-03 3.77979E-02-5.79938E-04 1.10798E-03
 -1      5695 1.77647E+02 1.14196E+01-9.48673E-01 1.62405E+00 5.97154E-02-1.45549E+00
 -1      5696 1.76407E+02 1.01158E+01-6.59287E-01-3.34456E+00 1.86414E-01-2.14681E+00
 -1      5697 1.90333E+02 1.31253E+00-5.31853E-02 1.85450E+00-1.54143E-02-1.26728E-02
 -1      5698 1.66417E+01 6.13685E+00 8.62523E-01-1.30589E+01-1.73798E-01-5.73835E-01
 -1      5699 9.80866E+00 5.50045E+00-4.00985E-01-1.04157E+01 4.30806E-01-2.93539E-01
 -1      5700 2.10973E+00 1.53359E+00 6.13598E-03-2.15301E+00 9.87839E-03 3.88077E-03
 -1      5701 1.53375E+00 1.69878E+00 9.16323E-03-1.95823E+00 3.86372E-03-5.97973E-04
 -1      5702 5.42636E-01 1.96387E+00 4.01845E-02-2.06375E+00 6.80724E-03 2.64460E-02
 -1      5703-1.07961E-01 1.58244E+00 1.73432E-02-2.46789E-01 1.76190E-03-4.32585E-04
 -1      5704 1.54241E+00 1.71476E+00 8.57672E-02 1.99858E+00-2.26964E-03-2.36485E-04
 -1      5705 1.72201E+02 1.10930E+01-1.08143E+00 5.03731E+00 2.51035E-01 2.15334E+00
 -1      5706 1.71455E+02 9.25702E+00 1.00688E-01 5.18243E+00 1.07691E+00 2.83734E+00
 -1      5707-1.76414E+00 4.90486E+00-5.27454E-02 1.04008E+00-1.21572E-01-1.18895E-01
 -1      5708 5.57629E-01 1.68075E+00-5.33656E-03 1.47226E+00-1.23001E-01 1.79384E-02
 -1      5709-2.12779E+00 4.94559E+00-9.68570E-02 8.96177E-01-4.15466E-03 1.02310E-01
 -1      5710 1.38303E+01-1.21540E+01-2.70939E-01-8.56186E+00-2.30398E-01-9.68085E-02
 -1      5711-1.91986E-01 5.84730E-01-6.01866E-03-1.04451E-01 1.19751E-02-3.82849E-02
 -1      5712-6.72755E-01 1.15951E+00 2.59543E-02-3.10370E-01 7.53685E-03-3.78730E-02
 -1      5713-6.37681E-01 1.41587E+00 9.59730E-02-1.07550E-01 1.51968E-02-2.53165E-02
 -1      5714-6.83432E-01 2.07852E+00 2.52913E-03-9.91543E-01-3.06861E-02-3.05441E-02
 -1      5715-1.52688E+00 2.30851E+00 3.39967E-02-3.55912E-01-5.57273E-02-5.74623E-02
 -1      5716-2.82177E-01 2.20308E+00 6.03608E-02-1.51885E+00-9.73038E-03-4.31291E-02
 -1      5717 2.24864E+00-2.28826E-01 4.88708E-02-7.32226E+00 2.58513E-01 5.39282E-02
 -1      5718 7.77876E+00-2.08774E+00 1.74146E-01-4.47550E+00 1.12193E-01 5.62305E-02
 -1      5719 4.96291E+00-6.41015E-01 5.63702E-02-4.87999E+00 1.11363E-01 4.04728E-03
 -1      5720 1.88838E+02 9.04133E-02-2.17527E-01-6.64797E+00 3.49471E-03 9.37787E-02
 -1      5721 1.86468E-05 6.68981E-05 2.63519E-05 4.32562E-05 2.99642E-06-2.42418E-06
 -1      5722 1.58831E+00-1.17272E-01-1.52337E-01 6.93506E+00-2.03568E-01 7.22644E-02
 -1      5723-1.44521E-05 7.73835E-05 1.90705E-05 2.00277E-05-1.00434E-05 2.27923E-06
 -1      5724-8.18925E-06 8.82491E-05 1.74338E-05-9.71289E-06-9.45014E-06 1.18411E-06
 -1      5725-9.37473E-06 8.20667E-05 1.44831E-05-2.65095E-06-8.07059E-06-2.64034E-06
 -1      5726 1.88974E+02 4.91634E-01 1.63395E-02-6.95599E+00 4.43894E-02 9.92851E-02
 -1      5727 1.88203E+02 2.57812E+00-3.57638E-01-8.31012E+00-1.74142E-01 6.93682E-01
 -1      5728 1.88077E+02 2.50376E+00-4.58129E-01-7.67671E+00-7.84835E-02 2.50183E-01
 -1      5729 1.88488E+02 3.11031E+00-2.45047E-01-7.31727E+00-1.52657E-01 2.75869E-01
 -1      5730 9.98712E-01 1.77866E+00 7.08230E-03-1.57103E+00 7.75708E-03-4.86343E-03
 -1      5731 4.55746E-01 1.78194E+00 1.38824E-02-1.26721E+00 2.22426E-03 1.16833E-02
 -1      5732 4.10119E-02 1.89001E+00-9.31266E-03-1.27476E+00-1.96766E-03 1.40259E-02
 -1      5733 4.87005E-01 1.93193E+00 4.26645E-02-1.78365E+00 7.14810E-03 8.07695E-03
 -1      5734 9.45608E-01 1.77085E+00 7.00050E-03-1.53566E+00-9.22231E-03 3.58378E-03
 -1      5735 3.00193E-02 1.88623E+00 1.11200E-02-1.28866E+00-6.95930E-03-1.06463E-02
 -1      5736 4.16781E-01 1.78704E+00 2.20199E-02-1.23041E+00-6.26581E-03-2.22328E-03
 -1      5737 8.61632E-01 1.82671E+00 3.47324E-02-1.66505E+00 2.25681E-03-7.41768E-03
 -1      5738 4.83062E-01 1.93323E+00 3.04830E-02-1.78066E+00-1.21521E-04-1.40170E-02
 -1      5739-4.94812E-01 1.58730E+00 9.95410E-03 2.74274E-01 8.74961E-03-2.76441E-02
 -1      5740 1.88287E+02 4.73853E+00-4.34061E-01-1.02906E+01 1.43322E-01-5.91425E-01
 -1      5741 1.88517E+02 1.31518E+00-2.06170E-01-8.20102E+00-6.30894E-02-3.60592E-01
 -1      5742 1.87894E+02 4.17751E+00-3.64925E-02-7.80717E+00-1.28715E-01-2.50557E-01
 -1      5743 1.67244E+02 2.04258E+01-4.95415E-01 3.67784E+00 1.07527E-02 2.78970E-01
 -1      5744 2.23776E+01-1.67073E+01-2.26386E-01 4.51577E+00-5.61331E-01-2.69304E-01
 -1      5745 1.82496E+02 1.20413E+01-1.66960E+00-1.93530E+00-1.24821E-01-1.90530E+00
 -1      5746 1.58056E+02 2.20520E+01-6.60123E-01-1.01294E+01 2.17128E-01 1.80681E+00
 -1      5747 1.57136E+02 1.63444E+01-2.58026E-02-9.73673E+00-1.83514E+00 9.01848E-01
 -1      5748 1.54181E+02 1.73229E+01-1.74504E-01-1.03481E+01-6.07771E-01 1.46440E+00
 -1      5749 1.08393E+00 1.69917E+00-2.53845E-02 2.30046E+00 5.27441E-03-2.71721E-02
 -1      5750-7.74185E-01 1.67695E+00 1.19614E-01 1.02003E-01 1.60724E-02-6.91887E-03
 -1      5751-7.82927E-01 1.25104E+00-9.22054E-03 2.74459E-01 7.65272E-03 4.16914E-02
 -1      5752-1.30785E+01 1.43483E+01-2.83209E+00 2.33248E+01-3.21050E-02-8.10364E-01
 -1      5753-1.06688E-05 6.72571E-05 3.33194E-06-2.37045E-05-7.51894E-06-3.10438E-06
 -1      5754-6.39415E-06 7.91211E-05 1.11344E-05-1.66076E-05-8.43805E-06 8.02064E-07
 -1      5755-1.39207E-05 9.14655E-05 1.98472E-05 5.38548E-07-6.19278E-06 1.83650E-06
 -1      5756-3.27362E-06 9.72500E-05 1.92104E-05-1.20941E-05-1.26389E-05 6.15514E-07
 -1      5757-1.45031E+01 1.74349E+01-1.41447E+00-2.31449E+01-2.72581E-01 1.18798E+00
 -1      5758 1.91045E+02 5.83806E-01-5.82493E-02 3.97265E+00-3.16048E-02-2.31598E-02
 -1      5759 2.44587E+02-1.24828E+01 1.45340E+00-1.54386E+01 9.30953E-01-2.34879E+00
 -1      5760 2.12054E+02-1.21572E+01-2.88375E-01-2.55337E+01 1.48802E+00-1.48412E+00
 -1      5761 2.14065E+02-6.86755E+00-1.55522E+00-3.76719E+01 1.82783E+00-1.87150E+00
 -1      5762 1.69913E+02 1.58816E+01-1.63297E+00-2.90026E+00 3.22318E-01 1.23834E+00
 -1      5763 1.59083E+02 1.35898E+01-1.31336E+00 2.12557E+00-1.00452E+00 1.10363E+00
 -1      5764 1.68935E+02 2.22261E+01 7.79743E-01 4.29255E+00-4.18843E-02-3.15065E-01
 -1      5765 9.69920E+00-7.01325E+00-2.56124E-02-8.61045E+00 4.00192E-01-2.82333E-02
 -1      5766 1.42762E+01-1.15625E+01-1.39225E-01-8.52129E+00 2.49276E-01 7.05538E-02
 -1      5767 1.51272E+01-6.01281E+00 4.06518E-01-8.99694E-01 2.57119E-01 4.23558E-02
 -1      5768-1.14261E-01-3.43309E-02 1.39081E-02 1.14907E-01 8.45868E-03-2.02314E-02
 -1      5769 6.44685E-02-9.52380E-02-5.87049E-03 1.15911E-01-3.30143E-03-3.32714E-03
 -1      5770-4.94841E-02-1.95345E-02 3.71189E-03-4.67588E-02-1.85216E-03 2.44248E-03
 -1      5771-9.40426E-02-2.27689E-02 2.15241E-03-6.44524E-02-4.15582E-03 9.82727E-03
 -1      5772 5.17748E-03-5.04673E-02 1.57433E-04-7.04321E-02-9.26011E-04 2.03603E-03
 -1      5773 1.70870E+02 9.67325E+00 2.00445E+00 6.60635E+00-1.17862E+00-9.71914E-01
 -1      5774 1.82842E+02 1.29931E+01 6.32007E-02-5.15598E+00-4.72941E-01 1.52470E+00
 -1      5775 1.80204E+02 8.72359E+00-5.14439E-01-4.53500E+00-4.43922E-01 2.87998E+00
 -1      5776 1.84066E+02 8.16718E+00-1.60115E-01-1.73795E+00 5.99546E-02-2.98243E-01
 -1      5777 1.86803E+02 5.03539E+00-1.12812E-01-2.00230E+00 3.59368E-02-9.71480E-02
 -1      5778 9.39199E+00-1.96060E+00 1.23807E-01-2.58511E+00 1.52652E-02 8.84132E-03
 -1      5779 9.39617E+00-1.94734E+00 1.36029E-01-2.59785E+00-8.79449E-03 2.99259E-03
 -1      5780-9.28485E-02-1.68024E-02 1.33072E-02 6.49786E-02-2.22601E-03 1.64094E-02
 -1      5781 1.89911E-02-6.99888E-02-1.64661E-03 8.25221E-02 7.95674E-04-2.61794E-04
 -1      5782 1.12264E+01-4.76485E+00 1.19624E-01-3.73958E+00 1.76206E-01-7.36838E-02
 -1      5783 1.52001E+02 7.90455E+00 3.84784E-01-2.22371E+00 1.38450E+00 8.77702E-01
 -1      5784 1.50937E+02 7.30876E+00-4.50557E-01-1.57034E+00-1.08832E+00-1.18579E+00
 -1      5785 1.67832E+01 3.68231E+00 7.08516E-01 1.00848E+01 2.80716E-02 3.20203E-02
 -1      5786 1.95238E+02-3.35854E+00 6.63598E-03 1.47619E+00 6.71912E-02 6.29168E-02
 -1      5787 1.94833E+02-3.15707E+00-3.26059E-02-1.73348E+00 3.10588E-02 3.35936E-02
 -1      5788 4.72379E+01-2.21357E+01 2.93196E-01-7.77136E+00-1.44176E+00-8.31310E-01
 -1      5789 1.14755E-06 8.43379E-05 1.61782E-05 3.31036E-05-8.27767E-06-4.68733E-06
 -1      5790-8.42549E-06 9.17395E-05 1.98506E-05-4.92486E-06-7.29679E-06-5.47626E-06
 -1      5791-7.81542E-06 8.43866E-05 1.68846E-05 2.17396E-05-3.81065E-06-1.91463E-06
 -1      5792-1.31175E-05 9.50938E-05 2.01015E-05-8.63684E-06-8.06531E-06-1.07173E-06
 -1      5793 1.24595E-05 3.79943E-05 3.22083E-05 5.95186E-05-7.10046E-06-2.69861E-06
 -1      5794 4.88278E-05 1.05599E-05 2.49598E-05 4.98533E-05 2.46425E-08-6.53791E-06
 -1      5795 2.27923E+01 1.20791E+01 3.67931E+00 2.43740E+01-4.70718E-01 4.71465E-01
 -1      5796-2.32427E-05 9.56318E-05 6.96712E-06 1.76505E-05-1.00746E-06 1.11993E-06
 -1      5797-1.15345E-05 9.04204E-05 1.17127E-05-2.87274E-06-6.93887E-06 2.64170E-06
 -1      5798-2.33715E-05 9.24373E-05 7.36572E-06 4.23763E-06-4.80144E-06-8.85545E-07
 -1      5799-1.22735E-05 8.66532E-05 1.02117E-05-1.65185E-05-8.17065E-06 3.30025E-06
 -1      5800-2.19563E-01 1.53400E-02 4.28041E-02-1.42941E-01 4.77358E-03 2.18030E-02
 -1      5801 4.79345E+01-1.07859E+01 1.68854E+00 1.20718E+01-1.60903E-01 1.45436E+00
 -1      5802 3.57884E+01-1.52637E+01 2.59211E+00 6.84049E+00-8.37751E-01 8.29744E-01
 -1      5803 1.87474E+02 1.21918E+01-1.13805E+00 1.52352E+01 1.59767E+00 1.89443E+00
 -1      5804 1.91402E+02 6.64649E+00-3.27158E-01 1.43654E+01 7.53040E-01 1.71390E+00
 -1      5805 1.92927E+02 3.71325E+00-9.57113E-01 1.10978E+01 1.27816E-01 1.39296E+00
 -1      5806 2.83059E+00 1.35424E+00 2.23213E-02 2.30570E+00 1.24689E-02 1.14491E-02
 -1      5807-1.63422E-05 8.56264E-05 1.34430E-05 1.36948E-05-4.15611E-06 1.21640E-06
 -1      5808-3.69885E-01-2.63649E-01-3.11040E-01-1.17878E-01-1.02822E-01-1.03548E-01
 -1      5809 6.71192E-01 6.37088E-01-2.43356E-01 1.07900E+00-2.41003E-01-2.06771E-02
 -1      5810 2.80810E-01 8.61922E-01 1.36634E-01 5.42854E-01 1.35862E-02 5.91183E-02
 -1      5811 4.41017E-01 9.41832E-01 1.92561E-01 5.54810E-01-3.91008E-02-2.07692E-02
 -1      5812 4.19160E+01-1.91168E+01 3.83679E-01 5.33539E+00 1.53756E+00-2.90698E-01
 -1      5813 6.53274E-01 2.04044E+00 9.99599E-02-2.95969E+00-3.41674E-02-5.41488E-02
 -1      5814-1.97255E+00 2.96544E+00 1.85081E-02-2.11652E+00-8.53150E-02-7.45842E-02
 -1      5815-7.89591E-02 2.19815E+00 2.64668E-02-2.30616E+00-4.43178E-02-3.07805E-02
 -1      5816 9.56117E-04-4.05906E-02 2.79651E-04 5.22580E-02-6.73347E-04-1.55106E-03
 -1      5817 2.24682E-02-7.31428E-02-1.67224E-03 8.77764E-02-7.82235E-03-5.95746E-04
 -1      5818 2.02806E-03-4.13994E-02 6.45343E-04 4.98810E-02-1.16365E-03 1.90468E-03
 -1      5819 2.25165E+01-7.50412E+00 1.04898E+00-5.42057E+00 3.67402E-01 4.91351E-01
 -1      5820 2.97822E+01-2.07372E+01-1.82931E-01 1.44194E+00 4.50884E-01 2.70528E-01
 -1      5821 2.44695E+01-6.44837E+00 1.48749E-01-9.77185E+00 2.33878E-01 3.10252E-01
 -1      5822 7.45150E+00-1.15481E+00 2.67136E-02 3.22275E+00 5.54515E-02-4.05962E-02
 -1      5823-1.54543E-05 7.91392E-05 1.74830E-05-2.10333E-06-5.92825E-06 9.04879E-06
 -1      5824 1.89174E+02-3.72348E-01 5.10938E-02-7.37496E+00 8.17871E-02 1.11843E-01
 -1      5825 5.78889E-01 1.80297E+00-3.45129E-04-1.28389E+00-1.96514E-03-3.26377E-03
 -1      5826 1.46685E+02 7.89382E+00-9.64544E-02 1.50070E+01 1.87079E+00 1.56491E+00
 -1      5827 1.80436E+02 8.48366E+00-1.40215E+00 3.11248E-01-5.94415E-02 1.92808E+00
 -1      5828 1.80289E+02 9.66632E+00-3.59712E-01-2.73552E-02 1.97655E-02 1.02246E+00
 -1      5829 1.78971E+02 2.11098E+01-2.91060E-01 1.25256E+01 8.98532E-01 4.37174E-01
 -1      5830 1.86013E+02 9.97741E+00-9.49290E-01 1.12467E+01-1.68760E-01-2.79669E-02
 -1      5831 1.88835E+02 4.31528E-01 1.37191E-02-7.01608E+00-2.97372E-02 8.84512E-02
 -1      5832 6.16816E-01 2.07092E+00 1.07461E-01-2.98141E+00 2.16109E-02 5.29217E-02
 -1      5833-1.88747E+00 2.94177E+00 4.41059E-02-1.79467E+00 8.16331E-02 4.64453E-02
 -1      5834-1.27945E-01 2.20562E+00 2.48893E-02-2.30008E+00 5.02423E-02 4.65034E-02
 -1      5835-4.14629E-05 6.91393E-05 1.79811E-05-5.14328E-05 6.54235E-06 1.03770E-05
 -1      5836-8.33344E-05 9.23366E-05 1.28265E-05-3.70105E-05-3.44490E-06 2.06922E-05
 -1      5837-1.59008E-05 7.16050E-05 2.68940E-05-7.15980E-05 1.01571E-06 2.08951E-05
 -1      5838 3.28534E-01 1.79690E+00 8.50261E-03 9.57841E-01 1.16859E-03-4.87240E-03
 -1      5839-2.10626E-01 1.80967E+00 1.75692E-02 7.71631E-01-4.52194E-03 1.75738E-03
 -1      5840-2.83704E-03-2.44825E-03 1.34684E-03-8.44594E-04 8.24166E-04-4.04300E-05
 -1      5841 4.38588E-04-1.57553E-03 4.54674E-04 1.13523E-04 1.96908E-04 3.93063E-04
 -1      5842-2.12953E-03-3.07028E-03 1.70415E-03-7.89499E-04-1.21976E-04-2.42729E-04
 -1      5843 1.37381E+01 3.32610E+00 1.63731E-01-8.80166E+00 1.82455E-01-2.04070E-01
 -1      5844 2.17847E+01-1.53166E+01 2.22480E-01-4.59465E+00-3.15979E-01 2.86796E-01
 -1      5845 2.50587E+01-6.48465E+00 1.16723E+00 8.65870E+00-5.07614E-01 1.93628E-01
 -1      5846 6.32727E+01 3.11237E+01-6.72789E+00-5.10167E+01 6.12624E+00-8.55279E-01
 -1      5847 3.24637E+01 2.36441E+01-4.03621E+00-2.94817E+01 4.03129E+00-9.13649E-01
 -1      5848 1.04276E+02 2.66757E+01-2.31475E-01-3.96658E+01 2.40673E+00-3.35335E-01
 -1      5849 9.85038E+01 1.36106E+01 6.20763E-01-3.08166E+01 3.97872E+00-7.40342E-01
 -1      5850 2.07774E-04-6.35846E-05-1.52908E-04-1.15445E-06 4.19292E-06 1.82454E-05
 -1      5851 1.92600E-04-8.35724E-05-2.13010E-04 6.89898E-05-5.04219E-05-9.58671E-05
 -1      5852 1.36109E-04-1.07674E-04-9.29120E-05-7.53584E-05-5.38686E-06-3.49040E-05
 -1      5853-2.07883E+00 2.76383E+00 3.50201E-02-1.11109E+00-3.12038E-02-4.98156E-02
 -1      5854 1.91936E+02-1.05987E+00 1.21883E-01 6.90569E+00-5.90723E-02-5.59669E-02
 -1      5855 1.90913E+02-2.76205E-02-1.76765E-01 5.35018E+00-7.27854E-04-1.88419E-02
 -1      5856-2.04762E+00 2.82216E+00 4.82546E-02 1.12374E+00-3.88889E-02 4.82967E-02
 -1      5857 2.64825E+01 1.62624E+01-1.07117E+00 1.62344E+01 5.86692E-02 2.70650E-01
 -1      5858 2.21943E+01 1.17738E+01-9.34657E+00 1.67424E+01-9.80930E-01 6.12305E-01
 -1      5859-4.14955E-01 1.59477E+00-4.12347E-02-5.99248E+00-5.50865E-02-7.26693E-02
 -1      5860 1.53195E+01 6.18663E+00-2.68245E-01 1.27713E+01-2.27639E-01-5.11286E-01
 -1      5861 2.36768E+01-1.18942E+00 6.72509E-01 1.35131E+01-1.40836E-01-3.13679E-03
 -1      5862-5.36090E-03-5.96944E-03 3.11790E-03-1.01425E-02-3.06950E-04-2.47164E-05
 -1      5863 1.79339E+02 2.42816E+01 9.66161E-01 1.84802E+01 1.63225E+00 1.94513E+00
 -1      5864 1.66316E+02 2.68578E+01-5.41348E-01 1.27439E+01 1.75006E+00-1.04203E+00
 -1      5865 1.81354E+02 3.52467E+01 4.53026E+00 1.93980E+01 2.25441E+00 9.66836E-02
 -1      5866 1.69834E+02 3.18631E+01 5.51913E-01 1.09572E+01 1.60090E+00 2.06843E-01
 -1      5867 1.81207E+02 1.38100E+01-1.21918E+00 1.94512E+00-6.88037E-04-2.23146E-01
 -1      5868 1.04043E+02-1.14918E+01-1.44500E+01 2.99459E+01 9.56704E-01-4.77929E+00
 -1      5869 1.25776E+02-6.03654E+00 3.83869E+00 2.88348E+01 1.30506E+00-1.50407E+00
 -1      5870 1.01808E+02 1.32172E+01-3.61475E-01 3.08655E+01-2.56870E+00-1.39713E+00
 -1      5871 6.27073E+01 2.89521E+01-8.85340E+00 4.25388E+01-3.59915E+00-1.63500E+00
 -1      5872 3.26266E-01 1.79672E+00 8.31303E-03 9.57264E-01-1.16932E-03 4.46470E-03
 -1      5873-2.13036E-01 1.80692E+00 1.79190E-02 7.75418E-01 7.34855E-03-3.42399E-03
 -1      5874 1.90184E+02-2.22803E+00-7.72695E-02-1.10741E+01-2.76267E-01 7.68555E-02
 -1      5875 1.97718E+02-7.39401E+00-1.07715E+00 2.42813E+01-1.50177E-01-4.38471E-02
 -1      5876 2.10168E+02-1.08927E+01-2.38449E-01 2.10929E+01-5.37554E-01-6.63591E-01
 -1      5877 6.36452E-01 1.80354E+00 2.21819E-03-1.32404E+00 5.32620E-03 2.72972E-03
 -1      5878 3.49734E-01 1.81549E+00-3.51902E-03-1.09522E+00 2.98836E-03-3.12768E-04
 -1      5879-1.92836E-01 1.94604E+00 3.29556E-02-1.02830E+00 4.61772E-03 7.17708E-03
 -1      5880 2.06674E+02-1.07244E+01-1.82109E-01-8.06054E+00 1.33394E-01 2.37319E-01
 -1      5881 2.04593E+02-9.73060E+00-6.11757E-02-1.81159E+00-5.86535E-03 3.36528E-02
 -1      5882-2.88727E-01 6.69743E-01-9.98754E-03 1.94265E-01 2.64723E-03 3.32709E-02
 -1      5883 1.43008E+02 6.96862E+00-2.41531E-01 8.58159E+00-9.88249E-01-1.08548E-01
 -1      5884 1.39955E+01 1.61011E+01-2.64017E+00 1.39872E+01-2.69472E-01 1.03993E+00
 -1      5885 1.25548E+01 1.38104E+01-2.33067E-01 1.46641E+01 1.93435E-01 1.64281E+00
 -1      5886 3.29778E+01 1.57764E+01 3.99308E-01 2.21225E+01-7.30780E-01 6.92610E-01
 -1      5887 2.10119E+01 1.24038E+01-4.22484E-01 1.56427E+01 3.32691E-02 7.37482E-01
 -1      5888 1.88909E+02 2.71218E+00-1.35320E-01 7.16913E+00-6.33174E-02-2.54165E-01
 -1      5889 1.90064E+02 2.05570E+00 6.03788E-02 5.59545E+00 1.03911E-02-7.28354E-02
 -1      5890 2.90809E-04-5.74687E-06-2.60304E-04-1.10949E-04-2.32515E-04 3.49129E-04
 -1      5891 4.00406E-04-2.19625E-04 2.48352E-05-4.88961E-05-7.39274E-05 4.18464E-04
 -1      5892 7.08960E-04 8.74013E-05-6.79906E-05 1.05689E-04 5.09187E-05 4.46262E-05
 -1      5893 3.51553E-04 7.49367E-05-7.23013E-04 5.50776E-05-4.39079E-05-5.65153E-06
 -1      5894 4.61560E-02 1.69380E+00 1.89395E-02 6.33908E-01 2.96307E-04 4.13746E-04
 -1      5895 1.53035E+01 6.29287E+00-2.49187E-01 1.27112E+01 1.53054E-01 4.81892E-01
 -1      5896 2.36677E+01-7.30485E-01 5.80653E-01 1.37125E+01-2.05912E-01-5.77077E-02
 -1      5897 9.60683E-04-7.39944E-04 4.18139E-04 1.52821E-04 2.60656E-04 3.00665E-04
 -1      5898 1.42987E+00 1.41926E+00 2.15568E-02-3.89433E+00 8.87247E-02 2.40237E-02
 -1      5899-1.09608E+00 2.53518E+00 6.19187E-02-4.45367E+00 1.39467E-01 5.44613E-02
 -1      5900 3.12870E+00 6.99732E-01 1.09050E-01-4.35675E+00 4.52959E-02 5.28051E-02
 -1      5901 1.37081E+01-4.67928E-01-2.76784E-02-3.46431E+00 1.18389E-01 8.57557E-03
 -1      5902 1.32543E+01-8.30316E-01-1.42372E-02-2.32206E+00 6.06180E-02-1.29267E-02
 -1      5903 1.31894E+01-3.62676E+00 4.94494E-02-1.49065E-02 7.21170E-02-7.99538E-02
 -1      5904 1.89320E+02-3.45946E-01-1.63239E-02 8.01293E+00 3.26928E-02-1.05265E-01
 -1      5905 1.90088E+02-5.51406E-01 3.95693E-02 7.23345E+00 5.78817E-02-1.17410E-01
 -1      5906 1.79163E+02 9.78905E+00-4.72116E-01 3.37379E-01 1.73010E-02 1.10043E+00
 -1      5907 1.79616E+02 1.28231E+01-1.38724E+00 9.10750E-01-2.49366E-01-1.20307E+00
 -1      5908 1.44512E+02-1.20545E+00 2.15024E+00-2.21836E+01 1.26442E+00 8.00225E-01
 -1      5909 1.77048E+02 8.49905E+00 6.39722E+00-1.99695E+01-1.48681E+00-1.45009E+00
 -1      5910 2.06624E+02-2.88045E+00 3.58576E+00-4.71986E+01 3.04230E+00 2.06720E+00
 -1      5911 1.47487E+02 6.84361E+00-2.74375E+00-1.92099E+01 1.96835E-01-1.50770E+00
 -1      5912 1.46705E+02 7.24655E+00-5.20326E-01-6.27040E+00-1.17264E+00-1.69918E-01
 -1      5913 1.60838E+02 3.30162E+01 1.21538E-01 1.14013E+01 3.02756E+00-2.62829E+00
 -1      5914 1.99496E+02 2.58265E+01 6.12879E+00 2.89684E+01 5.40810E-01 6.54441E-01
 -1      5915 1.94762E+02 1.76520E+01 2.12455E+00 1.97016E+01 4.51319E-01 1.27642E+00
 -1      5916 2.17013E+02 3.99719E+01 2.16320E+01 3.70268E+01-1.31876E-01-1.67915E+00
 -1      5917 2.02507E+02 3.09958E+01 1.21585E+01 2.48430E+01 5.14714E-01-5.63296E-01
 -1      5918 1.92939E-03-2.17550E-02-2.44696E-04-1.09876E-02-9.20659E-04 1.68720E-04
 -1      5919 1.45793E+02 1.24202E+01-5.05024E-01-5.99873E+00-1.67352E-01-5.12840E-02
 -1      5920 1.67357E+02 1.65302E+01-1.09799E+00 9.40807E-01 1.03083E+00 3.39627E-01
 -1      5921 1.63989E+02 1.94876E+01 7.08921E-01-6.61179E+00 8.24813E-01 2.06573E-01
 -1      5922 1.35947E+02 9.67540E+00-1.36377E+00-1.06331E+01 1.88564E-02-3.54945E-01
 -1      5923 6.88256E+00-1.49342E-01 7.16805E-02-2.40982E+00 1.25389E-03-3.24756E-03
 -1      5924 1.43685E+02 3.24299E+00-2.33086E+00-1.82294E+01-5.35221E-01-9.39173E-01
 -1      5925 1.83099E+02 1.03833E+01 1.10487E-01-3.45164E+01-1.23333E+00-2.31752E+00
 -1      5926 1.94246E+02 2.80348E+00-2.82798E+00 1.55522E+01-1.26436E+00-3.54549E+00
 -1      5927-8.98822E-01 1.42765E+00 1.40331E-02-2.35744E-01 1.53860E-02-4.86732E-02
 -1      5928-5.64202E-01 1.81639E+00 3.42977E-02 5.01381E-01 9.31766E-03-2.65423E-02
 -1      5929 1.12411E+02 2.08422E+01-9.68573E-01 3.69491E+01-1.06835E+00-4.77103E-01
 -1      5930 1.41864E+02 7.91841E+00-3.30969E+00 8.39461E+00 3.46271E-01 6.21539E-01
 -1      5931 1.46215E+02 4.42075E+01 4.95104E+00 4.85252E+01-1.22441E+00-2.69134E+00
 -1      5932 1.55272E+02 1.48515E+01-7.76012E-01 7.15749E+00-8.43229E-01 4.69270E-01
 -1      5933-5.36761E-05 6.93399E-05 2.49978E-05 7.43334E-05-2.69547E-06-8.09195E-06
 -1      5934-2.67342E-05 4.69667E-05 2.85450E-05 6.98075E-05-3.74378E-06-6.77619E-06
 -1      5935-8.42525E-02 1.63124E+00 1.82062E-03-2.81620E-01-1.60980E-03-1.90532E-03
 -1      5936-1.23275E-01 1.60518E+00-2.10168E-03-1.38409E-01-5.69991E-04-6.87888E-04
 -1      5937-1.27541E-01 1.58433E+00 2.70798E-02-1.39746E-01 2.98460E-03-3.10279E-03
 -1      5938-2.66025E-01 1.44216E+00 2.07758E-02-1.11223E-01 4.08974E-03-1.06452E-02
 -1      5939 1.80603E+02 1.23408E+01-2.27884E+00-3.81027E-01-2.20501E-02-7.79652E-01
 -1      5940 1.91412E+02 1.29319E+01 1.07213E+00-1.66158E+00-1.61456E-01 1.49607E+00
 -1      5941 1.51666E+02 9.80282E-01 3.78836E+00-2.26981E+01 9.91544E-01 3.97726E+00
 -1      5942 1.37563E+02-9.53095E+00-2.21572E+00-3.14470E+01-6.73359E-02 2.62120E+00
 -1      5943 1.59667E+02 3.20936E+00-1.63581E+00 2.21919E+01-3.45437E-01-3.55048E+00
 -1      5944 1.74813E+02-1.52506E+00-9.35732E-01 2.06090E+01-4.09272E-01-1.28089E+00
 -1      5945 1.83887E+02 7.99224E+00-2.37682E-01 4.37402E-02 1.58802E-02 2.23223E-01
 -1      5946 1.93054E+02-1.93291E+00-1.58884E-01 4.78405E+00-1.75437E-02 1.00724E-02
 -1      5947 1.90799E+02 1.96979E-01-2.76928E-02 6.39823E+00-1.41424E-02 1.02172E-02
 -1      5948 1.87114E+01 1.07931E+01-7.05164E-01-1.50664E+01-4.95395E-01 4.28047E-01
 -1      5949-9.40872E-06 9.01488E-05 1.96925E-05-4.60353E-06-9.63753E-06-8.96041E-06
 -1      5950-3.08447E+00 8.83972E+00 6.16823E-02-6.07588E+00-2.02223E-02-2.29183E-01
 -1      5951 4.03515E+01 1.84335E+01-7.12774E-01 2.73839E+01-1.80674E+00 1.80461E+00
 -1      5952 1.04846E+01-1.24712E+00 1.16928E-01-1.00268E+00 4.90975E-02 3.71173E-03
 -1      5953 1.04840E+01-1.25242E+00 1.06663E-01-9.97738E-01-4.10629E-02-2.63601E-03
 -1      5954-1.62463E-01-1.82801E-01-2.95039E-01-2.07678E-03 1.19394E-01 9.79668E-02
 -1      5955 2.98393E-01 8.36218E-01 1.05662E-01 4.61438E-01 5.14810E-02 3.49272E-02
 -1      5956-1.95323E+00 2.84870E+00-1.33218E-02 1.81044E+00 5.41632E-02-7.69886E-02
 -1      5957-6.44957E+00 1.16943E+01 2.22642E-01 3.32764E+00 3.95240E-02-2.58504E-01
 -1      5958 2.11469E+02 1.76078E+01 5.77124E+00 3.46864E+01-1.08899E+00 1.27414E+00
 -1      5959 2.08524E+02 3.24934E+01 1.43612E+01 3.18414E+01 1.17341E+00-7.23404E-01
 -1      5960 1.61718E+02 2.76781E+01 2.15066E+01 8.69128E+00-2.78501E+00 1.54722E+01
 -1      5961 1.25474E+02 9.87611E+00-1.17552E+00-2.56575E+01 1.94743E+00-1.70794E+00
 -1      5962 1.49659E+02 1.26830E+01-1.80271E+00-2.23471E+01 9.67603E-01-2.55156E+00
 -1      5963 1.63667E+02 2.62077E+01 1.72131E+01-6.88981E+00 2.89093E+00 8.19328E+00
 -1      5964 1.73453E+02 3.34385E+01 3.37695E+01-3.71117E+00 1.61054E+00 8.32084E+00
 -1      5965-7.16754E-06 3.94169E-05 1.24616E-05 6.41459E-05 3.14143E-06 3.14983E-06
 -1      5966-6.46358E-05 7.52308E-05 5.04328E-06 3.06587E-05 4.23860E-06-5.16541E-07
 -1      5967-2.46054E+01 2.20962E+01-3.89150E-01-1.13655E+01-2.41372E-01 5.81749E-01
 -1      5968 2.59664E-05 7.99095E-05 1.63381E-05 9.70723E-05 7.57515E-07-2.75665E-06
 -1      5969-3.34853E-05 1.19326E-04 1.20767E-05 5.91142E-05-1.15219E-06-7.75037E-06
 -1      5970 1.90138E+02 7.86963E+00-7.61692E-01 1.18528E+01-4.42412E-02-3.19965E-01
 -1      5971 1.90544E+02 2.75758E+00-1.20832E+00 9.05232E+00 2.03804E-01 6.15703E-01
 -1      5972 1.90566E+02 1.67018E+00-1.14192E+00 8.16569E+00-3.67229E-02-3.57028E-01
 -1      5973 1.89046E+02 4.76596E+00-4.69367E-01 9.07007E+00 1.07197E-01 5.54792E-02
 -1      5974 1.67594E+02 2.88415E+01 2.30227E+01 6.76659E+00 5.89964E-01-6.92175E+00
 -1      5975 1.78378E+02 1.14938E+01 1.33300E+00-4.79999E+00-3.54757E-01 4.00570E-01
 -1      5976 1.78639E+02 3.73551E+01 4.17668E+01 6.76854E+00 6.53873E-01-7.66311E+00
 -1      5977 1.90832E+02 1.82741E+01 1.03221E+01-4.74342E+00-9.60941E-01-2.67457E+00
 -1      5978 1.88579E+02 1.46768E+01 4.71280E+00-2.60598E+00-2.99068E+00-2.11807E+00
 -1      5979 6.20014E+01 3.69533E+01-3.76135E+00 5.13321E+01-5.61762E+00-3.09650E+00
 -1      5980-6.00302E-06 3.08398E-06 3.37543E-05 6.84691E-05-1.26204E-05 4.32745E-07
 -1      5981 3.46607E-05-3.58407E-05 2.01345E-05 5.62400E-05 2.28782E-06 7.15384E-06
 -1      5982-1.07301E-06 8.27329E-05 1.84431E-05 3.60971E-05-4.96670E-06-7.05517E-06
 -1      5983 1.71136E+02 1.57290E+01-7.48800E-01-1.34922E+00-4.43321E-01 9.55226E-01
 -1      5984 1.75166E+02 1.69128E+01 1.71525E-01-6.26047E+00-8.28941E-01 8.75248E-01
 -1      5985 1.70558E+02 1.98106E+01-2.89655E-01-5.83610E+00-5.81091E-01 9.43587E-01
 -1      5986-2.36402E+01 2.20694E+01-1.48774E+00 1.40336E+01 7.40908E-02-9.10733E-01
 -1      5987-2.16758E+01 2.41717E+01 1.96891E-01 5.49313E+00-1.34664E-01-7.77106E-01
 -1      5988-7.07187E+00 1.58722E+01 3.68137E-01 1.16204E+01-1.00300E-01-5.69581E-01
 -1      5989 8.18666E-04-2.15761E-04 3.72573E-07 3.07881E-05-3.36612E-04-2.62706E-04
 -1      5990-1.10549E-03-1.73261E-03 5.16192E-04 2.48516E-04 2.46888E-04-5.52317E-05
 -1      5991 4.49028E-04-4.74846E-04-1.03607E-04 1.40350E-04 1.08475E-04-3.57514E-04
 -1      5992 1.75570E+02 1.31426E+01-1.00933E+00 1.48607E-01-1.80622E-01 9.73320E-01
 -1      5993 1.74564E+02 1.21387E+01-1.43199E+00 2.77961E+00 1.57017E-01 1.77676E+00
 -1      5994 1.41852E+02 7.66320E+00-3.66274E-01-4.33945E+00 1.75592E+00 6.47241E-01
 -1      5995 1.64900E+02 8.44645E+00 1.04363E+00 5.30821E+00 1.36101E+00 1.76720E+00
 -1      5996 1.43003E-04 1.52922E-04 1.30225E-05-2.12386E-04-4.42678E-06 2.61030E-06
 -1      5997 6.72176E-05 1.98288E-04 1.89323E-05-1.71634E-04-2.09145E-06 1.25740E-05
 -1      5998-2.72673E-04-1.36664E-04-5.76492E-06 1.12203E-04-9.75656E-06-3.63801E-06
 -1      5999-3.75359E-05 6.67773E-05 1.88582E-05-2.86464E-05-3.05525E-06-1.32857E-06
 -1      6000 5.38811E-06 3.19704E-05 2.17696E-05-5.38339E-05-1.23463E-05-2.81510E-06
 -1      6001 1.90023E+02-1.50729E-01-1.02983E-01 6.74244E+00-6.68938E-02 5.89421E-02
 -1      6002 1.89234E+02 3.02136E-01-1.10912E-01 6.90455E+00 2.65418E-02 7.24408E-02
 -1      6003 1.89580E+02 2.92876E-01 1.73170E-01 7.13014E+00-8.88533E-03 1.23053E-01
 -1      6004 1.90064E+02-4.80504E-01-6.14189E-02 6.99431E+00-4.33380E-02 1.03294E-01
 -1      6005 1.34306E-03-7.68634E-04 2.23766E-04-3.19205E-04-2.12009E-04-7.18919E-05
 -1      6006-5.78436E-06 8.15211E-05 1.54704E-05 1.95846E-05-6.36876E-06-3.70873E-06
 -1      6007 1.40864E+01 6.12949E+00-1.80235E+00 2.47111E+01-1.79230E-01-1.72995E+00
 -1      6008-1.06227E+01 1.41889E+01-4.46120E+00 2.97433E+01-3.89414E-02 4.75111E-01
 -1      6009 3.99295E+01 1.96881E+00 1.04789E+00 1.88616E+01-1.04889E+00-3.77088E-01
 -1      6010 6.66607E+00 4.96470E+00-4.44757E+00 4.43402E+01-1.71421E+00-2.37614E+00
 -1      6011 9.94742E-01 1.80776E+00 3.28327E-02 1.78756E+00 4.31496E-05 1.72958E-03
 -1      6012 7.78792E-05 2.72532E-05 3.37905E-05 6.93743E-05 6.80619E-06-2.27935E-05
 -1      6013-5.61211E-05-6.32209E-06 6.84923E-06 1.27162E-04 1.06905E-05-1.90480E-05
 -1      6014 4.32212E-06-2.36497E-05 1.92669E-05 1.17740E-04 1.49328E-05-1.38746E-05
 -1      6015 8.33000E-05-2.36964E-05 2.25917E-05 4.00841E-05 6.90776E-06-5.27620E-06
 -1      6016 1.51708E+02 1.07930E+01-6.32521E-01 2.76745E+00-5.11060E-01 8.09135E-01
 -1      6017-4.14276E-04-1.26536E-04-3.03095E-05 1.34157E-04 6.74906E-06-1.48305E-05
 -1      6018-4.83297E-05 7.65096E-05 3.14762E-05-5.69113E-05-6.06566E-06-3.32609E-07
 -1      6019 1.64731E+02 1.58745E+01-1.14302E+00 1.53925E-01-1.39158E+00-3.44838E-01
 -1      6020 1.10759E+01-1.22600E+00-1.28228E-03-4.41545E-01 4.19685E-02-1.02951E-02
 -1      6021 1.10891E+01-1.23015E+00-7.31674E-03-4.56546E-01-4.29491E-02 5.03425E-03
 -1      6022 3.74348E+01 1.11154E+00-2.90201E+00-3.56064E+01 1.14391E+00-1.15367E+00
 -1      6023 1.80422E-03-2.67435E-02-8.24156E-04-1.04857E-02 7.65274E-04 3.88846E-04
 -1      6024 1.32499E+01-5.34940E+00 3.98353E-01 3.20779E+00 2.40949E-01 2.95017E-02
 -1      6025-2.35078E-01 6.18445E-01-1.53879E-02-1.54135E-01-6.69348E-03 2.75854E-02
 -1      6026 1.74014E+02-9.44331E-01 3.03753E-01-1.53034E+01-8.84176E-02-8.46457E-01
 -1      6027 1.47496E+02 7.61165E+00-1.34488E-01 3.55974E+00-1.31675E+00 5.88589E-01
 -1      6028-7.35798E-04-3.12729E-04-2.43675E-04-3.16936E-04-3.77717E-05-6.71827E-05
 -1      6029 7.11864E-04-1.13861E-04 3.91822E-05 4.17640E-05 9.55773E-06-2.68057E-05
 -1      6030 7.02040E-04-5.52217E-05 3.90746E-05 1.92815E-04-1.34151E-05-5.53424E-05
 -1      6031 1.27695E+02 8.20757E+00-2.88288E+00-2.28410E+01-1.49158E+00 2.25981E+00
 -1      6032 1.29470E+02 3.89005E+01 2.18457E+00-4.60227E+01-4.18261E+00 3.19106E+00
 -1      6033 1.21737E+02 2.18128E+01 3.18402E-01-3.47848E+01-2.23516E+00 1.77658E+00
 -1      6034 1.69369E+02 3.29062E+01 3.68927E-01-1.68798E+01 2.61791E+00-4.79929E-01
 -1      6035 1.68868E+02 2.79773E+01 1.22986E+00-9.16842E+00 2.05206E+00-3.64815E-01
 -1      6036-6.35319E-06 8.07122E-05 1.72812E-05 2.12285E-05-9.45302E-06-4.05497E-06
 -1      6037-3.31348E-03-9.55126E-04-5.50916E-04-2.33578E-03 9.49085E-05 8.03266E-04
 -1      6038-2.73335E-04-7.17534E-04-1.81890E-05-6.00417E-04-1.58323E-05 3.99272E-04
 -1      6039-5.05318E-03-4.13178E-05 2.46940E-03 4.48738E-04-9.02185E-04-1.17273E-04
 -1      6040 1.89297E+02-3.95614E-01-4.35757E-02 8.27696E+00-1.36556E-01 2.48927E-02
 -1      6041 1.90511E+02-5.28908E-01 2.42376E-01 7.38087E+00 1.87636E-02 7.40837E-02
 -1      6042-7.84933E-03-1.05161E-02 1.92981E-03-1.53981E-02-2.15783E-03-4.77376E-04
 -1      6043-2.87588E-03-2.05058E-03 1.16718E-03-6.69123E-04-1.05541E-03-5.73686E-04
 -1      6044-1.10675E-04-1.18374E-02 1.97609E-04-9.73984E-03-1.35234E-03-3.20132E-04
 -1      6045-4.15235E-03-1.15152E-02-1.18870E-03-7.33887E-03-8.35653E-04 3.60788E-04
 -1      6046 1.65058E+02 2.38666E+01 4.88784E-01-6.73381E+00 7.38442E-01-4.30442E-01
 -1      6047 1.99428E+02-6.33196E+00 3.26148E-02-4.98466E+00-3.02235E-02 1.50785E-01
 -1      6048 1.93425E+02-3.24521E+00-1.57863E-01-6.86626E+00 1.01084E-02 2.05632E-02
 -1      6049 7.72557E+01-2.08132E+00-2.97789E+00-2.75213E+01-2.38878E-01 3.63629E-01
 -1      6050 7.14026E+01-2.26922E+00-3.35310E+00-2.82787E+01-8.05131E-01-2.11049E+00
 -1      6051 1.26701E+01 1.26558E+01 3.90709E-01 1.37653E+01-2.62030E-01-1.45365E+00
 -1      6052 1.33891E+01 1.00395E+01-1.80464E-01 1.40027E+01 1.50715E-01-8.19502E-01
 -1      6053 3.11099E+01 1.17285E+01 5.15033E-01 2.13018E+01 2.83906E-01-4.10160E-01
 -1      6054 1.89890E+02 1.57975E+00-2.16306E-01 2.84986E+00 4.02286E-02-4.20444E-02
 -1      6055 1.86204E+02-2.66882E+00-3.66554E-01-1.61682E+01-1.17102E-01 2.52508E-01
 -1      6056 1.83015E+02-1.32061E+00-1.63638E-01-1.01937E+01-2.93917E-01 2.81139E-01
 -1      6057 5.96259E+00 3.97897E-01 1.95377E-02-2.31599E+00-1.93329E-02-1.70308E-02
 -1      6058 4.71267E+00 2.73652E-01 7.95161E-02-3.46403E+00 2.57122E-03 1.25307E-02
 -1      6059 5.96022E+00 3.92531E-01 1.60956E-02-2.31888E+00 1.84993E-02 1.82035E-02
 -1      6060 4.70518E+00 2.49090E-01 8.28200E-02-3.47640E+00-5.28449E-03-6.03461E-03
 -1      6061-6.13762E-05 8.75714E-05 1.69941E-05 1.62997E-06-4.33662E-06 2.99663E-06
 -1      6062-4.57985E-05 9.33973E-05 1.77995E-05-1.16922E-05-4.57903E-06 5.42586E-06
 -1      6063 5.69706E-05-1.70517E-04-1.90939E-04 6.42028E-05-1.34193E-04 2.45266E-04
 -1      6064 1.16874E-04-1.01781E-05-9.62246E-07-4.69716E-05-2.97591E-05 7.52901E-05
 -1      6065-7.43928E-04-1.75520E-04-3.69839E-05 2.38670E-04 1.11645E-05 5.11799E-06
 -1      6066 7.20544E-04-6.38013E-05 1.42484E-05-1.82429E-04-1.42485E-05 4.51134E-05
 -1      6067-8.07900E-04-3.78502E-04-1.66980E-04 4.38253E-04-7.23776E-05 1.73375E-04
 -1      6068 1.16547E+02 9.27274E+00 9.51276E-01 2.18220E+01 2.67322E+00 6.63572E-01
 -1      6069 1.67499E+02 1.96941E+01-3.14006E-01-1.32382E+00-5.67796E-01 8.51568E-01
 -1      6070-3.23751E-05 8.07629E-05 1.91032E-05 2.39857E-06-7.28753E-06 1.65664E-06
 -1      6071-6.04730E-01-7.32182E-02-3.15073E-02-9.58647E-02 5.25564E-02 8.08740E-02
 -1      6072 7.09573E-02 8.09007E-01 2.14417E-01 3.85088E-01 5.32730E-03-2.09717E-03
 -1      6073-5.75445E-01 2.17374E+00 7.47097E-02-1.01159E+00 2.87434E-02 2.33019E-02
 -1      6074-1.89928E+00 2.66950E+00 5.28972E-02-8.70843E-01 2.33887E-02 5.75392E-02
 -1      6075-3.64280E-01 2.14405E+00 3.33351E-02-1.47944E+00 2.33920E-02 2.82745E-02
 -1      6076 4.19048E+01 6.41932E+00-8.70643E-01 3.13932E+01-1.23727E+00-4.50063E-01
 -1      6077 6.81768E+01 1.49649E+00 3.71714E+00 2.16373E+01 3.77893E-02 7.09895E-01
 -1      6078 6.62035E-05-5.13991E-05 1.83789E-05 8.32448E-05 1.17101E-05-1.38807E-05
 -1      6079 9.07687E+00-6.69725E+00-1.99703E-01 8.57821E+00-4.24299E-01 5.37149E-03
 -1      6080 1.41540E+01-5.45642E+00-3.42791E-02-3.36428E-01 9.83139E-02-6.26049E-03
 -1      6081 1.47784E+02 4.33287E+00-2.65616E+00-1.93376E+01 4.90931E-01 1.69209E-02
 -1      6082 1.87036E+02 1.39739E+01 3.25308E+00-4.80735E+00-5.03365E-01 1.09834E+00
 -1      6083 1.36656E+00 1.69805E+00 1.21714E-02 1.71375E+00-9.13706E-03 8.80260E-03
 -1      6084 1.36864E+00 1.70113E+00 1.41328E-02 1.70965E+00 1.11972E-02-1.03919E-02
 -1      6085 9.61342E-02 1.78772E+00 1.75191E-02 8.62812E-01-1.90482E-04 2.35379E-04
 -1      6086 1.74684E+02-7.28068E-01 5.13380E-01-1.52401E+01-1.15409E-02 7.64136E-01
 -1      6087 1.95139E+02-5.83483E+00-6.01072E-01-2.05843E+01 3.82175E-02 1.63106E-01
 -1      6088-8.28450E-05-1.49806E-05 7.44758E-06 1.13005E-04 6.95727E-06-1.36613E-06
 -1      6089 1.95338E+02 9.88486E+00-8.73027E-01 1.69579E+01-1.04909E-01-3.45708E-01
 -1      6090 5.28377E+01 4.49839E+00 2.57551E+00 3.68246E+01 1.08179E+00 1.77831E+00
 -1      6091 5.54308E+01 9.05294E+00 5.09243E+00 3.55578E+01 1.16606E+00 2.67986E+00
 -1      6092-3.64572E-05 1.22254E-04 1.33485E-05-6.68197E-05 1.39183E-06 5.81577E-06
 -1      6093 2.92698E-05 8.07843E-05 2.52170E-05-8.52054E-05 5.14030E-07 5.85578E-06
 -1      6094 1.62466E+02 1.01710E+01-5.85997E-01-4.25515E+00-4.66803E-02-1.23818E+00
 -1      6095 5.21699E-06 2.12783E-05 3.00794E-05-8.47815E-05 6.78069E-06 1.66420E-05
 -1      6096 9.41007E-05-9.74341E-06 3.23919E-05-5.95087E-05 7.44403E-07 1.18415E-05
 -1      6097 2.49208E-05 5.08249E-05 3.38066E-05-1.35586E-04 6.15707E-06 2.58159E-05
 -1      6098 1.69391E+02 1.31944E+01-1.46481E+00 2.89002E+00-7.95895E-02 1.71188E+00
 -1      6099 1.62199E+02 1.60784E+01-1.66728E-01 3.44993E-01-3.30910E-02 5.63220E-01
 -1      6100 1.67049E+02 1.86863E+01-1.41832E-01-1.40200E+00-7.50224E-01 7.81569E-01
 -1      6101 1.95277E-01-8.38209E-02 3.54336E-03-3.36582E-02 5.84226E-03-2.70202E-03
 -1      6102 1.81337E+02 7.79331E+00-5.86755E-01 5.00236E-01-1.12585E-01 2.47594E+00
 -1      6103 1.82867E+02 7.01559E+00 1.46160E-01 8.45550E-01-8.64803E-02 2.40362E+00
 -1      6104 1.80686E+02 8.17401E+00-3.22781E-01-1.47799E+00-1.45869E-01 3.12336E+00
 -1      6105-1.80401E-06 9.66673E-05 1.74863E-05-3.36588E-05-6.34603E-06 8.34354E-06
 -1      6106 2.42238E-04-6.60793E-05-1.39799E-04-5.86395E-05-4.78315E-05 8.09492E-05
 -1      6107-1.96455E+00 3.01495E+00 4.93866E-02-3.26076E+00-5.17512E-02-6.27451E-02
 -1      6108 5.59064E-05 1.14991E-05 2.52972E-05 7.88276E-05 7.10180E-06-4.67238E-06
 -1      6109 3.48975E-05 2.09174E-04 6.32374E-06-1.30092E-04-2.92162E-06 1.26958E-05
 -1      6110-1.07646E-05 2.35328E-04 7.96681E-06-8.73512E-05-1.22469E-05 5.11467E-06
 -1      6111-1.77010E-04-1.14800E-04 2.15596E-06 1.11966E-04 7.40929E-06-1.61778E-05
 -1      6112-1.33480E+00 1.82559E+00 5.31425E-03-9.26749E-02-4.22797E-03 3.41457E-02
 -1      6113 2.22616E+01 1.45828E+01-8.05915E-02-1.65026E+01 9.12641E-02 6.02452E-01
 -1      6114 1.48321E+00 2.14091E+00 3.39296E-01-2.48921E+00 1.00487E-01-3.87005E-02
 -1      6115-1.96469E-02-3.75365E-02 1.19434E-02 7.10823E-02-1.95441E-03 1.13608E-03
 -1      6116 2.66605E-05 8.39772E-05 1.93734E-05-6.74973E-05-7.44442E-06 1.12466E-05
 -1      6117-2.79224E-03-7.30874E-05 2.80812E-03-4.01653E-04-7.66257E-04 1.36148E-04
 -1      6118-2.71092E-03-2.30031E-04 3.44141E-04 1.45396E-03-5.34706E-04-4.16965E-04
 -1      6119 1.81707E+02-1.70724E+00 9.07582E-03-1.39781E+01 4.87338E-02 2.78297E-01
 -1      6120 1.90513E+02-2.85656E+00 1.90269E-01-1.53880E+01-3.57226E-03 2.36394E-02
 -1      6121-2.52322E-01 1.41148E+00 1.32963E-02 2.68676E-02-9.67403E-04-4.59863E-03
 -1      6122-2.40731E-01 1.43992E+00 1.41322E-02-5.29458E-02-2.46880E-03-6.86791E-03
 -1      6123 3.55087E-04 9.69820E-05-3.52490E-04 5.23031E-05-1.20630E-04-2.81283E-04
 -1      6124 2.08328E-04-1.56399E-05-2.20206E-04-2.11418E-04-2.15466E-04-3.67847E-04
 -1      6125 1.86467E-01 1.02691E+00-1.49730E-02 4.51089E-01-2.71022E-02-4.75059E-02
 -1      6126-1.71202E-05 5.68304E-05 2.98829E-05 6.83585E-05-7.17968E-06-1.11532E-05
 -1      6127-5.23456E-03-6.04764E-03 3.21112E-03-1.03589E-02-1.34604E-04-8.36076E-04
 -1      6128 1.57318E+02 2.99574E+01 6.04908E-02 8.33540E+00 1.67063E+00-3.71302E-01
 -1      6129-1.32470E-01 1.54849E+00 2.56805E-02 8.63808E-02 2.18300E-04 4.41270E-05
 -1      6130-1.29147E-01 1.55855E+00 2.17755E-02 5.62668E-02 2.44560E-04-1.90732E-04
 -1      6131 7.44655E+01-1.94486E+00-6.14745E+00-2.56723E+01 3.94906E-01-3.94419E-02
 -1      6132 7.61807E+01-6.07687E-01 7.86196E-01-3.01764E+01 2.35487E+00 1.21217E+00
 -1      6133 1.43091E+00 1.69271E+00 1.78625E-02-1.73575E+00-7.15151E-03-8.77077E-03
 -1      6134-9.18474E-06 7.64155E-05 1.76460E-05-2.45293E-05-7.47391E-06 2.12201E-06
 -1      6135 4.55404E-06 6.74793E-05 1.41902E-05-3.63859E-05 1.08181E-06 6.53858E-06
 -1      6136 1.40180E+02 4.41041E+00 1.50804E+01 1.12315E+01 2.22084E+00-5.61901E+00
 -1      6137 1.62769E+02 3.14657E+01 2.91290E+01 8.99041E+00 1.99231E+00-8.31467E+00
 -1      6138 1.64689E+02 7.54353E+00-4.20604E-01-4.47915E+00-1.61555E+00-1.31947E+00
 -1      6139 1.63984E+02 9.99083E+00 2.22284E+00 3.37394E+00-1.71948E+00-4.73032E-01
 -1      6140 1.77009E+02 9.06755E+00-4.80093E-01 4.49894E+00 3.23922E-01 3.01328E+00
 -1      6141 1.79980E+02 8.46753E+00-2.88189E-01 2.23569E+00 1.35418E-01 2.75314E+00
 -1      6142 1.80977E+02 2.38403E+01 3.81279E-01-2.14837E+01 1.13824E+00-2.43833E+00
 -1      6143 1.90903E+02-3.20194E-01 2.74592E-02-6.54076E+00 2.94116E-02 3.79737E-03
 -1      6144 1.91396E+02 3.20367E-01 2.01068E-01-5.28343E+00 7.92825E-02 5.24089E-02
 -1      6145-8.67906E-04-2.38628E-04-6.60758E-05 2.46977E-04 3.52967E-05-8.83170E-05
 -1      6146-7.43958E-04-1.27580E-04-1.84369E-05 6.40061E-05-9.48618E-06-5.01492E-05
 -1      6147 6.92133E-05-9.43047E-05 1.04096E-05 7.57913E-05 2.30583E-05-5.13937E-05
 -1      6148 8.45448E-05-2.32834E-05 3.86602E-05-5.32246E-05-3.23931E-06-2.80413E-05
 -1      6149 6.45893E-04-1.16986E-04 1.32644E-05-7.99793E-05-7.74597E-06-1.21509E-06
 -1      6150-2.08433E+00 2.91934E+00-2.68776E-06-3.24844E+00 5.15646E-02 6.01368E-02
 -1      6151 1.90652E+02 3.73938E+00-8.58674E-01 1.14803E+01-1.84341E-01 1.55950E+00
 -1      6152 1.90203E+02 8.15192E-01-1.22589E+00 8.87727E+00-3.69635E-02 1.27705E+00
 -1      6153 1.88968E+02 3.02616E+00-2.83104E-01 8.75118E+00-6.34322E-02 3.58241E-01
 -1      6154 1.87088E+02 5.75738E+00-5.16332E-01 1.00322E+01 1.70233E-01 8.82039E-01
 -1      6155 1.91893E+02-1.16266E+00 8.35093E-02 7.00502E+00 6.60648E-02 6.00704E-02
 -1      6156 1.90919E+02-3.58378E-01 1.42906E-02 6.81738E+00 5.84044E-02 2.86615E-02
 -1      6157-3.69266E-06 6.85047E-05 1.72182E-05 2.39299E-05-3.67486E-06-2.62418E-06
 -1      6158 7.76001E+00-5.53161E+00-1.66178E-01 8.38891E+00 2.03622E-01 6.81125E-02
 -1      6159-1.55220E-03-5.29257E-04-2.98958E-04-2.28009E-03-2.90279E-04-6.57235E-04
 -1      6160-3.54348E-03-1.17353E-04 2.84940E-03 6.68729E-04 9.86497E-04 7.22034E-04
 -1      6161 5.76248E-06-7.36147E-04-1.22094E-04-5.80085E-04-1.00320E-04-4.52814E-04
 -1      6162 1.61051E+02 1.76492E+01 9.46345E-01-6.64765E+00-1.21509E+00-5.24360E-01
 -1      6163 1.89336E+02 4.98528E-01-1.37334E-01 6.72989E+00-4.20152E-02-2.11758E-03
 -1      6164 1.89520E+02 4.69496E-01-4.19050E-03 6.80820E+00 4.40984E-02-3.62362E-02
 -1      6165 1.89819E+02-6.45723E-01-1.13186E-01 7.15202E+00 4.62001E-02-5.89807E-02
 -1      6166-4.77462E-04-3.42115E-04-1.55915E-04 5.36036E-04-1.48786E-04 5.35045E-04
 -1      6167-5.31305E-04-1.06156E-03 7.04464E-05 8.11263E-04 2.53529E-04 4.59561E-04
 -1      6168-3.60231E-03-2.32327E-03-3.26640E-04 1.70735E-03 6.89029E-04 6.56692E-04
 -1      6169 1.92366E+02 5.74184E+00-1.35216E-01-1.34463E+01 7.91019E-01-1.92775E+00
 -1      6170 1.92667E+02 2.33364E+00-3.02605E+00-1.43425E+01 9.94169E-01-3.13089E+00
 -1      6171 1.88162E+02 1.00292E+01-2.15825E+00-1.59404E+01 1.37566E+00-2.19892E+00
 -1      6172 2.12331E+02 3.23857E+01 1.21036E+01 3.90776E+01-1.24002E-01 3.16159E+00
 -1      6173 1.95035E+02 3.02641E+01 6.24089E+00 2.80603E+01-1.65671E+00 8.40377E-01
 -1      6174 1.80467E+02 2.56228E+01 7.98060E+00 2.89111E+01 9.34563E-01 2.77828E+00
 -1      6175-9.51013E-02 1.64887E+00 6.72968E-03-7.56235E-02 2.29776E-03-1.71633E-05
 -1      6176 2.57314E-05-5.91073E-05 2.48288E-06-2.60081E-05-7.38795E-06 3.30155E-05
 -1      6177 3.79563E-05-4.38396E-05 9.15391E-06-6.65768E-05 9.74521E-06 2.28743E-05
 -1      6178 2.65867E-05-5.31811E-05-6.46303E-05 2.52983E-05 2.14014E-05 3.83954E-05
 -1      6179 2.17520E+02 2.22578E+01 1.05325E+01 3.37035E+01 3.95907E-01-2.05973E+00
 -1      6180 2.01786E+02 4.65036E+00-4.17588E-01-3.66646E+01-5.15324E+00-3.05595E+00
 -1      6181-3.17880E-05 3.02575E-07 2.19679E-05-1.46461E-04 2.58572E-05 6.13253E-06
 -1      6182 2.83018E-05-1.69765E-05 3.14616E-05-1.23671E-04 2.65903E-05 9.45836E-06
 -1      6183 8.84259E-05 1.52835E-05 3.96968E-05-8.28269E-05 3.71243E-06 2.05737E-05
 -1      6184 1.39753E-04-6.91855E-06 5.15178E-05-4.24395E-05 7.11952E-06 2.25592E-05
 -1      6185 5.22237E+01 2.02659E-01-3.12496E+00 2.53798E+01-2.54269E+00 4.59753E-01
 -1      6186 9.68820E+01-3.38326E+00 7.48356E+00 1.42876E+01-4.00979E+00 4.00849E+00
 -1      6187 3.89866E+00 8.31575E-01 5.73527E-03-2.61661E+00 3.12574E-04-1.68637E-03
 -1      6188 1.90991E+02 6.09853E+00-6.30575E-01-1.33542E+01-5.31160E-01 1.73094E+00
 -1      6189 1.84480E+02 9.44325E+00-2.30548E-01-1.17916E+01-4.20881E-01 7.98219E-01
 -1      6190 5.67497E-01 2.43462E+00-3.73198E-02-3.06681E+00-2.61916E-02-9.80797E-02
 -1      6191-7.93074E-05 6.08597E-05 3.50557E-05-9.18584E-05-3.02088E-06 8.87099E-06
 -1      6192 1.91893E-05 2.78761E-05 2.24801E-05-7.11565E-05-5.05531E-06 8.36784E-06
 -1      6193 1.94156E+02 4.26886E+00-9.68947E-01-1.11496E+01 2.06053E-01-1.70206E+00
 -1      6194 1.03246E+01 3.33618E+00-4.70524E+00 4.90880E+01 2.58996E+00 3.58018E+00
 -1      6195 9.94200E-05-1.24386E-04-7.96147E-05 6.73997E-05 1.40734E-04-2.36018E-04
 -1      6196 1.62769E-04-7.88225E-05-1.57192E-04-5.28272E-05 7.08549E-05-1.21669E-04
 -1      6197 2.53520E-05-4.20417E-05-2.78427E-06-2.99228E-05 5.83950E-05-8.87740E-05
 -1      6198 1.67203E+02 3.69368E+01 3.83980E+00-1.59785E+01 8.71153E-01 3.44101E-01
 -1      6199 1.43594E+02 7.83352E+00 1.64972E+01-1.03033E+01-2.35443E+00-6.43797E+00
 -1      6200 1.58870E+02 5.69278E+00-7.37667E-01 2.87695E+00 1.72863E+00-9.44949E-01
 -1      6201 1.26149E+01 1.19692E+01 2.35385E-02 1.39716E+01 1.10254E-01 1.39586E+00
 -1      6202 1.20132E+02-1.04105E+01-7.18985E-01 2.66120E+01 2.77207E-01-2.91943E-01
 -1      6203 1.03934E+02-1.24887E+01-1.52287E+01 2.98626E+01 1.17162E+00-5.43161E-01
 -1      6204 1.29216E+02 3.75633E+00-3.56150E+00-1.30475E+01-1.92361E+00 1.57564E+00
 -1      6205-3.94793E-05-7.34198E-05 3.41154E-07 3.30470E-05 2.75852E-06-2.14179E-06
 -1      6206-2.93179E-05 2.33910E-04 4.52338E-06-2.44248E-05-7.69166E-06 1.99842E-06
 -1      6207-5.04478E-05-8.52012E-05 1.28848E-05 5.75047E-05 4.19084E-06-1.96875E-06
 -1      6208-1.00515E-04-1.35982E-04-3.16726E-06 7.63491E-05 4.64241E-06-5.82628E-06
 -1      6209 1.90308E+02 1.00325E+00-1.43093E-01 5.72006E+00-2.79316E-02 3.19980E-02
 -1      6210 1.53651E+02 1.24961E+01-9.31428E-01-2.02249E+01-1.07079E+00 1.80337E+00
 -1      6211 1.66502E+02 3.12771E+01 5.17440E+00-2.78980E+01-1.83809E+00 3.21439E+00
 -1      6212-9.13669E-06 4.14652E-05 1.68806E-05-6.05944E-05 7.14622E-06 3.54785E-06
 -1      6213 2.86131E-05-4.64682E-06 2.05630E-05-4.34565E-05 2.68292E-07 5.11864E-07
 -1      6214-1.91263E-05 3.78886E-05 4.20421E-05-9.48748E-05-7.64290E-06-2.62305E-06
 -1      6215 1.78108E+00 1.12057E-01-7.49479E-02 6.93263E+00 1.69402E-01-5.15074E-02
 -1      6216 2.33300E+00 4.87495E-02 1.72841E-01 5.79627E+00 1.10217E-01-7.42301E-03
 -1      6217 1.31827E+01 1.06754E+01 1.16538E-01-1.37814E+01 1.49917E-01 9.94380E-01
 -1      6218 2.29696E+01 7.38607E+00 3.93073E-01-1.72742E+01 5.48097E-01 6.66200E-01
 -1      6219 3.06419E+01 1.21104E+01-2.50923E-01-2.11028E+01 2.99218E-01 5.76942E-01
 -1      6220 5.04366E+00-3.38759E+00-2.43091E-02-8.87290E+00 1.75647E-01 7.26422E-02
 -1      6221 2.08787E+02-1.18557E+01-2.46869E-01-1.69342E+01-4.06755E-01 4.23558E-01
 -1      6222 1.88666E+02 1.66283E+01 5.41974E+00-2.35261E+00-4.54586E-01-2.83950E-01
 -1      6223 1.25467E-02-4.95934E-02-9.33934E-04-6.90736E-02-9.61309E-04-2.45597E-03
 -1      6224 1.27364E-04-1.27549E-04-9.99938E-05 7.91471E-05 2.59526E-05-5.93276E-05
 -1      6225 1.22169E+02 1.84811E+01 2.07645E+00 2.72006E+01 2.47259E+00 1.87919E+00
 -1      6226 1.26912E+02 6.42127E+00-1.40630E+00 2.01974E+01 2.23120E+00 1.23451E+00
 -1      6227 6.01087E+00 1.43170E+00-1.50475E-02-4.33094E+00 1.84881E-01 8.95710E-03
 -1      6228 2.39968E+00 7.97654E+00 5.05225E-01-1.07717E+01 4.61890E-01 1.59032E-01
 -1      6229 5.68425E+00 5.33591E+00 1.38669E-01-7.79201E+00 4.53938E-01-3.89923E-02
 -1      6230 4.98002E+00 2.42026E+00 3.49444E-01-3.33842E+00 1.21848E-01 2.47791E-01
 -1      6231 2.06709E+00 4.12510E+00 1.98553E-01-6.16875E+00 4.22658E-02 1.60949E-01
 -1      6232-3.98224E-03-1.17615E-02-7.35159E-04-8.26261E-03 4.15004E-05-2.39348E-04
 -1      6233 1.63055E+01 1.91438E+01-3.18467E+00-1.83539E+01 1.56688E+00 1.30241E+00
 -1      6234 3.29760E+01 1.67792E+01 1.17079E-01-2.31408E+01 5.66147E-01 8.95400E-01
 -1      6235 3.37757E+01-2.29896E+01-9.61817E-02 3.53924E-02-8.75981E-01 4.30066E-01
 -1      6236-1.45443E-05 2.24027E-04 3.28821E-06 2.70016E-05-8.72397E-06-1.62150E-06
 -1      6237-3.09056E-05-7.83368E-05 3.94442E-06-5.12296E-07-2.23530E-07-3.99498E-06
 -1      6238-2.63697E-05 4.57392E-05 1.03113E-05-4.24688E-05-1.97719E-06 1.60264E-06
 -1      6239 6.41935E+01-1.93516E+01 3.52958E+00-1.51518E+01 1.13328E+00 2.53489E+00
 -1      6240 4.15384E+01-2.09613E+01-4.12878E-01-5.45609E+00 1.05465E+00 4.35017E-01
 -1      6241 3.60636E+01 4.11455E-01 2.05887E+00-1.80632E+01 8.21020E-02 1.17925E+00
 -1      6242-1.04240E+01 2.10066E+01 1.20092E+00-1.84983E+01-9.15163E-02-1.36227E+00
 -1      6243-3.13946E-01 1.17748E+01 2.16232E-01-1.94679E+01-4.79738E-01 2.79974E-01
 -1      6244 6.48165E-05-1.81887E-05 3.25818E-05-5.84786E-05 7.48684E-06 6.40250E-06
 -1      6245-1.26049E+00 1.85529E+00 4.55035E-02-1.08046E-01 1.40175E-02-4.65851E-02
 -1      6246 1.21836E+01 1.92978E+00-7.88167E-01-6.11094E+00-1.32535E-01 5.90958E-01
 -1      6247 1.05282E+01 5.73297E+00-2.66023E-01-1.05327E+01-2.37226E-01-1.93196E-01
 -1      6248 9.90183E-05-4.34107E-05 8.66358E-06-2.82666E-05 3.22461E-06-3.68357E-06
 -1      6249-1.50042E+00 2.19971E+00-2.60421E-04 3.21979E-01 2.37925E-02-8.14681E-02
 -1      6250-3.48072E-04-7.71916E-05-1.26278E-05 8.61807E-05 2.23553E-07 3.00079E-05
 -1      6251 1.91039E-04 1.94040E-04 1.75892E-05-2.42047E-04 3.89083E-06-2.13149E-06
 -1      6252 2.64102E-04 6.88897E-05 1.31952E-05-2.18810E-04 4.67749E-06-4.87115E-06
 -1      6253 7.29579E-02 1.32669E+00 6.82939E-02-6.44147E+00 1.40714E-01 8.00786E-02
 -1      6254 6.95714E+01-1.86016E+01 4.25437E+00 1.57329E+01-1.99208E+00 3.75830E+00
 -1      6255 4.80237E+01-2.05609E+01 1.09382E+00 7.83885E+00-9.90777E-01 1.24425E+00
 -1      6256 4.66446E+01 5.66983E+00 2.65938E+00 2.07688E+01-3.77308E-01 9.58787E-01
 -1      6257-1.36489E+00 1.93405E+00 4.03027E-02 8.24044E-02-2.14734E-02-4.31894E-02
 -1      6258 1.58608E+01 5.67852E+00 2.29528E-01-1.36089E+01 1.46059E-02 5.81440E-01
 -1      6259 1.47921E+02 1.06505E+01-1.12847E+00-1.29194E+01-1.79355E+00 1.02991E+00
 -1      6260 1.12166E+02 2.25673E+01-7.92894E-01 3.78718E+01 3.27938E+00 1.81937E+00
 -1      6261 5.76770E+01 3.00245E+01-9.12216E+00 3.81209E+01 4.33992E-01-7.93722E-01
 -1      6262 1.95194E+02-3.79387E+00-3.92670E-02-4.53357E+00-6.34529E-02 1.57666E-02
 -1      6263 1.92508E+02-2.55319E+00-3.09379E-01-5.80705E+00 1.89038E-03 7.71535E-02
 -1      6264 1.08248E+02 9.47681E+00 1.33361E+00-2.14724E+01 2.26714E+00-6.08638E-01
 -1      6265 1.66733E+02 3.22700E+01 2.85088E+01-8.32606E+00-2.13853E+00-1.13303E+01
 -1      6266-1.07158E-01 1.61079E+00 8.32335E-03 1.30922E-01-9.60872E-04-6.99976E-04
 -1      6267-9.55116E-02 1.64044E+00 3.75948E-03 6.90339E-02-6.53002E-04 2.76362E-03
 -1      6268 4.37803E-05 2.24170E-04 3.42855E-06-1.58467E-04-5.41804E-06-1.66443E-06
 -1      6269-1.05384E-04-5.93871E-05 1.38208E-05 6.50715E-05-3.41070E-06 7.45707E-06
 -1      6270 1.85736E+02 9.13965E+00 1.57934E+00-2.22979E+00 4.62641E-01 2.59572E+00
 -1      6271 9.06439E+00-5.81814E-01 4.89455E-03 1.46234E+00 2.76926E-02-8.87511E-03
 -1      6272-7.23746E-04-3.38193E-04-1.62080E-04 4.65501E-04-1.38849E-04 2.04890E-04
 -1      6273 5.66193E-04-8.24433E-05-3.12875E-05-1.59271E-04-6.01351E-05 1.25537E-04
 -1      6274-6.05528E-05 7.39561E-05 2.79845E-05 6.95627E-05-5.57769E-06-1.93405E-05
 -1      6275 5.27551E-04-9.81415E-05 1.08732E-05 7.35148E-05 3.62992E-06 1.03492E-05
 -1      6276-3.79726E-05-3.70061E-05 2.20309E-05 8.68372E-05-6.46914E-06-4.85482E-06
 -1      6277 1.81723E+02 8.30249E+00-1.14747E+00 8.86734E-01-8.47720E-03-2.97152E+00
 -1      6278 1.82976E+02 7.74629E+00-1.10143E+00-1.06199E+00 3.25923E-01-2.98845E+00
 -1      6279 1.87729E+02 4.38432E+00-1.56571E-01-4.75790E+00 3.19107E-02-5.53110E-02
 -1      6280 1.89997E+02-2.48430E-01-1.59047E-02 6.86409E+00 5.11755E-02-1.22149E-01
 -1      6281-1.08235E-05 8.52894E-05 1.48877E-05-2.75449E-05-1.03681E-05 6.36575E-06
 -1      6282-3.07142E-05 8.94323E-05 1.64927E-05-4.52961E-06-1.14031E-05 9.20611E-06
 -1      6283 5.41653E+01 1.25911E+00 2.40751E+00-2.20090E+01 6.99586E-01-1.66442E+00
 -1      6284 2.43953E+02 6.21962E+00 3.66758E+00-3.50187E+01 7.25407E+00-2.88309E+00
 -1      6285-1.89044E+00 2.69627E+00 6.58716E-02 8.80536E-01 2.31440E-02-6.40095E-02
 -1      6286 2.68658E+00-4.34913E+00-1.05545E+01-5.39425E+01-2.86472E+00 4.74008E+00
 -1      6287 8.71040E+01 1.06939E+00 7.80621E+00-1.90354E+01-1.41389E+00-3.16110E+00
 -1      6288 7.45728E+01-3.45150E+00 1.28004E+00-3.21585E+01-9.72481E-01 3.05549E+00
 -1      6289 5.43632E+01 1.17906E+01 6.33766E+00-2.38646E+01-1.19944E+00 1.49983E+00
 -1      6290 1.88314E+02 3.35158E+00-7.99729E-02-4.37166E+00 5.92592E-03 6.97187E-02
 -1      6291 1.90913E+02-5.31765E-01 3.72027E-01 7.68493E+00 4.63807E-02-8.87232E-02
 -1      6292 1.91846E+02 2.44172E+00-3.66187E+00-1.32631E+01-9.11131E-01 3.94830E+00
 -1      6293 1.85730E+02 6.62230E+00-2.99070E-01-7.56273E+00-1.77265E-01 3.22073E-01
 -1      6294 1.87690E+02 4.42525E+00-2.46585E-01-6.71258E+00-3.45620E-02 2.25025E-01
 -1      6295 1.87036E+02 5.48984E+00-2.63840E-01-5.96196E+00-5.84322E-02 2.11970E-01
 -1      6296 1.86655E+02 5.43961E+00-3.66835E-03-5.03013E+00-6.72439E-02 1.72065E-01
 -1      6297 1.88574E+02 4.41463E-01-3.22659E-01 7.47510E+00-5.11212E-02 1.52227E-01
 -1      6298 1.89020E+02 2.26732E+00-4.15311E-01 8.20357E+00 1.39694E-01 6.74737E-01
 -1      6299 6.23404E-04-2.35769E-04-1.49038E-04 1.40693E-04 1.70434E-04 2.01155E-04
 -1      6300 1.89493E+02-1.93565E+00-3.61857E-01 3.01973E+01-3.40292E-01-3.18597E-01
 -1      6301 1.92448E+02 3.12307E+00-3.38993E+00 1.41770E+01 7.33611E-01 3.42704E+00
 -1      6302 1.59301E+02 1.74889E+01-2.97030E-01-2.75994E+00-3.00723E-01-2.94455E-01
 -1      6303 1.44715E+02 7.38159E+00-7.23230E-01 9.48449E+00 1.55336E+00 4.68866E-01
 -1      6304-7.05431E-05 7.34124E-05 2.21459E-06-2.99472E-05 3.36034E-06-9.49291E-07
 -1      6305 3.20279E-04-2.28808E-05-3.83098E-04 1.58742E-04 1.36388E-04 2.02979E-04
 -1      6306-9.29762E-02 1.63962E+00 5.20059E-03 6.94632E-02 1.21965E-04-2.51043E-03
 -1      6307 3.78468E-04 3.42067E-05 1.28755E-05-2.24861E-04-7.96764E-07 2.81346E-06
 -1      6308-4.69490E-04-1.51812E-04-4.33647E-05 1.07020E-04-2.80979E-06-1.35220E-05
 -1      6309-5.83431E-02 1.82686E+00 1.94064E-01 6.06107E+00 1.26577E-01-8.81612E-02
 -1      6310 5.25120E+01 1.10784E+01 1.45309E+00 2.40268E+01-1.74959E+00-5.40449E-01
 -1      6311 6.08335E+01 1.20576E+01-1.24736E+00 2.86658E+01-3.14384E+00 6.63328E-01
 -1      6312 2.67093E-04-2.63561E-05-1.85492E-04-6.59942E-06 1.82032E-04 2.60214E-04
 -1      6313 1.82524E-04-8.28443E-05-2.07401E-04 7.16631E-05 6.59431E-05 9.58226E-05
 -1      6314 2.97548E-04 2.54229E-06-2.42098E-04 1.84046E-04 1.69775E-06 6.85112E-06
 -1      6315-1.44584E+00 2.09690E+00-1.42210E-02-2.49275E-01 1.62750E-02 5.57305E-02
 -1      6316 9.45229E-05-5.14590E-05 3.24377E-05-1.30387E-05 4.07844E-06-6.27724E-06
 -1      6317 1.97547E+01-1.47243E+01-2.37284E-01 5.11425E+00 1.67048E-01 2.29604E-01
 -1      6318 1.40046E-04-8.87782E-05-6.67955E-06 7.11851E-05 8.71841E-06-1.75636E-05
 -1      6319 4.73943E-04-3.04333E-05 5.35164E-06 1.55853E-04 9.20209E-07 1.61451E-05
 -1      6320-4.50708E-04-8.23335E-05 7.10495E-07 6.87764E-05 1.47552E-05-5.07409E-05
 -1      6321 1.43906E+02-1.08657E+00-2.39512E+00 2.53093E+01-2.84504E+00 4.54752E+00
 -1      6322 9.35490E+01-1.31545E+01-1.48177E+00 2.86528E+01 2.20752E+00 3.39489E+00
 -1      6323 1.85433E+02 9.19819E+00 4.91006E-01-3.62692E+01 2.05319E+00 1.48782E+00
 -1      6324 1.59356E+02 2.15227E+00-1.99556E+00-2.31838E+01 7.49921E-01 6.06897E-01
 -1      6325 9.33250E-04-2.34122E-04 9.26490E-06-2.85108E-04 1.35199E-04-1.31748E-04
 -1      6326 2.99077E-04 7.10653E-05-2.94989E-06-2.45007E-04-9.14981E-06 8.32870E-06
 -1      6327 6.74197E+01-7.22743E+00 3.86284E-01 1.82562E+01 2.01197E-01 3.67193E-01
 -1      6328 1.89743E+02 1.18688E+00-5.20968E-03 7.29476E+00-7.27838E-02 8.72014E-02
 -1      6329-5.52121E-04-7.98129E-05 4.24340E-06 3.45479E-05-2.49208E-05 5.82818E-07
 -1      6330 3.64525E-04 3.81250E-06 1.34155E-05 2.30438E-04 1.61155E-05 1.55814E-05
 -1      6331 6.13191E-04-6.23713E-05 3.84985E-05-2.10141E-04 7.88609E-06-4.15223E-07
 -1      6332 2.26551E-04 3.58823E-05-3.14585E-04 7.49505E-05 2.47551E-04 3.66048E-04
 -1      6333-1.79318E-05 2.24510E-04-4.79467E-06-6.61810E-05-5.57665E-06 6.49094E-06
 -1      6334-2.35498E-03 1.67722E-03 3.70285E-03-7.19468E-04 1.10873E-03-2.95800E-04
 -1      6335 6.68661E+01-5.61444E+00-3.53066E+00 2.91867E+01 2.35035E+00 1.24674E+00
 -1      6336 3.36450E+01 6.59564E+00 1.52947E+00 3.24625E+01-2.67625E-01-8.66926E-01
 -1      6337 1.38399E+01 1.38142E+01 1.09053E+00-1.44581E+01-1.56236E-01 1.41583E+00
 -1      6338 5.01296E-05-1.00558E-04-1.48131E-05 9.16885E-05 1.28890E-05 1.09873E-05
 -1      6339 7.33233E-05-1.21847E-04 8.45696E-06 2.00437E-06 1.14067E-05-1.80034E-05
 -1      6340 4.36541E-05-6.39543E-05 8.84959E-06-1.26725E-05 1.08771E-05-2.33687E-06
 -1      6341 1.16614E+02 2.97754E+00 2.99693E+00-2.36082E+01-2.69348E+00 5.20008E+00
 -1      6342 8.76512E+01 6.36083E+00-7.86657E-01-2.50819E+01 3.58747E-01-8.50846E-01
 -1      6343 1.32212E-04-6.52755E-05 2.01856E-05-2.88386E-06 1.38810E-06-3.98130E-05
 -1      6344-7.06120E-04-1.45830E-04-2.04266E-05-1.10657E-04 2.59405E-05 2.07181E-05
 -1      6345 1.66633E+02 2.20162E+01 6.06299E-01-3.08278E+00-9.87288E-01-3.97013E-01
 -1      6346 1.36021E+01 1.09165E+01 8.63405E-02-1.35357E+01 5.12036E-02-1.17653E+00
 -1      6347-1.03036E-05 2.26015E-04-3.08168E-07-9.58544E-05-4.37774E-06 3.76160E-06
 -1      6348 1.89058E+02 3.11744E-01-1.90597E-01 7.12332E+00 5.18944E-02-1.11266E-01
 -1      6349 1.89148E+02 6.16996E-01-2.28183E-01 7.71113E+00 1.12703E-01-3.52626E-01
 -1      6350 1.88926E+02 1.44495E+00-4.73304E-01 7.69029E+00-2.63191E-02-5.12651E-01
 -1      6351 1.89574E+02 2.10173E+00-2.44347E-02 8.08173E+00 9.11829E-02-3.16487E-01
 -1      6352 1.89585E+02 1.19156E+00-1.11114E-01 7.29468E+00 4.43838E-02-1.47512E-01
 -1      6353 1.49819E+01 6.66971E+00 1.28689E-01-1.27625E+01-1.79887E-01 5.85257E-01
 -1      6354 2.37751E+01 1.01221E+00 4.19471E-01-1.49933E+01-1.34966E-02 2.71513E-02
 -1      6355 1.87564E+02 4.37570E+00-2.98831E-02-1.08791E+00 2.54629E-04 6.47680E-02
 -1      6356 1.75201E+02 3.79239E+01 2.45619E+01-1.02043E+00 8.43107E-01-1.28098E+01
 -1      6357 1.98388E+02 4.81668E+01 3.64701E+01-6.34688E-01 1.36408E+00-2.63072E+01
 -1      6358 1.43045E+00 1.69129E+00 2.00661E-02-1.73547E+00 7.88715E-03 7.47656E-03
 -1      6359 6.22387E-04-1.19452E-04-2.44957E-06-9.62052E-05 5.82205E-06-4.10503E-06
 -1      6360 1.10153E+02-7.62408E-01 6.74918E-01-2.31429E+01 1.78281E+00-6.03996E+00
 -1      6361 1.89549E+02 1.53885E+00-1.70814E-02 7.38258E+00 1.17020E-02-1.89965E-01
 -1      6362 2.85358E-01 1.75189E+00-8.68054E-03 8.46479E-01 2.10677E-03-5.83807E-03
 -1      6363 2.85792E-01 1.75131E+00-8.80939E-03 8.46314E-01-1.60691E-03 5.81637E-03
 -1      6364-1.01469E-06-6.61780E-05 8.68366E-06 8.50140E-05-3.86866E-06 1.15391E-05
 -1      6365 1.77323E+02 1.11267E+01-1.07868E+00-1.62191E+00 2.04829E-02-1.63077E+00
 -1      6366 1.82140E+02 9.89441E+00-2.81560E-01-2.03282E+00 1.24076E-01-1.67569E+00
 -1      6367 6.78672E-04 1.45883E-04-4.02554E-05-3.70410E-04 2.18380E-05-1.29203E-04
 -1      6368-2.86927E-04-1.54935E-04 5.27917E-05 3.24866E-04 2.36323E-04-4.10614E-04
 -1      6369 2.13761E+02 2.26227E+01 8.71514E+00-3.35880E+01 9.25358E-03 1.65238E+00
 -1      6370 1.98610E+02 1.83180E+01 3.53781E+00-2.79803E+01-1.03581E+00 6.18635E-01
 -1      6371-1.86734E-05 2.28983E-04 9.56322E-06 1.82710E-05-8.05156E-06-8.36612E-07
 -1      6372-5.95725E-05-1.17791E-04-7.81067E-06-5.10138E-05 2.85852E-06 3.08387E-06
 -1      6373-1.83967E-05 1.99437E-04 1.99060E-06 5.79531E-05-1.60834E-06-1.51337E-06
 -1      6374 5.71404E-04-4.99746E-05 3.14855E-05-1.41944E-04 4.00505E-06-1.70244E-05
 -1      6375 4.52098E-05-9.97996E-05-2.38513E-05 5.78366E-05 7.13776E-06 4.67773E-05
 -1      6376 7.39998E-04-1.05688E-04 2.51698E-05-4.36776E-05 9.45224E-06 3.82819E-05
 -1      6377 1.89279E+02 6.77383E-01-3.21610E-01 6.84503E+00-3.83601E-02 1.86305E-01
 -1      6378 6.57452E+01 1.97457E+01-1.12226E+00 3.62334E+01-4.08863E+00 7.70483E-02
 -1      6379 8.51083E+01 1.23192E+01-3.61795E-01 3.07166E+01-3.15582E+00 4.27743E-01
 -1      6380-2.96512E-04-3.18809E-05 2.24609E-05-6.68866E-05-7.92858E-06-3.52230E-05
 -1      6381 1.91252E-04 1.67947E-04-5.84298E-06 2.66313E-04 1.52945E-05 9.85622E-06
 -1      6382 9.07400E+00-5.79350E-01 1.54877E-02 1.49014E+00-3.67229E-02-2.17753E-03
 -1      6383 1.34970E+01-1.03268E+01 2.42716E-01 8.83106E+00 3.21156E-01 4.05585E-02
 -1      6384 1.50945E+02 2.15914E+01-1.87610E+00-9.81755E+00 1.70889E+00-2.62323E+00
 -1      6385-8.59505E-03-1.10104E-02 1.33558E-03-1.53494E-02 2.12587E-03-9.88713E-05
 -1      6386 1.14775E-03-1.11323E-02 9.99022E-04-9.82730E-03 1.64287E-03-1.44784E-04
 -1      6387 1.89871E+02 6.84326E-01-1.13895E+00 7.20636E+00-9.77027E-02 6.52820E-02
 -1      6388 1.89908E+02 1.96948E+00-1.74194E-01 7.27043E+00-1.01149E-01-2.56497E-01
 -1      6389-3.81319E-05-1.15586E-04 2.31165E-06-1.59453E-05-1.32509E-06 3.52412E-06
 -1      6390-2.15815E-05 8.67093E-05 9.57672E-06-6.48437E-06-2.21827E-06-1.03232E-06
 -1      6391 5.15334E-06 2.40341E-04 9.99417E-06-7.69043E-05-9.85941E-06 1.89049E-06
 -1      6392-3.79882E-05-6.08749E-05 4.17134E-06 2.48341E-05-9.34826E-07 1.05510E-05
 -1      6393-2.84937E-05 2.03830E-04-7.40237E-06-3.34834E-05-6.04150E-06-2.44870E-06
 -1      6394-4.17669E-05-7.91762E-05 6.59061E-08-3.21420E-05-4.43876E-06-5.42205E-06
 -1      6395 1.57071E+02 8.11436E+00 9.94107E-01 1.90403E+00 1.69701E+00 9.20351E-01
 -1      6396 5.45725E-04-4.57975E-05 1.45411E-05-1.73529E-04-3.17942E-06-5.52712E-06
 -1      6397-4.86537E-04-5.11503E-05 8.56968E-06-3.39613E-05 1.45284E-05 3.82536E-05
 -1      6398 4.40246E-04 4.75409E-05 9.78909E-06-2.62602E-04 7.54392E-06-1.01101E-05
 -1      6399 1.88072E+02 1.19863E+00-3.63305E-01-8.13468E+00 1.36664E-01 2.50508E-01
 -1      6400 1.87643E+02 4.98420E+00-2.21506E-01-9.20251E+00-3.37859E-02 3.81644E-01
 -1      6401-3.71332E-04-1.83850E-04-4.52518E-05-1.30495E-04-5.36126E-06 1.33328E-05
 -1      6402 1.96563E-04 1.78080E-04 2.68797E-05 2.33877E-04-5.80683E-06-9.13664E-06
 -1      6403 5.80427E-04-2.44606E-05-1.54339E-04-2.80280E-04-1.67361E-04 2.28286E-04
 -1      6404 1.89367E+02 3.89222E-01 1.02052E-01 7.00996E+00 4.66343E-02-2.10484E-01
 -1      6405 1.89937E+02 5.27548E-01-1.27012E-01 6.74286E+00-2.54825E-02 1.31893E-02
 -1      6406 1.20360E+02 2.02725E+01 1.13124E+00-3.57070E+01 2.70462E+00-2.45787E+00
 -1      6407-2.42893E+00 9.88468E+00-4.79565E-02 8.98271E+00-1.32271E-01 1.28430E-01
 -1      6408-1.24405E-05 2.17025E-04-1.21364E-06 7.22544E-05-4.36735E-06-1.97115E-06
 -1      6409-8.37305E-04-3.37683E-04-1.21491E-04 5.07100E-04 1.50715E-04-2.88397E-04
 -1      6410 1.29559E-04-6.71319E-05-1.67084E-04-2.84101E-05 2.00574E-04-2.90962E-04
 -1      6411 5.39070E-04 3.23987E-07 1.36040E-05-2.11184E-04 3.80986E-05-5.94840E-05
 -1      6412 2.16182E+02 1.80317E+01 8.55690E+00-3.36279E+01-1.56739E-01-1.22422E+00
 -1      6413 2.05807E+02 2.81516E+01 9.09543E+00-3.20260E+01 2.98300E-01-3.95021E-01
 -1      6414 9.64817E+01-1.10256E+01 6.28090E-01 2.91988E+01-2.06557E+00-4.71749E+00
 -1      6415 1.88912E+02 2.78921E+00 1.39412E-01 9.20199E+00 2.39473E-01-4.73818E-01
 -1      6416 1.52462E+02 2.04524E+01-2.85253E+00 4.41852E+00 2.73672E+00 1.71207E+00
 -1      6417-3.16089E-01-6.46084E-02 1.00921E-01-1.16514E-01-5.22245E-02-1.65747E-01
 -1      6418 1.02078E+01-6.39455E-01 3.03804E-02-7.53154E-01 2.88146E-02 4.94582E-03
 -1      6419 1.02048E+01-6.44778E-01 3.25548E-02-7.49819E-01-2.54849E-02-2.34748E-03
 -1      6420 3.01842E+00 2.17255E+00 2.87414E-01-2.97951E+00 6.95352E-02 4.23600E-03
 -1      6421-4.25268E-04-1.13559E-04-2.49300E-05-1.03979E-04-2.79787E-06 1.23931E-05
 -1      6422 4.97533E-04 3.53477E-04-4.45848E-04-5.74142E-05 1.47500E-04-2.46315E-04
 -1      6423 9.09361E-05-1.09515E-04-3.61470E-04-1.40609E-04 1.13637E-04-1.71476E-04
 -1      6424-7.65526E-04-1.21708E-04-4.36568E-05 1.33027E-05-1.04640E-05-1.23959E-05
 -1      6425 5.09675E-04-1.96036E-05 2.85036E-05 1.37109E-04 6.50523E-06 1.87699E-05
 -1      6426 8.43994E+01-1.23035E+01-1.60949E+00-3.13723E+01-1.64211E+00 5.01489E+00
 -1      6427 5.57544E+00 3.54928E-01 9.44283E-02-2.76803E+00 9.14469E-04 1.93428E-03
 -1      6428 1.80387E+02 1.01814E+01-6.92073E-01 1.81150E+00 2.86806E-02-1.38699E+00
 -1      6429 7.46983E+01 6.25284E-01 2.39380E+00-3.13535E+01 2.09235E-01 1.09190E+00
 -1      6430 1.32206E+02 3.93371E+01 6.60089E-01-4.31778E+01 9.58259E-01-1.83883E+00
 -1      6431 1.27930E+02 3.74066E+01-1.49274E+00-4.66606E+01-1.68988E+00 1.36705E+00
 -1      6432 1.65171E+02 3.05958E+01 4.46513E+00-2.80003E+01 2.16176E+00-4.62234E+00
 -1      6433 1.26111E+02 7.37076E-01-5.72925E+00-1.29818E+01 1.68444E+00-1.62508E+00
 -1      6434 1.83669E+02 2.61411E+00 1.23747E+00-3.99232E+01 1.95514E+00 4.23845E+00
 -1      6435 1.62289E+02 3.73062E+01 1.64190E+00-1.21427E+01 2.83124E+00 2.06550E+00
 -1      6436 3.98105E-06 2.48848E-04 1.11036E-06 1.03702E-04 4.03913E-07-2.94051E-06
 -1      6437-1.20526E-04-5.97109E-05 5.77803E-06-6.52376E-05-1.19192E-05-1.43681E-05
 -1      6438 5.29936E-05 2.27863E-04 2.17887E-07 1.47097E-04 1.97136E-06 4.03886E-06
 -1      6439 2.43528E-04-4.46637E-07-1.99871E-04-1.06560E-04 2.49667E-05-3.05515E-05
 -1      6440 1.73781E+02 4.15503E+01 3.68975E-01 4.26635E+01 3.16014E-01-4.93108E+00
 -1      6441-6.42955E-05-8.33773E-05-2.72040E-06-3.70913E-05-4.02923E-06-8.25618E-06
 -1      6442 9.31051E-05-1.47250E-04-9.34901E-05 1.14120E-04 4.70726E-06-2.52775E-05
 -1      6443 1.90497E+02 2.33178E+00-9.07779E-01-1.01361E+01 1.19794E-01 1.49108E+00
 -1      6444 1.31661E+01 1.51433E+01-5.58082E-01-1.43143E+01-2.25284E-01 2.12484E+00
 -1      6445-8.83700E-05-1.18340E-04-7.40466E-06-5.75913E-05 8.46943E-07 2.23374E-07
 -1      6446-5.51288E-06 2.22528E-04 1.99712E-06 8.75275E-05-4.75268E-06-2.93780E-06
 -1      6447 1.55301E-04-1.27852E-04-1.16171E-04 5.48434E-05-3.23134E-06 2.42560E-05
 -1      6448 1.56895E+02 2.67861E+01 2.25040E+01-1.03763E+01 2.21923E+00 9.29443E+00
 -1      6449 8.52577E+01-1.13226E+01-1.46537E+00-3.18185E+01 1.24615E+00-4.70243E+00
 -1      6450 1.89256E+02-2.20969E-01 9.91612E-02-7.20960E+00 1.72819E-02 6.99468E-02
 -1      6451 1.91215E+02-1.30503E+00 7.62156E-02-7.52179E+00 3.71891E-02 2.87274E-02
 -1      6452 1.88940E+02-6.08339E-01-6.23847E-02-7.53427E+00 1.65341E-02 6.94339E-03
 -1      6453 1.80375E+02-1.98440E+00-1.06196E-02 1.63464E+01 1.05027E-01-2.20400E-01
 -1      6454 1.84205E+02-3.19253E+00-1.47270E+00 1.44211E+01 3.38377E-01 1.57415E-01
 -1      6455-1.28888E-04-9.28263E-05 1.11380E-05-8.76102E-05-1.47754E-06 2.11407E-06
 -1      6456 3.74346E-05 2.05756E-04 7.67965E-06 1.37681E-04-5.60159E-07-6.43672E-06
 -1      6457-2.93264E-04-2.96347E-04-2.23651E-04-5.54975E-04-2.15652E-04-4.18580E-04
 -1      6458 2.96678E-04 7.67471E-05 1.36808E-05 2.17731E-04 7.17098E-06 7.40221E-06
 -1      6459 1.88559E+02-8.98849E-01 1.59935E-01-9.32133E+00-1.54040E-01 1.58183E-01
 -1      6460 9.83420E-05-5.01627E-05 1.22212E-05-1.19843E-04 2.41097E-06 1.12808E-05
 -1      6461 1.40277E+02-1.92856E-01-1.63448E+00 1.99889E+01 5.74271E-01-3.69595E-01
 -1      6462 5.56220E+01 1.88774E+01-1.40139E+00 3.25501E+01-2.71997E+00 1.34927E+00
 -1      6463 3.50305E-04 9.86185E-05 1.52782E-05 2.54764E-04 5.50144E-06 1.09864E-05
 -1      6464 5.36505E-02 1.72273E+00-7.26907E-03-5.27199E-01 3.92363E-03-6.46025E-03
 -1      6465 3.26955E-04 2.85063E-05 2.37967E-05 1.97008E-04 5.94390E-06 1.48832E-05
 -1      6466-5.15851E-04-1.31736E-04-1.45857E-05-8.94806E-05-2.31680E-05-7.84995E-06
 -1      6467 9.72216E+01 4.17726E+01-5.57041E+00-5.74900E+01-7.07012E+00 6.90061E+00
 -1      6468 1.88692E+02 3.05260E-01-3.44763E-01 6.99962E+00-6.09169E-02 5.60898E-02
 -1      6469-1.70811E-05-5.38850E-05 1.61700E-05-1.24289E-04 1.36626E-05 3.86239E-06
 -1      6470 8.31621E+01 1.27989E+00 6.58876E+00-1.74030E+01 1.40921E+00 1.56623E+00
 -1      6471 1.07002E+01-2.89561E+00-9.07678E+00-5.00531E+01 3.29263E+00-1.30973E+00
 -1      6472 1.39907E+01 2.59505E+00 8.09328E-02 7.30229E+00-2.52296E-01-1.36018E-01
 -1      6473 1.61140E+02 8.43449E+00 6.20575E-01-3.58819E+00-1.55455E+00 1.23388E+00
 -1      6474-7.54641E-04-7.51933E-05-3.13042E-05-7.43985E-05-1.68674E-05 5.15825E-06
 -1      6475 1.92599E+02-2.17721E+00-1.07243E-01-5.50214E+00 1.46989E-02 6.65134E-02
 -1      6476 1.87733E+02-4.91106E-01 9.52396E-02-8.82958E+00-1.93276E-01 5.80192E-02
 -1      6477 1.88223E+02 3.48057E+00-1.06656E-01-5.57961E+00-7.58995E-04-1.92816E-02
 -1      6478 1.90854E+02 3.54414E+00-1.98060E-01-1.04391E+01-9.87929E-02-1.14314E+00
 -1      6479 1.25107E+02 3.83932E+01 1.15662E+00-4.72459E+01 4.52673E+00-2.94417E+00
 -1      6480 7.33640E+01 8.14648E-02 2.42356E+00 3.10381E+01 3.79497E-01 3.47355E-01
 -1      6481 6.57091E-06-9.62272E-05-9.42196E-07-7.35003E-05-2.34006E-06 1.33676E-05
 -1      6482 1.19527E+02 9.79563E-01-3.36297E+00 2.24201E+01-9.77298E-01-6.04697E-01
 -1      6483 1.42601E+02-1.16815E+01-9.95920E+00 4.15084E+01 5.57404E+00-3.38777E+00
 -1      6484 1.92913E+02-1.78666E+00-4.99198E-02-4.02211E+00-5.69439E-03 5.78634E-02
 -1      6485 6.29730E-04-7.89830E-05 4.21533E-05 4.67005E-05-1.07767E-05-4.11870E-06
 -1      6486-7.95833E-04-1.73818E-04-1.90834E-05-1.27915E-04-1.07410E-05 3.12837E-05
 -1      6487-1.10734E-03-4.21669E-04-3.86306E-05-5.55847E-04 3.00540E-04 2.86987E-04
 -1      6488-8.49083E-04-3.62587E-04-3.76545E-04-5.07759E-04 3.04514E-04 4.22350E-04
 -1      6489 5.82568E-04 1.75581E-04 9.05952E-05 2.34316E-04 4.58624E-05 1.13943E-04
 -1      6490 1.31750E+02 4.19867E+00-1.60233E+00 2.18154E+01 1.55109E+00 1.09301E+00
 -1      6491 2.25695E+02 4.73266E+01 2.60431E+01 4.00237E+01-1.69661E+00-1.01867E+00
 -1      6492-5.09531E-02-2.06170E-02 3.57812E-03 4.76095E-02-1.34889E-03-7.05253E-04
 -1      6493-1.19827E-01-1.44579E-02 2.02014E-02 6.80494E-02 7.21924E-03-1.44292E-02
 -1      6494 1.85834E+02-1.10812E+00-5.58412E-02-9.92447E+00-2.62633E-01 1.23709E-01
 -1      6495-8.29914E-04-3.33167E-04-2.61173E-04-3.18104E-04 6.16398E-05 1.44491E-04
 -1      6496 1.56203E+02 6.31094E+01 1.27898E+01 5.40091E+01 4.65515E+00 3.98156E+00
 -1      6497 1.32404E+02 3.02088E+01 1.02368E-01 3.81930E+01 3.15880E+00 2.84004E+00
 -1      6498-1.24481E+00 2.35259E+00-7.12216E-02 4.41323E+00 9.43405E-02-7.36295E-02
 -1      6499-3.01133E-01 8.87483E-03-2.05165E-02-1.64671E-01 2.17276E-02 6.26922E-02
 -1      6500 3.57408E+01 2.44292E+01-3.00381E+00 3.02150E+01-4.97208E+00-9.55272E-01
 -1      6501 3.01204E+01 2.31915E+01-3.21633E+00 2.62126E+01-1.96196E+00-6.05818E-01
 -1      6502 3.20882E+01 1.75098E+01-7.80803E+00 2.30205E+01-2.97991E+00-6.51605E-01
 -1      6503 1.24861E+02 8.12652E+00 1.81953E+01 1.63530E+01 1.45927E+00-5.74908E+00
 -1      6504 1.02739E+01-6.63514E-01 3.20169E-02 6.80088E-01 2.88244E-02 3.25560E-02
 -1      6505 1.51844E+02 2.42762E+01-4.72299E-01-1.08041E+01-1.44514E+00 1.53157E+00
 -1      6506 6.16016E-04-5.46693E-05 2.41991E-05 2.12752E-04-6.97968E-07 1.99293E-05
 -1      6507 1.70995E+02 3.89685E+01 4.26971E+00-4.55829E+01-1.80589E+00 4.96521E+00
 -1      6508 1.77321E+02 2.56886E+01-4.54469E+00 2.62544E+01 3.99724E+00 1.65858E-01
 -1      6509 5.18370E-04-6.67335E-05-1.35964E-05 1.71459E-04-5.58898E-05-1.26634E-04
 -1      6510-7.84358E-04-1.03859E-03-5.02418E-05 2.23762E-04-1.46922E-04-2.46024E-04
 -1      6511 4.32671E-04-2.09236E-05-1.95163E-05 1.83963E-04 5.26101E-05 6.32627E-05
 -1      6512 2.03334E+02 3.10862E+01 1.48619E+01-3.34697E+01-5.13749E-01 8.71217E-01
 -1      6513 2.03637E+02 3.07076E+01 1.49007E+01-3.87275E+01-4.96170E-01 2.40134E+00
 -1      6514 4.72794E-04 5.62852E-06-9.20772E-05 2.12756E-04-1.24500E-04-2.08024E-04
 -1      6515-9.15640E-04-4.87606E-04-3.72358E-04-3.95365E-04-9.95997E-05-1.90864E-04
 -1      6516-7.96676E-04-3.01663E-04-2.36839E-04-5.36248E-04-3.76756E-04-3.63230E-04
 -1      6517-3.85102E-01 6.91287E-03 1.12861E-02-7.88265E-02 3.24611E-02 1.06983E-01
 -1      6518-4.70002E-02-1.83785E-02 4.76533E-03 4.53766E-02 1.76931E-03 3.00061E-03
 -1      6519 1.57428E+02 7.50489E-01 5.33844E-02 1.88238E+01-3.38722E-01 4.39574E-01
 -1      6520 6.67838E+01 3.06323E+01-7.35033E+00 5.14528E+01 5.81379E+00 2.18022E+00
 -1      6521 1.08786E+02 4.79622E+01 2.19363E+00 5.96547E+01 8.46038E+00 7.45112E+00
 -1      6522 3.00155E+01 2.19613E+01-5.43628E+00 2.91911E+01 3.49883E+00 9.65270E-01
 -1      6523 2.09082E+02 3.90493E+01 1.84210E+01-3.39813E+01 6.87218E-01-4.68575E-01
 -1      6524-5.76415E-02-1.96888E-02 2.62561E-03-4.67964E-02 7.73997E-04-6.48062E-03
 -1      6525 1.53061E+02 4.58492E+01 9.41721E+00 4.69769E+01 1.45839E+00 2.77936E+00
 -1      6526 1.67673E+02 4.06838E+01 2.83252E+00-4.78637E+01 2.79438E+00-8.55821E+00
 -1      6527 1.83428E+02 3.11171E+01 2.41740E+00-3.00570E+01-1.54031E+00-2.57777E+00
 -1      6528 1.37374E+02 6.35062E+00-1.02781E+00 1.70626E+01-1.47207E+00-8.91332E-02
 -1      6529 1.78751E+02 1.46781E+01-7.96189E-01 4.37489E+00 1.11798E-01-4.22934E-01
 -1      6530 1.83098E+02 1.21911E+01-1.66797E+00 3.07522E+00 3.94763E-01-1.22381E-01
 -1      6531 1.37253E+01-3.22925E+00-2.90691E-02-1.73476E+00 8.21127E-03-1.66111E-02
 -1      6532 2.22214E+02 2.69985E+01 1.53084E+01 2.22467E+01-6.20764E-01 7.57709E-01
 -1      6533 1.79174E+02 1.29751E+01-8.28811E-01-4.54906E+00 5.01505E-01-1.41804E-01
 -1      6534 1.92136E+02-7.32135E-01 3.27571E-02-4.77732E+00 6.52515E-02 2.66831E-02
 -1      6535 1.79934E+02 1.02017E+01-1.48084E+00-5.94400E-01-1.77873E-02-1.14672E+00
 -1      6536 1.74231E+02 9.09149E+00-9.11509E-03 3.95479E+00 1.03904E+00 2.58333E+00
 -1      6537-3.73291E+00 5.63329E+00-1.55942E-01 2.89740E-01-5.00040E-02-1.17366E-01
 -1      6538 2.00570E+02-6.45051E+00 4.24395E-01 1.04192E+00 7.14311E-02-3.30930E-01
 -1      6539 1.83706E+02 8.16665E+00-1.93875E-02-4.44460E+00 1.76478E-01-3.47420E-01
 -1      6540-1.10771E-01 1.66255E+00 2.28043E-02-3.90893E-01-3.44469E-04-2.25437E-03
 -1      6541 2.31549E-01 2.05792E-02 5.80301E-02-1.08210E-01 2.81836E-02 9.28819E-03
 -1      6542 2.12554E+02-1.43597E+01-1.21357E+00-2.39173E+00 6.17177E-02 3.17683E-01
 -1      6543 2.12958E+02-1.47669E+01-1.32070E+00-2.48134E+00-5.28420E-02-3.63556E-01
 -1      6544 1.98802E-01 5.48650E-01-7.68235E-02 2.72885E-01-3.26001E-02-1.93462E-02
 -1      6545 7.30182E-01 1.69005E+00 3.06329E-01 5.09370E+00 1.17650E-01-1.11817E-02
 -1      6546 1.89501E+02 1.53413E+00-1.94987E-01-5.07167E+00 4.91083E-02-2.84346E-02
 -1      6547 1.88897E+02 3.09066E+00 3.37867E-02-3.47721E+00 6.74750E-03-8.60551E-02
 -1      6548-1.47372E-01 1.54007E+00 1.82663E-02-3.72320E-02 1.43962E-03-1.30361E-03
 -1      6549 9.49475E+00-1.03914E+00 1.41327E-01-1.73534E+00-1.23511E-02 8.11014E-03
 -1      6550 9.35483E+00-1.07058E+00 1.15254E-01-1.76551E+00 1.24896E-04 3.63534E-03
 -1      6551 9.48711E+00-1.04384E+00 1.35578E-01-1.73458E+00 1.20723E-02 1.71320E-03
 -1      6552 2.36166E-01 7.72567E-01 2.01862E-01 4.04668E-01-1.11785E-01-5.49957E-02
 -1      6553 1.16968E-01-9.22774E-02 1.41164E-03-5.73399E-02 6.17001E-03-1.48657E-03
 -1      6554 1.64627E+02 3.11457E+00 9.19337E-01 2.34288E+01 6.36122E-01 1.63124E+00
 -1      6555 2.22987E+02 2.54664E+01 1.46725E+01 2.39606E+01 4.32865E+00 5.38539E-01
 -1      6556 7.77413E+01 1.11492E+01 2.19949E+00 1.94460E+01-1.80339E+00-7.37301E-01
 -1      6557 2.23089E+02-1.19501E+01 7.32249E-01 1.61105E+01 9.01429E-01 1.29284E+00
 -1      6558 1.89724E+02 4.93304E-01-1.29434E-01 6.18831E+00 2.24648E-02 7.44779E-02
 -1      6559 2.23753E+02-1.31210E+01-6.10975E-01 1.66800E+01-1.30340E-01-9.17397E-01
 -1      6560 1.66672E+02 2.90389E+01 5.47318E-01-6.95962E+00 6.31558E-02 1.81405E-01
 -1      6561-3.43995E+00 9.45975E+00 4.87657E-01 5.28600E+00 8.12982E-02 8.01526E-02
 -1      6562 1.90196E+02 1.07079E+00-2.02029E-01 6.74085E+00 2.52975E-02-1.31988E-01
 -1      6563 1.75062E+02 1.83050E+01-1.39515E-01-1.07681E+01-7.91759E-01 1.11150E+00
 -1      6564 1.79601E+02 1.06029E+01-1.36055E+00 2.06763E-02 6.02224E-02-1.19031E+00
 -1      6565 1.73870E+02 1.55695E+01-8.83295E-01 1.88462E+00-3.91714E-01-1.35138E+00
 -1      6566-1.20199E+01 1.67586E+01 1.92969E-01 3.91089E+00-1.12654E-01-5.49047E-01
 -1      6567 1.02578E+01 3.88363E+00-2.17252E-01-1.03618E+01 3.12121E-01-6.31862E-02
 -1      6568-6.02277E-05 3.81221E-04-6.13103E-05-3.61179E-04 2.02708E-04 5.74822E-04
 -1      6569 1.06295E-01 1.70891E+00 2.13797E-02 7.16703E-01-4.88728E-03-5.47553E-03
 -1      6570 1.60188E+02 1.55926E+01-3.25677E-01-2.58979E-01 6.82935E-02-3.00733E-01
 -1      6571-6.85809E-02-5.43753E-02 2.16130E-02-1.30805E-01-8.18335E-04 8.35055E-03
 -1      6572-2.25698E-02-4.15524E-02-8.27817E-05 6.46627E-02 2.02415E-03 5.06415E-03
 -1      6573-3.04389E-02-1.48320E-02 1.61773E-03-2.50181E-02-1.51825E-03 1.48426E-03
 -1      6574 1.31575E+02 9.09458E+00-1.87637E+00-1.47996E+01-8.32981E-01 1.36244E+00
 -1      6575 2.91031E+00 1.29862E+00 6.55306E-02 2.57749E+00-8.34646E-03-2.32596E-02
 -1      6576 1.84628E+02 7.94560E+00-3.22852E-01-5.59142E+00-1.48259E-01 2.98064E-01
 -1      6577-1.63328E-05 8.73401E-05 2.30838E-05-5.07067E-05-5.60594E-06 6.81273E-07
 -1      6578 1.92602E+02 8.77193E+00-9.06877E-01 1.39794E+01-2.76228E-01 3.96153E-01
 -1      6579 1.88752E+02 1.04302E+01 1.62316E+00 5.47719E-01 3.13389E-01-1.78126E+00
 -1      6580 8.42274E-04-1.29491E-04 2.40954E-04-2.91288E-04-3.36047E-04-2.21351E-04
 -1      6581 1.59799E-04-1.29289E-04-2.36171E-04 4.09303E-04 2.16633E-04-5.30754E-04
 -1      6582 1.91360E+02 1.91188E+01 1.92506E+00 1.90426E+01-3.73296E-01-1.42267E+00
 -1      6583 2.61475E+01 3.27435E+00-7.24648E-02 1.34867E+01-5.94226E-01 2.87885E+00
 -1      6584-3.95327E-05 7.58288E-05 8.18344E-06 9.03216E-06-1.26958E-05 8.90673E-06
 -1      6585 1.11814E+00 1.70203E+00-8.73220E-03-2.29887E+00-1.39116E-02-1.59472E-02
 -1      6586-3.67947E-03-3.34567E-03 9.39425E-04 3.32800E-03 1.38027E-03-2.02427E-04
 -1      6587-3.15007E-02-1.26248E-02 4.53463E-03-2.37659E-02 2.32817E-03-4.23052E-04
 -1      6588 4.35415E-05-6.70960E-05 1.27217E-05 2.11517E-07-1.64115E-05-9.44783E-07
 -1      6589 4.49109E+01 6.64979E+00 1.87005E+00-1.95425E+01 1.58643E-01 8.06372E-01
 -1      6590 1.68225E+02 2.35529E+01 6.07446E-02 7.37388E+00 1.08039E+00 3.15141E-01
 -1      6591-1.30338E-05 7.94240E-05 1.48619E-05 1.51882E-05-8.89006E-06-4.36847E-06
 -1      6592-8.64713E-06 3.41896E-05 1.66560E-05 6.56017E-05 1.66054E-06-9.03549E-06
 -1      6593-1.23798E+00 5.66373E+00 1.49383E-02 3.70317E+00 5.70891E-02-4.96404E-02
 -1      6594-1.74915E+01 1.87600E+01 2.31263E-01-5.45086E+00-2.60567E-02-4.39953E-01
 -1      6595 1.26460E+02 4.29228E+00-2.64595E+00 1.25661E+01 1.91904E+00-1.14480E+00
 -1      6596 2.68044E+02 7.54304E+00 3.42427E+00 1.54328E+01-4.69275E-01-4.79650E+00
 -1      6597-6.85963E-04-2.25300E-03 5.56578E-04-7.00644E-04-4.46600E-04-1.52416E-04
 -1      6598-4.87849E-03-3.88264E-03 3.13020E-04 3.43904E-03-1.54595E-03 5.40799E-04
 -1      6599 1.91862E+01-9.23265E-02 2.16243E-01-1.15055E+01 2.02428E-01-1.75170E-01
 -1      6600-6.41834E-06-2.96219E-05-7.11365E-06-4.72234E-05 5.70956E-06 1.01321E-05
 -1      6601-1.02764E-03-3.05578E-04-1.15081E-04 3.57101E-04 5.74940E-05-1.36104E-04
 -1      6602 1.63318E+02 9.72056E+00-4.64255E-01-3.89123E+00-6.50727E-01 1.39401E+00
 -1      6603 4.98667E+00 5.22104E-01 8.68240E-02-2.81293E+00 6.60152E-03 3.05052E-02
 -1      6604 4.98798E+00 5.21378E-01 8.98518E-02-2.81347E+00-5.45406E-03-2.56095E-02
 -1      6605 6.69719E-04-6.31908E-05-4.44115E-06 1.37747E-04 5.10818E-06 6.35399E-06
 -1      6606 8.47342E-01 1.86134E+00 4.87122E-02 1.67002E+00-1.06184E-02-1.55323E-02
 -1      6607 8.48760E-01 1.86315E+00 4.81199E-02 1.66723E+00 1.19184E-02 1.91847E-02
 -1      6608 6.83841E-05-9.46928E-05-7.37127E-05-1.15299E-04 1.85464E-06 7.72237E-06
 -1      6609-4.59148E-04-4.37135E-04-1.17524E-04 3.17249E-04-1.68542E-04 2.89832E-04
 -1      6610 1.53259E+02 1.71602E+01 2.15964E+00 2.17625E+01 2.35798E+00 4.69010E+00
 -1      6611 4.95878E-05-2.84906E-05 2.22695E-05-9.86775E-05 1.38812E-05-2.01700E-06
 -1      6612 8.08727E-05-1.00515E-04-1.19846E-05-3.15951E-05 9.29670E-06 7.33108E-06
 -1      6613 5.10211E+01 2.65498E+00-3.41822E+00 2.53761E+01 3.38090E-01-8.02529E-01
 -1      6614-5.18478E-04-3.71710E-05-3.12422E-05-2.16181E-05-2.48976E-06-5.62916E-05
 -1      6615 2.39997E-04 7.80730E-05-2.04764E-04-1.95749E-05-2.16297E-04-2.90840E-04
 -1      6616 1.71077E+02-1.27846E+00 8.33198E-01 1.77149E+01-6.18226E-01 2.22617E-01
 -1      6617 1.77802E+02 9.93097E+00-3.02023E-01-4.11833E+00 1.64809E-01 2.29189E+00
 -1      6618 1.53248E+01-8.13217E+00-3.49656E-01-8.52910E-02 2.96125E-01-3.89182E-03
 -1      6619-2.73731E-01 2.54980E-01-1.18502E-01-3.99160E-01-7.00658E-02 4.52251E-02
 -1      6620-1.33301E+01 1.03719E+01-9.14296E+00-3.69625E+01 1.56731E+00-1.29769E+00
 -1      6621-4.05746E-04-1.07696E-04-2.28615E-05 7.79061E-05 1.02231E-05 3.53586E-05
 -1      6622 2.46658E-04-2.00125E-05-3.25701E-04-4.16359E-05-1.11129E-04 1.70884E-04
 -1      6623-1.00274E-03-4.33765E-04-3.79803E-04-3.99450E-04 1.22350E-04 2.44358E-04
 -1      6624 3.33484E-04 7.67035E-05-3.15766E-04-1.27004E-04-7.87764E-05 5.99980E-05
 -1      6625-8.38836E-05-9.22460E-05-1.26516E-06 6.63617E-05-9.27124E-06 3.46799E-06
 -1      6626-3.31281E-05 8.46826E-05 7.73459E-06 7.14639E-06-4.68950E-06 1.12328E-06
 -1      6627-2.71285E-02-1.24259E-02 3.93748E-03 2.50610E-02-1.90031E-03-2.16555E-03
 -1      6628-2.49238E-02-1.15312E-02 5.10479E-03 2.40343E-02 2.03061E-03 3.47243E-03
 -1      6629 1.80382E+02 3.48435E+01 5.39077E+00-2.49116E+01-3.16615E+00-2.03968E+00
 -1      6630-5.51363E-02-4.22458E-02-2.83863E-03-8.10653E-02-3.20282E-03-7.88829E-03
 -1      6631 3.26795E+01-4.55877E+00 5.45664E-01 1.53999E+01-2.01839E-01 9.78739E-01
 -1      6632 1.81364E+02 9.32786E+00 3.45483E-01 3.22876E+00-4.53277E-01 3.17657E+00
 -1      6633 1.92209E+02-1.39170E-01 7.56733E-02-1.32538E+00 2.68409E-02-3.07685E-02
 -1      6634 1.92737E+02-1.06104E+00 8.12071E-02-3.40798E+00-2.00373E-02-5.82597E-03
 -1      6635 1.67629E+01 3.19909E+00 8.26960E-01-1.05876E+01 4.27837E-02-1.85534E-02
 -1      6636 1.09705E+02 1.68494E+01 1.97855E+00 3.14583E+01 3.88907E+00 1.23624E-01
 -1      6637 1.99866E+02-8.19448E+00-2.57439E-01-1.30126E+01 2.49046E-01 3.24253E-01
 -1      6638 1.63178E+02 1.81073E+01 4.07463E-01 1.58357E+00-5.15876E-01-7.03918E-01
 -1      6639-1.70787E-02-4.07211E-02 3.58436E-03 6.50897E-02-8.10342E-03-2.96934E-03
 -1      6640-1.47155E-03-4.49632E-04-5.88046E-04 1.60243E-03 2.49320E-05-5.98388E-04
 -1      6641 1.98854E+02-6.01696E+00-7.52504E-02-1.65726E+00-2.28417E-02 1.58953E-01
 -1      6642 1.25613E+02 6.60713E+00-1.38985E+00 1.94049E+01-1.63861E+00 5.06089E-01
 -1      6643 9.57009E+01 4.00605E+01-7.33272E+00-5.66814E+01 6.47544E+00-5.95211E+00
 -1      6644 2.04207E+02 3.41583E+01 9.76168E+00-3.82529E+01 4.14949E-01 2.49589E+00
 -1      6645 7.88492E+01 1.21410E+01-1.19025E+00-2.68655E+01-2.00301E+00-3.69313E-01
 -1      6646 1.87223E+02 5.49096E+00-3.21436E-01-7.30145E+00 2.46477E-02 1.02789E-01
 -1      6647 1.89761E+02 5.61602E-01-8.86699E-01-6.99530E+00 1.44106E-01-5.42067E-02
 -1      6648 1.40074E+01 2.59756E+00 1.01077E-01 7.30206E+00 2.71207E-01 1.49568E-01
 -1      6649 1.78709E+02 1.28270E+01-7.91137E-01-3.88776E+00-3.55627E-01 9.36445E-01
 -1      6650 1.92918E+02-9.34748E-01 8.36945E-02 2.50374E+00 1.64080E-02-3.60513E-02
 -1      6651 1.89281E+02 1.07365E+01-1.70319E+00-1.84441E+01 2.45697E-01-6.91836E-01
 -1      6652 8.81309E+01-1.39855E+01-6.50022E-01 1.36431E+01 2.31720E+00-1.46343E+00
 -1      6653 1.55091E+01 4.05076E+00 1.98525E-01-1.16887E+01 2.96494E-02 2.02230E-01
 -1      6654 1.90451E+02 7.72306E-01-1.74545E-01-4.33703E+00-3.75871E-02-3.97472E-02
 -1      6655-6.63598E-04-1.89930E-04-2.33622E-04-1.00426E-03 2.44797E-04 4.52507E-04
 -1      6656 1.07366E-01 1.70966E+00 2.27144E-02 7.16430E-01 5.10402E-03 5.90078E-03
 -1      6657 1.56812E+02 2.47693E-01-3.26445E+00 1.92379E+01-1.04363E+00-2.06882E+00
 -1      6658 1.89265E+02 1.28844E+00-2.64185E-01-5.46606E+00-1.93219E-02 1.73252E-02
 -1      6659 1.86593E+02 1.20962E+01 3.77471E+00-3.00044E+00 6.93101E-02-1.22800E+00
 -1      6660 1.49519E+00 2.26434E+00 4.93274E-02 2.94404E+00-1.81353E-01-7.12476E-02
 -1      6661 1.38153E+01 1.07424E+00-9.11922E-01 6.20178E+00-2.58673E-01 2.91696E-01
 -1      6662 1.55466E-04-8.63194E-05 2.90418E-05 2.67214E-05 1.02773E-05 2.67053E-05
 -1      6663 1.82789E+01 2.14171E+01-1.99694E+00 2.08509E+01-1.68739E+00 6.87596E-01
 -1      6664 2.25527E+01 5.09092E+00 7.86319E-01 1.60620E+01 2.93637E-01-2.43613E-01
 -1      6665 1.96908E+02 2.36305E+01 6.61847E+00-3.14728E+01 7.54098E-01-4.39281E-01
 -1      6666 1.44306E+02 2.29054E+00-2.59261E-01 1.70313E+01-5.27074E-01-1.94943E-01
 -3
    1PSTEP                         3           1           1          
  100CL  101 1.000000000        6666                     0    1           1
 -4  TOSTRAIN    6    1
 -5  EXX         1    4    1    1
 -5  EYY         1    4    2    2
 -5  EZZ         1    4    3    3
 -5  EXY         1    4    1    2
 -5  EYZ         1    4    2    3
 -5  EZX         1    4    3    1
 -1         1 1.97627E-03 1.39900E-02-1.03379E-02-1.83884E-02-4.69533E-03 2.83472E-03
 -1         2 2.47720E-03 1.32055E-02-9.94829E-03 1.77492E-02 4.87414E-03 2.64063E-03
 -1         3 2.39473E-03 1.38394E-02-1.02933E-02-1.87361E-02 4.63832E-03-2.83945E-03
 -1         4 1.51554E-03 1.50031E-02-1.10298E-02 1.90220E-02-4.71523E-03-2.71647E-03
 -1         5 6.53849E-02-2.27879E-02-2.28336E-02-1.09431E-02 1.54897E-03-1.86047E-03
 -1         6 6.49151E-02-2.16402E-02-2.29790E-02 1.18379E-02-1.46810E-03-1.29063E-03
 -1         7-4.91796E-06 3.01796E-06 1.37600E-06 1.79487E-07 4.68812E-07 5.91543E-07
 -1         8-5.10122E-06 2.82515E-06 1.41591E-06 3.68839E-08-7.54189E-07 2.74202E-07
 -1         9-9.39849E-03 1.10182E-02-7.50317E-04 1.01150E-04-2.75284E-05 1.40785E-04
 -1        10 4.05724E-02-1.94114E-03-6.87444E-05-1.72556E-04-4.10430E-05 2.69160E-02
 -1        11 2.30509E-08-6.61574E-08 2.47821E-08-2.53453E-10 5.95591E-10-7.15143E-10
 -1        12 6.32542E-02-1.90320E-02-2.31396E-02-1.51479E-02-6.58102E-04 5.75037E-04
 -1        13 6.17868E-02-1.86051E-02-2.28454E-02 1.56614E-02 8.94210E-04 9.91022E-04
 -1        14-5.40249E-06 3.23028E-06 1.56443E-06-5.42473E-08-3.97290E-07-6.16869E-07
 -1        15-5.02717E-06 2.84424E-06 1.25345E-06 2.82488E-07 8.94218E-07 2.29537E-07
 -1        16-9.49511E-03 1.12849E-02-8.54004E-04 3.40433E-06 3.94736E-05-1.01989E-04
 -1        17 4.08356E-02-2.22626E-03-5.58337E-03-3.12811E-04 3.88480E-04-2.21526E-02
 -1        18 1.97668E-08-5.86003E-08 2.20433E-08 4.56785E-09 2.93623E-09-1.38616E-10
 -1        19-1.52691E-03 4.87073E-03-1.81790E-03-3.57481E-03 7.75670E-04-5.65813E-04
 -1        20 2.56678E-04 2.40244E-03-1.46397E-03-3.13832E-03 4.15092E-04-1.08288E-04
 -1        21 1.64262E-03 1.27398E-03-1.63211E-03-3.27632E-03 1.33288E-04-1.45102E-04
 -1        22 3.31608E-03-2.35833E-04-1.73616E-03-2.77415E-03 3.58695E-05-7.41913E-05
 -1        23 3.70918E-03-9.51718E-04-1.55512E-03-1.78942E-03-7.57821E-06-1.16983E-05
 -1        24 3.46970E-03-1.19635E-03-1.28384E-03-7.76134E-04-1.61363E-05-3.37370E-06
 -1        25 2.88134E-03-1.03819E-03-1.03546E-03-2.40734E-05 5.10887E-06 1.42126E-05
 -1        26 2.21486E-03-7.60774E-04-8.21862E-04 4.80100E-04-8.85901E-06 2.54054E-06
 -1        27 1.56388E-03-4.18552E-04-6.45677E-04 7.12704E-04 2.94916E-06 1.32250E-05
 -1        28 1.01285E-03-1.15821E-04-5.04442E-04 7.68876E-04 1.26630E-07-2.63850E-06
 -1        29 5.90241E-04 1.22148E-04-4.01681E-04 7.30032E-04 1.93583E-06 3.05763E-06
 -1        30 2.87795E-04 2.78264E-04-3.19306E-04 6.02058E-04-8.38225E-07 4.44837E-07
 -1        31 7.88850E-05 3.90300E-04-2.64906E-04 4.76630E-04 6.15247E-07 6.76429E-07
 -1        32-4.82472E-05 4.40199E-04-2.20757E-04 3.38897E-04 1.09517E-06-2.72626E-07
 -1        33-1.23050E-04 4.63668E-04-1.92205E-04 2.13835E-04-1.34453E-06-1.41705E-07
 -1        34-1.64989E-04 4.77397E-04-1.76007E-04 1.02148E-04 1.58176E-06 7.87783E-07
 -1        35-1.69764E-04 4.71222E-04-1.69495E-04-5.38311E-08-9.58123E-07-4.27683E-07
 -1        36-1.63450E-04 4.77307E-04-1.77307E-04-1.03051E-04-3.24784E-07 4.08853E-07
 -1        37-1.22864E-04 4.64400E-04-1.91949E-04-2.13819E-04 1.10135E-06-1.12420E-06
 -1        38-4.85758E-05 4.41206E-04-2.21124E-04-3.39381E-04-2.31005E-06 1.54063E-06
 -1        39 7.88125E-05 3.89602E-04-2.64579E-04-4.76423E-04 3.76128E-07 1.36599E-06
 -1        40 2.87317E-04 2.78678E-04-3.18464E-04-6.02680E-04-8.70001E-07 7.92601E-07
 -1        41 5.91278E-04 1.22153E-04-4.02317E-04-7.30757E-04-2.37505E-06 3.28929E-06
 -1        42 1.01443E-03-1.13676E-04-5.06601E-04-7.70933E-04-1.53318E-06-3.04107E-06
 -1        43 1.56094E-03-4.20869E-04-6.42932E-04-7.07463E-04 4.44780E-06 7.55932E-06
 -1        44 2.22316E-03-7.60002E-04-8.23865E-04-4.88236E-04 6.04160E-07 7.57030E-06
 -1        45 2.87485E-03-1.03594E-03-1.03760E-03 2.68608E-05 4.70543E-06 6.55119E-07
 -1        46 3.50861E-03-1.20393E-03-1.29940E-03 7.79543E-04 1.04717E-06 9.93617E-06
 -1        47 3.67614E-03-9.52357E-04-1.53824E-03 1.78466E-03 2.57128E-06-2.53578E-05
 -1        48 3.30709E-03-2.10625E-04-1.74211E-03 2.81042E-03-5.98353E-05-5.82537E-05
 -1        49 1.74926E-03 1.33371E-03-1.73095E-03 3.27001E-03-2.43850E-04-1.44919E-04
 -1        50 2.47642E-04 2.43246E-03-1.49788E-03 3.08773E-03-4.45095E-04-3.24386E-04
 -1        51-1.37260E-03 4.76231E-03-1.87595E-03 3.72441E-03-5.34567E-04-5.51774E-04
 -1        52 4.74777E-05 7.19383E-03-4.09996E-03-6.40099E-03-7.51979E-04-1.96841E-04
 -1        53-2.40559E-04 3.27769E-03-1.76755E-03-3.31776E-03 8.33733E-04-1.09456E-04
 -1        54 1.34653E-03 1.75891E-03-1.69458E-03-3.27692E-03 3.77746E-04-2.08925E-04
 -1        55 2.56964E-03 4.54600E-04-1.76751E-03-3.11199E-03 1.63895E-05-1.68616E-04
 -1        56 3.52849E-03-5.91050E-04-1.66002E-03-2.28657E-03 5.31106E-06-3.08782E-05
 -1        57 3.61062E-03-1.07076E-03-1.41690E-03-1.28286E-03 4.02684E-06-4.20738E-06
 -1        58 3.17479E-03-1.15003E-03-1.14801E-03-3.80134E-04-1.51054E-05 2.71720E-06
 -1        59 2.54696E-03-8.78166E-04-9.35934E-04 2.30294E-04-1.56654E-06 9.02156E-06
 -1        60 1.87236E-03-5.98134E-04-7.29588E-04 6.07790E-04-2.74120E-06 3.78038E-06
 -1        61 1.28490E-03-2.63940E-04-5.75616E-04 7.43974E-04-8.92069E-07 9.25710E-06
 -1        62 7.98128E-04 5.02894E-06-4.51188E-04 7.43086E-04 1.12785E-06 1.67821E-06
 -1        63 4.25821E-04 2.03997E-04-3.57175E-04 6.71897E-04-1.26467E-06 8.72630E-07
 -1        64 1.86743E-04 3.34037E-04-2.92645E-04 5.35973E-04 2.72696E-07 1.24851E-06
 -1        65 1.01019E-05 4.16743E-04-2.42779E-04 4.05656E-04-1.62404E-06 2.42324E-06
 -1        66-8.83339E-05 4.52000E-04-2.05434E-04 2.75853E-04 8.39426E-07-5.33715E-07
 -1        67-1.44009E-04 4.67011E-04-1.82193E-04 1.58695E-04 5.04997E-08-5.23048E-07
 -1        68-1.68245E-04 4.75031E-04-1.73123E-04 4.82359E-05 1.42073E-07 5.60631E-07
 -1        69-1.67417E-04 4.73295E-04-1.72827E-04-4.89918E-05 3.38005E-07 1.66923E-07
 -1        70-1.42793E-04 4.68711E-04-1.84013E-04-1.58709E-04-2.92142E-07 3.62869E-08
 -1        71-8.66047E-05 4.53369E-04-2.06614E-04-2.75784E-04-6.90048E-07 1.88282E-06
 -1        72 8.48871E-06 4.15874E-04-2.41839E-04-4.06172E-04-4.81776E-08 1.05906E-06
 -1        73 1.86561E-04 3.34814E-04-2.92289E-04-5.36704E-04-5.91961E-07 1.38130E-06
 -1        74 4.26093E-04 2.04534E-04-3.57960E-04-6.71974E-04 1.46386E-06 1.52570E-06
 -1        75 7.98244E-04 5.29306E-06-4.51925E-04-7.45450E-04-4.93744E-06 7.11890E-08
 -1        76 1.28470E-03-2.62554E-04-5.75511E-04-7.41594E-04 7.07433E-06 9.90186E-06
 -1        77 1.87978E-03-5.95197E-04-7.28880E-04-6.12866E-04 5.26795E-06 5.58528E-06
 -1        78 2.54168E-03-8.79989E-04-9.33652E-04-2.28943E-04 4.93808E-07 2.86811E-06
 -1        79 3.20708E-03-1.16047E-03-1.16105E-03 3.83635E-04 5.62823E-06 3.53750E-06
 -1        80 3.60273E-03-1.05987E-03-1.42257E-03 1.27005E-03-6.98491E-07-6.31389E-06
 -1        81 3.55223E-03-6.13223E-04-1.67184E-03 2.33279E-03-5.01921E-05-3.61634E-05
 -1        82 2.58790E-03 4.99932E-04-1.76349E-03 3.03270E-03-1.34457E-04-1.49601E-04
 -1        83 1.31059E-03 1.84961E-03-1.72554E-03 3.32831E-03-3.64993E-04-2.57939E-04
 -1        84-4.96047E-05 3.22117E-03-1.81729E-03 3.35772E-03-6.37943E-04-3.08385E-04
 -1        85 9.56623E-05 6.98338E-03-4.13618E-03 6.61277E-03 9.90203E-04-5.52842E-05
 -1        86 1.75121E-02 7.40841E-03-1.40111E-02-2.70746E-02-2.65837E-03 1.56412E-03
 -1        87 1.56017E-02 8.68528E-03-1.40363E-02-2.63788E-02 2.46287E-03-1.32316E-03
 -1        88 4.76789E-03 1.60161E-02-1.26703E-02-2.20746E-02-5.20663E-03 3.53875E-03
 -1        89 1.89370E-02 5.27831E-03-1.40584E-02-2.78741E-02 1.39127E-04-4.56950E-04
 -1        90 4.56445E-03 1.61467E-02-1.28018E-02-2.18694E-02 4.81715E-03-3.11695E-03
 -1        91 1.76554E-02 8.04634E-03-1.42076E-02 2.66786E-02 2.79690E-03 1.46845E-03
 -1        92 1.96785E-02 6.66694E-03-1.43770E-02 2.66878E-02-2.50451E-03-1.88690E-03
 -1        93 3.12955E-03 1.69816E-02-1.25578E-02 2.10936E-02 5.57693E-03 3.06964E-03
 -1        94 1.91119E-02 4.79733E-03-1.45608E-02 2.59242E-02-2.49143E-04 2.41321E-04
 -1        95 4.25980E-03 1.73912E-02-1.28010E-02 2.20852E-02-5.09414E-03-3.28157E-03
 -1        96-1.50354E-03 4.90147E-03-1.88917E-03-3.70912E-03-6.41110E-04 4.82321E-04
 -1        97 1.45511E-04 2.44647E-03-1.43364E-03-3.02511E-03-4.08928E-04 2.10941E-04
 -1        98 1.70812E-03 1.27072E-03-1.65190E-03-3.27745E-03-1.56449E-04 1.44111E-04
 -1        99 3.33076E-03-2.34219E-04-1.74975E-03-2.79043E-03-4.82247E-05 9.47270E-05
 -1       100 3.70208E-03-9.63392E-04-1.53263E-03-1.77580E-03-1.73459E-05-1.37046E-05
 -1       101 3.45456E-03-1.17808E-03-1.28868E-03-7.83107E-04 8.86532E-06 1.73994E-06
 -1       102 2.88265E-03-1.03637E-03-1.03574E-03-2.47588E-05-7.75908E-06-1.77688E-05
 -1       103 2.21467E-03-7.58774E-04-8.22808E-04 4.80020E-04 8.64105E-06-2.61960E-06
 -1       104 1.56658E-03-4.19903E-04-6.46447E-04 7.12984E-04-2.71873E-06-1.27810E-05
 -1       105 1.01311E-03-1.16094E-04-5.04578E-04 7.68531E-04 3.76185E-07 3.16030E-06
 -1       106 5.89464E-04 1.23136E-04-4.01887E-04 7.31322E-04-2.03154E-06-3.70154E-06
 -1       107 2.87567E-04 2.77911E-04-3.19007E-04 6.01022E-04 7.33705E-07-1.32370E-07
 -1       108 7.85189E-05 3.90633E-04-2.64915E-04 4.77025E-04-6.09511E-07-1.07109E-06
 -1       109-4.83288E-05 4.40623E-04-2.20868E-04 3.39173E-04-1.05536E-06 4.89861E-07
 -1       110-1.22902E-04 4.63453E-04-1.92172E-04 2.13844E-04 1.36468E-06 1.48989E-07
 -1       111-1.65191E-04 4.77449E-04-1.75939E-04 1.02093E-04-1.47121E-06-9.38606E-07
 -1       112-1.69582E-04 4.70914E-04-1.69421E-04-5.63045E-08 1.03141E-06 5.65868E-07
 -1       113-1.62931E-04 4.77259E-04-1.77508E-04-1.02971E-04 3.44415E-07-1.78426E-07
 -1       114-1.24851E-04 4.66504E-04-1.92121E-04-2.14317E-04-2.57002E-07-3.47788E-07
 -1       115-4.79057E-05 4.39796E-04-2.20726E-04-3.38884E-04 1.73095E-06-1.40667E-06
 -1       116 7.96931E-05 3.88644E-04-2.64257E-04-4.76054E-04-4.99951E-08-9.63529E-08
 -1       117 2.88820E-04 2.78464E-04-3.18901E-04-6.02721E-04 1.28661E-06 3.06729E-07
 -1       118 5.90922E-04 1.22406E-04-4.02245E-04-7.30963E-04 2.37079E-06-3.64362E-06
 -1       119 1.01542E-03-1.13973E-04-5.07012E-04-7.71445E-04 1.43736E-06 3.25678E-06
 -1       120 1.56107E-03-4.21031E-04-6.42967E-04-7.06822E-04-4.27529E-06-7.21463E-06
 -1       121 2.22241E-03-7.59479E-04-8.23751E-04-4.88728E-04-5.97441E-07-7.89051E-06
 -1       122 2.87336E-03-1.03562E-03-1.03691E-03 2.70788E-05-5.00355E-06-6.04758E-07
 -1       123 3.49678E-03-1.19881E-03-1.29569E-03 7.78852E-04-1.45037E-06-1.01669E-05
 -1       124 3.66474E-03-9.49740E-04-1.53349E-03 1.77799E-03-3.34793E-06 2.39255E-05
 -1       125 3.30914E-03-2.11919E-04-1.74228E-03 2.81412E-03 6.11809E-05 5.96943E-05
 -1       126 1.71845E-03 1.36907E-03-1.73570E-03 3.27892E-03 2.41318E-04 1.45014E-04
 -1       127 4.22531E-04 2.44104E-03-1.64256E-03 3.18533E-03 3.78834E-04 2.70961E-04
 -1       128-1.62117E-03 4.63966E-03-1.61834E-03 3.01494E-03 9.25390E-04 5.68637E-04
 -1       129 2.89540E-04 7.00411E-03-4.28493E-03-6.69967E-03 7.27069E-04 1.12781E-04
 -1       130-1.41950E-04 3.24514E-03-1.73459E-03-3.27729E-03-7.01983E-04 1.65923E-04
 -1       131 1.31799E-03 1.84510E-03-1.68292E-03-3.23813E-03-3.79361E-04 2.38869E-04
 -1       132 2.61274E-03 4.45226E-04-1.78330E-03-3.12229E-03-2.23681E-05 1.62863E-04
 -1       133 3.53293E-03-6.19666E-04-1.65249E-03-2.30704E-03-5.98607E-05 3.55449E-05
 -1       134 3.60750E-03-1.05981E-03-1.42696E-03-1.26021E-03 6.90504E-07-4.52915E-06
 -1       135 3.17054E-03-1.14160E-03-1.15449E-03-3.93159E-04 1.64674E-06-1.77396E-09
 -1       136 2.54722E-03-8.71713E-04-9.37646E-04 2.26926E-04 1.98309E-06-1.18765E-05
 -1       137 1.87418E-03-5.98609E-04-7.30218E-04 6.07906E-04 2.59274E-06-2.98813E-06
 -1       138 1.28642E-03-2.64826E-04-5.75959E-04 7.44206E-04 1.09950E-06-8.87199E-06
 -1       139 7.98259E-04 4.96997E-06-4.52213E-04 7.43724E-04-1.01484E-06-1.51041E-06
 -1       140 4.24916E-04 2.04697E-04-3.56980E-04 6.71469E-04 8.85959E-07-1.06843E-06
 -1       141 1.86515E-04 3.33888E-04-2.92981E-04 5.35727E-04-2.77283E-07-1.06147E-06
 -1       142 1.02166E-05 4.17004E-04-2.42877E-04 4.05854E-04 1.58420E-06-2.56726E-06
 -1       143-8.83604E-05 4.52045E-04-2.05418E-04 2.75899E-04-8.28835E-07 5.94534E-07
 -1       144-1.43902E-04 4.66986E-04-1.82229E-04 1.58791E-04-4.13204E-08 4.99820E-07
 -1       145-1.68207E-04 4.74801E-04-1.73009E-04 4.81142E-05-1.36718E-07-6.48630E-07
 -1       146-1.67430E-04 4.73164E-04-1.72794E-04-4.90998E-05-3.09396E-07-1.42156E-07
 -1       147-1.43557E-04 4.70421E-04-1.84948E-04-1.58969E-04 1.40959E-06-1.43099E-06
 -1       148-8.76349E-05 4.52247E-04-2.05145E-04-2.75819E-04 2.84011E-07-2.26037E-06
 -1       149 9.54549E-06 4.15003E-04-2.41835E-04-4.05940E-04-3.24854E-07-7.61229E-08
 -1       150 1.87797E-04 3.34600E-04-2.92517E-04-5.36222E-04 1.16412E-06 1.62917E-07
 -1       151 4.26545E-04 2.04642E-04-3.58002E-04-6.71914E-04-1.15000E-06-1.61239E-06
 -1       152 7.98580E-04 5.27380E-06-4.52062E-04-7.45941E-04 4.78625E-06-2.88185E-08
 -1       153 1.28551E-03-2.63145E-04-5.75654E-04-7.41763E-04-7.00250E-06-9.60976E-06
 -1       154 1.87904E-03-5.94927E-04-7.28666E-04-6.12633E-04-5.07319E-06-5.66452E-06
 -1       155 2.54076E-03-8.79264E-04-9.33602E-04-2.29121E-04-7.21514E-07-3.29474E-06
 -1       156 3.20129E-03-1.15823E-03-1.15960E-03 3.84586E-04-5.98136E-06-3.72450E-06
 -1       157 3.58927E-03-1.05526E-03-1.41699E-03 1.26446E-03 6.23343E-07 5.63702E-06
 -1       158 3.54830E-03-6.14067E-04-1.66907E-03 2.33033E-03 5.09515E-05 3.64044E-05
 -1       159 2.57653E-03 5.07907E-04-1.76238E-03 3.03425E-03 1.31021E-04 1.53195E-04
 -1       160 1.32587E-03 1.86375E-03-1.74170E-03 3.35776E-03 3.43269E-04 2.70986E-04
 -1       161 9.65861E-05 3.42881E-03-1.90361E-03 3.08307E-03 5.39554E-04 2.94388E-04
 -1       162-5.27606E-04 7.36250E-03-3.96799E-03 6.47113E-03-8.04142E-04 2.01387E-04
 -1       163 4.70044E-02-4.56150E-03-2.07985E-02-3.59954E-02-2.35478E-03 5.55928E-03
 -1       164 2.06411E-02 1.13873E-02-1.55700E-02-3.45504E-02-6.46190E-03 7.96359E-03
 -1       165 6.96714E-02-1.83204E-02-2.38652E-02-2.82000E-02 1.46482E-03 1.47170E-03
 -1       166 4.97760E-02-3.23300E-03-2.19449E-02 4.09096E-02 2.26281E-03 6.76427E-03
 -1       167 2.16440E-02 1.09667E-02-1.50499E-02 3.44929E-02 5.35748E-03 7.62070E-03
 -1       168 6.99735E-02-1.52912E-02-2.43285E-02 2.95259E-02 6.38659E-04 2.35937E-03
 -1       169 5.19496E-02-1.89225E-02-1.87316E-02-2.79794E-03-1.32582E-04-4.59502E-04
 -1       170 5.15405E-02-1.85603E-02-1.85413E-02-2.55897E-03-1.87674E-05 1.01362E-04
 -1       171 5.15171E-02-1.84343E-02-1.85922E-02-2.71788E-03 3.02976E-05 2.80694E-05
 -1       172 5.02407E-02-1.78941E-02-1.81784E-02-2.78147E-03 1.03301E-04-1.40424E-04
 -1       173 4.52027E-02-1.61302E-02-1.62540E-02-3.30609E-03 1.26497E-04-5.68210E-04
 -1       174 3.41503E-02-1.22779E-02-1.23767E-02-2.90162E-03-1.62636E-04-4.52148E-04
 -1       175 2.84842E-02-8.41673E-03-1.14948E-02 3.77013E-03 1.44931E-04 1.49272E-03
 -1       176 3.40265E-02-1.37182E-02-1.12012E-02 3.02560E-03-4.34337E-05 1.21010E-03
 -1       177 1.72642E-02-5.99798E-03-6.28225E-03-2.92524E-03 1.04223E-04-7.10856E-04
 -1       178 4.36629E-03-1.56256E-03-1.61464E-03-7.16127E-04-4.59318E-05-4.00626E-04
 -1       179 6.09819E-04-2.47215E-04-2.08921E-04-1.38904E-04 8.08489E-05-4.87882E-05
 -1       180-2.06569E-04 6.46574E-05 7.87671E-05 5.10408E-05 2.37350E-05 5.80239E-05
 -1       181-1.86234E-04 6.10825E-05 6.78939E-05 6.28069E-05-2.30615E-06 2.25868E-05
 -1       182-8.75842E-05 2.82467E-05 3.53337E-05 3.01565E-05 1.15590E-06 1.39355E-05
 -1       183-2.69783E-05 9.80298E-06 9.74089E-06 7.60406E-06 3.24656E-07 3.30393E-06
 -1       184 5.42407E-02-1.88998E-02-1.96973E-02-5.11430E-03-3.61364E-04-9.72176E-04
 -1       185 5.15050E-02-1.85294E-02-1.86411E-02-2.77820E-03-1.44334E-04-2.85167E-05
 -1       186 5.15667E-02-1.85542E-02-1.85839E-02-2.62877E-03 5.20536E-06 6.76095E-05
 -1       187 5.12713E-02-1.82778E-02-1.84654E-02-2.75328E-03-7.04406E-06-1.21939E-04
 -1       188 4.81230E-02-1.69156E-02-1.74242E-02-2.99824E-03 1.37209E-04-3.37485E-04
 -1       189 4.03532E-02-1.42590E-02-1.44877E-02-3.19585E-03 5.47320E-05-6.94123E-04
 -1       190 2.97392E-02-1.03354E-02-1.09916E-02-9.64581E-04 2.27412E-04 6.40654E-04
 -1       191 3.19892E-02-1.04648E-02-1.29178E-02 5.33830E-03-2.62348E-04 1.72490E-03
 -1       192 2.58978E-02-9.46901E-03-9.47623E-03-1.24331E-03-2.88656E-04-1.70564E-04
 -1       193 9.45723E-03-3.97238E-03-3.29289E-03-1.88464E-03 2.07057E-04-6.23592E-04
 -1       194 2.10546E-03-8.75404E-04-7.54828E-04-5.34251E-04-2.78834E-05-7.23138E-05
 -1       195 1.12397E-04-8.93878E-05-4.03181E-05-1.68317E-05-4.68999E-06 4.71904E-06
 -1       196-2.19301E-04 8.18237E-05 7.49031E-05 5.33845E-05-7.43520E-06 3.28194E-05
 -1       197-1.45116E-04 4.47729E-05 5.72993E-05 4.87772E-05 2.47368E-06 1.78465E-05
 -1       198-5.46214E-05 1.79675E-05 1.97291E-05 1.63560E-05 1.80974E-07 7.57753E-06
 -1       199-1.46098E-05 7.23214E-06 5.46541E-06 2.32128E-06 1.15400E-07 2.68508E-06
 -1       200 5.22001E-02-1.90594E-02-1.87878E-02 2.67652E-03 8.84003E-05-2.65807E-04
 -1       201 5.16782E-02-1.85302E-02-1.86481E-02 2.64829E-03 1.05289E-05 9.46836E-05
 -1       202 5.17576E-02-1.85527E-02-1.86638E-02 2.75102E-03-8.46930E-06 2.85923E-05
 -1       203 5.07687E-02-1.81838E-02-1.83216E-02 3.04576E-03-3.55035E-05-1.43147E-04
 -1       204 4.59494E-02-1.64236E-02-1.65999E-02 3.59362E-03 7.46577E-05-6.42439E-04
 -1       205 3.43706E-02-1.22232E-02-1.25645E-02 3.40027E-03-3.07219E-04-6.62165E-04
 -1       206 2.71185E-02-6.62383E-03-1.23281E-02-2.86047E-03-3.24353E-04 9.29392E-04
 -1       207 3.38887E-02-1.28299E-02-1.19119E-02-1.79833E-03-9.18666E-04 1.31459E-03
 -1       208 1.64491E-02-5.88536E-03-5.94744E-03 2.78049E-03-4.59132E-06-6.70532E-04
 -1       209 4.50774E-03-1.62605E-03-1.79830E-03 5.04796E-04 5.47270E-05-4.68541E-04
 -1       210 5.33756E-04-2.20221E-04-1.96834E-04 8.76109E-05-1.53648E-05 3.26272E-05
 -1       211-2.03546E-04 4.95360E-05 7.13656E-05-1.13203E-04-2.76032E-06 4.51785E-05
 -1       212-1.97982E-04 6.45031E-05 7.37970E-05-6.44236E-05 7.29311E-06 2.36848E-05
 -1       213-9.96710E-05 2.69944E-05 4.17547E-05-4.49479E-05 1.30086E-06 1.21365E-05
 -1       214-3.35793E-05 1.21903E-05 1.21827E-05-9.45587E-06-5.89724E-07 3.16189E-06
 -1       215 5.44963E-02-1.87977E-02-1.98225E-02 5.23864E-03 3.73441E-04-9.22208E-04
 -1       216 5.17454E-02-1.85362E-02-1.86562E-02 2.80140E-03 1.16109E-05 7.00518E-05
 -1       217 5.18176E-02-1.85780E-02-1.87108E-02 2.69566E-03 1.83963E-05 5.91428E-05
 -1       218 5.15109E-02-1.84434E-02-1.85564E-02 2.90950E-03-1.41463E-05-6.93087E-05
 -1       219 4.85436E-02-1.73448E-02-1.76181E-02 3.42128E-03 1.54320E-05-4.07962E-04
 -1       220 4.00494E-02-1.42309E-02-1.44140E-02 3.47775E-03-2.75102E-04-1.08471E-03
 -1       221 3.07443E-02-1.14060E-02-1.11005E-02 5.08275E-04-1.26643E-03 5.99603E-04
 -1       222 3.14376E-02-8.79913E-03-1.28831E-02-4.94864E-03-6.11967E-04 1.76431E-03
 -1       223 2.54724E-02-9.39245E-03-9.44118E-03 1.32987E-03-2.05293E-04-5.34004E-04
 -1       224 9.61971E-03-3.64727E-03-3.76773E-03 1.87707E-03 1.48584E-04-7.32662E-04
 -1       225 1.95531E-03-8.09460E-04-7.78560E-04 3.14375E-04-7.18510E-05-1.37740E-04
 -1       226 1.49672E-04-1.34913E-04-7.49419E-05-4.40186E-05 5.80269E-05 3.79130E-05
 -1       227-2.48567E-04 9.67476E-05 8.47553E-05-6.67623E-05-4.62193E-06 2.83490E-05
 -1       228-1.42564E-04 4.07332E-05 5.85697E-05-5.39546E-05-3.98613E-06 2.04479E-05
 -1       229-6.43641E-05 2.10772E-05 2.38565E-05-2.76109E-05 1.31369E-06 8.25942E-06
 -1       230-1.49955E-05 6.94445E-06 5.43560E-06-1.68293E-06-3.00341E-07 2.87627E-06
 -1       231 2.87608E-07-1.26531E-07-8.05226E-08 8.99989E-09 1.18139E-07-1.11782E-07
 -1       232 2.26971E-07-3.07823E-09-1.29953E-07-2.02743E-07 1.20243E-08-1.42243E-08
 -1       233 3.42028E-07-1.00837E-07-1.33442E-07-1.54862E-07-1.02434E-08 1.78559E-08
 -1       234 3.37287E-07-1.31096E-07-1.18224E-07 9.87035E-09 1.25969E-09 1.19040E-09
 -1       235 2.29094E-07-6.74448E-08-9.09916E-08 9.69144E-08 3.95022E-10-1.91766E-09
 -1       236 1.30822E-07-1.19069E-09-7.22303E-08 1.21804E-07-1.31005E-09 3.19135E-10
 -1       237 4.05611E-08 6.01912E-08-5.74477E-08 1.12550E-07-5.71807E-10-1.53135E-09
 -1       238-5.48038E-09 8.30960E-08-4.38363E-08 6.95990E-08-2.56956E-09-1.91787E-09
 -1       239-2.86573E-08 9.36256E-08-3.64383E-08 3.39110E-08-9.48076E-10-3.23453E-10
 -1       240-4.40503E-08 1.08439E-07-3.66324E-08-7.16599E-09-8.91122E-10-2.51068E-09
 -1       241-2.79071E-08 9.47726E-08-3.75533E-08-3.50063E-08 2.32100E-10 2.87841E-10
 -1       242-1.03442E-08 9.44115E-08-4.76524E-08-7.58714E-08 3.02111E-09-1.10405E-09
 -1       243 4.24596E-08 6.64820E-08-6.22056E-08-1.22834E-07 1.64176E-09-2.88126E-09
 -1       244 1.45112E-07-1.09884E-09-8.22324E-08-1.40039E-07 6.43497E-11-3.23834E-09
 -1       245 2.49559E-07-7.04796E-08-1.00059E-07-1.04375E-07 2.61297E-09-6.13906E-09
 -1       246 3.57048E-07-1.40130E-07-1.24130E-07-2.61213E-08-2.67831E-09-6.96333E-09
 -1       247 3.59677E-07-1.13885E-07-1.38307E-07 1.41065E-07 3.39197E-09 3.60714E-09
 -1       248 2.19841E-07-7.69892E-09-1.19374E-07 2.02050E-07-5.65650E-09-1.11969E-08
 -1       249 2.99500E-07-1.64942E-07-5.44922E-08-4.36246E-08-4.59564E-08-1.13719E-07
 -1       250-5.66625E-07 3.09399E-08 4.33624E-07-3.24414E-07-3.88408E-08-6.84802E-08
 -1       251 9.15063E-08 2.30528E-08-5.84663E-08-1.30585E-07 1.56698E-08-6.71475E-08
 -1       252 2.92880E-07-5.97770E-08-1.35384E-07-1.89016E-07-1.16648E-08 4.42276E-09
 -1       253 3.17240E-07-1.08630E-07-1.21437E-07-6.87723E-08-7.07850E-09 6.88894E-10
 -1       254 2.82655E-07-9.72893E-08-1.05456E-07 5.99884E-08 1.66862E-09 5.43961E-10
 -1       255 1.78089E-07-3.49405E-08-8.22161E-08 1.12391E-07 1.86755E-10-2.68332E-09
 -1       256 8.79305E-08 2.68929E-08-6.54027E-08 1.13276E-07-1.48809E-09-3.28338E-09
 -1       257 1.26284E-08 7.39309E-08-4.94108E-08 8.95352E-08-2.32878E-09 2.07800E-10
 -1       258-1.59371E-08 8.71313E-08-4.09146E-08 5.17371E-08-1.84254E-09-1.53302E-09
 -1       259-3.22892E-08 9.14695E-08-3.50090E-08 1.64844E-08-2.24709E-09-1.38515E-09
 -1       260-3.18344E-08 9.74755E-08-3.71762E-08-2.23249E-08-5.37096E-10 1.01120E-10
 -1       261-2.16952E-08 9.56676E-08-4.37641E-08-5.42161E-08 1.32286E-09-4.20040E-10
 -1       262 1.13408E-08 8.09895E-08-5.26537E-08-9.75768E-08 3.43216E-09 6.48294E-10
 -1       263 9.17285E-08 2.89982E-08-7.03688E-08-1.26863E-07 2.33483E-09-5.55202E-09
 -1       264 1.96140E-07-3.57532E-08-9.32601E-08-1.20379E-07 1.08225E-09-5.66983E-09
 -1       265 3.05238E-07-1.04209E-07-1.14098E-07-7.20289E-08 1.19425E-09-6.78483E-09
 -1       266 3.39251E-07-1.20965E-07-1.30168E-07 5.82837E-08 7.30075E-09-5.76679E-09
 -1       267 3.03920E-07-6.80777E-08-1.30008E-07 1.78202E-07 1.41107E-09-2.97562E-09
 -1       268 1.88342E-07-2.32431E-08-7.65531E-08 1.49457E-07-2.15424E-08-6.42597E-08
 -1       269-6.33949E-07 1.39366E-07 4.41491E-07 4.42326E-07 1.97387E-07 1.27359E-08
 -1       270-1.42338E-02 1.11750E-02 1.34144E-03-9.90938E-03-5.24981E-04 8.97195E-04
 -1       271 2.26719E-02-1.12737E-02-7.53112E-03-2.64486E-02 4.52936E-04-8.04832E-03
 -1       272 7.38846E-02-2.16784E-02-2.78009E-02-5.62955E-03-3.42777E-03 1.60471E-03
 -1       273 7.83630E-02-2.58802E-02-2.81265E-02 6.71702E-03 3.34435E-03-4.22039E-04
 -1       274 2.01786E-02-9.34205E-03-6.93053E-03 2.66394E-02-3.42813E-04-7.99911E-03
 -1       275-1.29730E-02 1.05828E-02 1.03920E-03 1.02009E-02 5.41283E-04 9.96775E-04
 -1       276-1.00973E-02 1.06869E-02-4.74048E-04-4.21591E-03-1.18055E-03 8.74488E-04
 -1       277-7.05079E-03 5.35399E-03-7.99764E-04-2.14089E-02 1.03842E-03-4.33546E-03
 -1       278 6.01038E-02-2.48817E-02-1.86563E-02-2.16167E-02-3.32826E-03-7.33733E-03
 -1       279 6.84267E-02-1.40987E-02-2.90659E-02 2.93660E-04-1.01996E-03 2.47113E-03
 -1       280 5.84395E-02-2.32584E-02-1.90304E-02 2.16588E-02 3.39982E-03-8.36291E-03
 -1       281-7.08215E-03 6.03316E-03-1.13697E-03 2.05200E-02-7.14694E-04-4.19937E-03
 -1       282-9.84836E-03 1.06544E-02-3.68847E-04 4.51511E-03 1.13064E-03 7.54752E-04
 -1       283 4.20814E-02-9.04864E-03-5.24902E-04-1.06451E-02 5.30328E-03 2.31710E-02
 -1       284 3.71314E-02-2.03178E-02-1.18423E-03-7.49864E-03 4.90614E-03 9.29196E-03
 -1       285 2.16070E-02-1.80108E-02 1.71013E-04 1.88640E-03 2.53605E-03 2.80771E-03
 -1       286 9.60495E-03-9.03295E-03 7.13970E-07 6.10107E-03 9.10854E-04 4.80886E-04
 -1       287 3.27363E-03-2.97572E-03-2.44720E-05 5.67542E-03 3.45740E-04 9.41054E-05
 -1       288-6.89060E-06 2.70020E-04-4.18764E-06 3.98551E-03 2.37728E-04-3.32853E-06
 -1       289-1.25966E-03 1.48012E-03-1.18208E-05 2.19163E-03 1.49358E-04-4.93571E-05
 -1       290-1.43252E-03 1.57457E-03-6.41824E-06 7.82144E-04 1.05751E-04-6.04221E-05
 -1       291-1.01917E-03 1.12282E-03-4.14586E-06-5.06898E-05 6.78874E-05-6.65846E-05
 -1       292-4.87654E-04 5.67223E-04-5.84076E-06-3.41314E-04 3.00643E-05-5.78199E-05
 -1       293-8.85855E-05 1.48812E-04-7.78428E-06-2.55489E-04 1.07134E-05-4.38237E-05
 -1       294 5.70230E-05-3.35524E-06-3.54266E-06 1.76602E-05 7.56151E-07-4.69930E-05
 -1       295-9.65816E-05 1.57154E-04-3.93938E-06 2.81766E-04-1.11527E-05-4.62797E-05
 -1       296-4.98460E-04 5.78756E-04-7.04341E-06 3.49441E-04-2.68758E-05-5.40949E-05
 -1       297-1.03405E-03 1.13951E-03-8.04866E-06 5.07485E-05-5.66741E-05-6.10837E-05
 -1       298-1.43323E-03 1.59749E-03-1.14845E-05-7.94118E-04-1.02937E-04-6.59343E-05
 -1       299-1.28617E-03 1.48745E-03-9.87064E-06-2.23141E-03-1.69501E-04-4.51654E-05
 -1       300 1.59541E-05 2.54540E-04-1.70859E-05-4.01111E-03-2.15464E-04-2.58099E-06
 -1       301 3.30659E-03-3.01817E-03-3.11897E-05-5.73789E-03-3.10202E-04 7.02911E-05
 -1       302 9.51830E-03-8.97518E-03 1.14022E-06-6.03543E-03-8.78000E-04 4.70629E-04
 -1       303 2.19045E-02-1.81424E-02 1.23675E-04-1.85245E-03-2.66269E-03 2.90260E-03
 -1       304 3.71259E-02-2.00804E-02-1.38280E-03 7.43175E-03-4.98629E-03 9.34911E-03
 -1       305 4.31095E-02-8.70214E-03-1.08674E-03 1.08272E-02-5.15530E-03 2.28142E-02
 -1       306 4.09194E-02-3.04684E-03-1.34832E-04-6.89465E-03 3.66169E-03 2.69688E-02
 -1       307 4.12923E-02-1.57625E-02-1.63661E-04-1.00661E-02 7.33591E-03 1.78752E-02
 -1       308 3.02324E-02-2.06840E-02-4.12159E-05-2.36559E-03 4.24440E-03 5.68253E-03
 -1       309 1.48875E-02-1.27211E-02-9.38255E-06 4.50379E-03 1.63835E-03 1.28040E-03
 -1       310 6.42091E-03-5.94159E-03-2.04495E-06 6.27360E-03 7.43705E-04 3.04777E-04
 -1       311 1.38235E-03-1.24960E-03 7.88281E-07 4.84821E-03 3.02433E-04 3.56784E-05
 -1       312-7.72625E-04 9.20228E-04 3.44843E-07 3.06635E-03 2.19692E-04-3.14411E-05
 -1       313-1.41671E-03 1.55873E-03 1.16431E-07 1.43366E-03 1.47105E-04-6.20250E-05
 -1       314-1.25841E-03 1.34917E-03 3.01151E-09 3.25166E-04 9.53711E-05-7.46656E-05
 -1       315-7.65225E-04 8.25983E-04-7.08913E-08-2.28209E-04 5.27704E-05-6.97564E-05
 -1       316-2.81904E-04 3.33448E-04-2.31090E-08-3.27912E-04 2.41317E-05-5.79382E-05
 -1       317 1.10108E-05 4.08850E-05-7.00435E-08-1.18013E-04 7.32674E-06-5.55219E-05
 -1       318 1.19923E-06 5.18538E-05-2.10860E-08 1.56745E-04-7.03278E-06-5.42250E-05
 -1       319-2.81991E-04 3.42530E-04 3.28656E-08 3.37853E-04-2.36169E-05-5.74437E-05
 -1       320-7.73200E-04 8.35786E-04 8.00622E-08 2.31570E-04-4.91406E-05-6.51327E-05
 -1       321-1.26642E-03 1.37009E-03 7.62804E-08-3.22536E-04-9.42653E-05-7.27197E-05
 -1       322-1.45019E-03 1.59015E-03 2.08690E-07-1.46814E-03-1.55228E-04-6.62258E-05
 -1       323-7.79879E-04 9.02685E-04 5.35080E-07-3.08380E-03-2.11758E-04-3.14008E-05
 -1       324 1.40502E-03-1.28828E-03 1.24234E-06-4.91680E-03-3.10451E-04 3.55127E-05
 -1       325 6.40643E-03-5.91353E-03-1.15437E-06-6.25037E-03-7.02584E-04 2.93989E-04
 -1       326 1.49678E-02-1.27611E-02-8.23651E-06-4.48506E-03-1.56302E-03 1.23417E-03
 -1       327 3.07346E-02-2.06422E-02-4.41389E-05 2.16965E-03-4.30712E-03 5.77476E-03
 -1       328 4.10063E-02-1.56975E-02-1.36513E-04 1.00962E-02-7.22543E-03 1.77811E-02
 -1       329 4.28958E-02-3.07847E-03-2.44846E-04 6.77207E-03-3.59037E-03 2.71856E-02
 -1       330 1.09893E-08-6.21664E-08 3.05781E-08 4.24282E-08-4.80144E-09-5.02190E-10
 -1       331-7.27357E-08-1.43886E-08 4.87554E-08 7.27857E-08-5.93792E-09 9.49393E-09
 -1       332-1.81948E-07 4.33629E-08 7.64787E-08 9.82217E-08-1.01461E-08 1.65524E-08
 -1       333-2.83496E-07 8.64681E-08 1.04953E-07-3.10194E-08 1.02477E-08 2.09391E-08
 -1       334-4.47910E-07 5.58574E-08 2.13001E-07-3.02452E-07-1.36104E-09-1.58347E-08
 -1       335-6.49470E-07 1.27162E-07 2.93985E-07-8.95268E-07-2.74936E-07-1.48250E-07
 -1       336 4.93867E-08-8.82999E-07 5.96275E-07 7.29097E-07 4.42632E-07-2.99591E-08
 -1       337 3.79897E-06-1.04961E-05 3.60559E-06 7.32520E-08-7.95397E-09-1.34472E-08
 -1       338 9.72263E-08-3.95365E-07 3.78038E-07-3.78274E-07-3.59635E-07 3.24324E-07
 -1       339-6.52630E-07 9.92066E-08 2.34407E-07 7.65624E-07 2.89617E-07-3.56683E-07
 -1       340-4.64002E-07 9.56713E-08 2.08933E-07 2.69013E-07 2.21917E-09-1.48778E-08
 -1       341-3.34218E-07 1.06504E-07 1.23457E-07 1.27923E-08-8.53702E-09 4.17946E-09
 -1       342-2.18320E-07 4.94593E-08 9.59556E-08-1.26352E-07 1.38554E-09 9.64065E-09
 -1       343-7.38544E-08-2.72110E-08 5.65112E-08-9.36078E-08 4.85821E-09 5.26540E-09
 -1       344 1.24944E-08-7.47447E-08 3.60388E-08-4.98642E-08 5.24729E-09 2.05914E-09
 -1       345 1.62195E-08-6.34413E-08 2.60865E-08 2.11988E-08-2.73936E-09-2.93560E-09
 -1       346-1.79397E-08-5.24477E-08 3.56347E-08 7.11225E-08-8.42554E-09 5.90559E-09
 -1       347-1.23694E-07 1.46321E-08 6.02466E-08 9.54637E-08-1.06351E-08 1.55599E-08
 -1       348-2.59102E-07 7.96169E-08 8.96683E-08 5.27935E-08-3.65675E-09 2.09744E-08
 -1       349-3.72184E-07 9.52112E-08 1.40880E-07-1.53267E-07 7.44368E-09-6.23175E-09
 -1       350-5.12616E-07 2.08077E-08 2.67992E-07-4.65841E-07-6.12103E-08-1.05654E-07
 -1       351-7.97994E-07 6.30256E-08 3.67934E-07-4.56478E-09-1.39556E-07-3.22095E-07
 -1       352 2.75453E-06-6.40235E-06 2.11102E-06-2.59866E-08 9.41906E-07 4.81415E-07
 -1       353 2.77774E-06-6.45649E-06 2.16478E-06 2.73231E-07-1.13395E-06-9.25705E-08
 -1       354-6.83657E-07 5.54488E-07 1.21231E-08 1.69476E-07 6.08300E-07-1.06846E-07
 -1       355-5.98638E-07 3.71395E-08 3.01834E-07 4.93406E-07 9.95955E-08-1.34996E-07
 -1       356-4.10908E-07 1.24794E-07 1.60374E-07 1.34494E-07-1.44395E-08-2.05656E-09
 -1       357-2.95862E-07 9.80654E-08 1.07176E-07-7.65328E-08 2.14891E-09 1.19741E-08
 -1       358-1.41750E-07 7.79926E-09 7.60111E-08-1.14435E-07 6.19952E-09 7.15607E-09
 -1       359-1.86509E-08-6.77006E-08 4.40347E-08-8.49012E-08 8.38442E-09 5.87397E-09
 -1       360 1.91317E-08-7.20154E-08 2.87912E-08-2.55852E-08 2.56770E-09 4.68802E-11
 -1       361 6.74824E-02-2.05402E-02-2.08943E-02-2.16193E-02-3.06786E-04 5.29095E-04
 -1       362 6.40187E-02-1.81298E-02-2.09047E-02-2.12140E-02 3.44102E-04 1.48337E-04
 -1       363 6.99745E-02-2.30310E-02-2.22483E-02-1.59272E-02 1.03279E-03-1.26735E-03
 -1       364 6.63402E-02-2.01839E-02-2.01355E-02-2.12432E-02 4.79201E-04-5.23742E-05
 -1       365 6.65799E-02-2.12259E-02-2.22044E-02-1.97960E-02-2.94401E-04 6.16363E-04
 -1       366 4.81529E-02-4.30342E-03-2.12154E-02-3.71858E-02 2.00718E-03-6.46109E-03
 -1       367 2.15282E-02 1.18830E-02-1.57928E-02-3.59889E-02 6.32537E-03-8.12632E-03
 -1       368 6.36699E-02-1.44129E-02-2.30014E-02-2.90393E-02-2.77350E-05-2.89326E-03
 -1       369 6.71019E-02-1.91297E-02-2.09735E-02 2.25501E-02-1.43360E-04 3.64244E-04
 -1       370 6.78714E-02-2.17550E-02-2.07611E-02 2.03522E-02-2.54432E-04-3.35194E-04
 -1       371 6.93517E-02-2.34010E-02-2.22687E-02 1.52534E-02-7.48160E-04-1.23844E-03
 -1       372 7.14483E-02-2.35827E-02-2.02780E-02 2.44709E-02 1.14560E-04 5.39660E-04
 -1       373 6.70639E-02-2.11732E-02-2.26644E-02 1.78211E-02 2.65236E-04 3.06907E-04
 -1       374 5.09587E-02-5.30887E-03-2.23586E-02 3.56400E-02-1.53031E-03-4.95329E-03
 -1       375 2.18330E-02 1.15143E-02-1.65946E-02 3.69662E-02-5.33932E-03-7.31353E-03
 -1       376 6.27741E-02-1.38539E-02-2.26157E-02 2.69070E-02-7.30260E-04-1.46808E-03
 -1       377 5.18236E-02-1.89073E-02-1.87088E-02-2.49477E-03-3.98422E-05 3.75624E-04
 -1       378 5.15750E-02-1.85962E-02-1.85534E-02-2.53345E-03 4.77068E-05-1.01059E-04
 -1       379 5.16012E-02-1.85116E-02-1.86226E-02-2.66832E-03 1.50772E-05-3.04753E-05
 -1       380 5.01263E-02-1.78579E-02-1.80829E-02-3.06382E-03-1.08782E-04 1.68396E-04
 -1       381 4.51701E-02-1.61283E-02-1.62345E-02-3.34454E-03-6.72861E-05 6.06269E-04
 -1       382 3.44021E-02-1.22872E-02-1.24839E-02-3.48963E-03-7.70041E-05 1.95812E-04
 -1       383 2.85443E-02-8.68366E-03-1.14238E-02 3.68415E-03 3.83091E-05-1.62602E-03
 -1       384 3.42138E-02-1.38175E-02-1.11749E-02 3.14610E-03-1.86478E-04-9.82351E-04
 -1       385 1.69908E-02-5.92422E-03-6.07773E-03-2.78901E-03-1.71827E-04 6.27890E-04
 -1       386 4.44912E-03-1.60256E-03-1.72166E-03-6.43829E-04 5.86347E-05 2.76582E-04
 -1       387 7.73677E-04-4.18727E-04-2.59245E-04-1.31576E-04 1.05366E-04 3.13451E-05
 -1       388-1.94207E-04 5.23899E-05 9.36486E-05 9.11660E-05-1.63969E-05-3.32755E-05
 -1       389-1.88683E-04 6.50956E-05 7.16095E-05 5.23036E-05-1.35782E-05-1.89726E-05
 -1       390-8.89957E-05 2.92711E-05 3.28511E-05 3.27713E-05-8.64267E-07-9.43109E-06
 -1       391-2.91312E-05 1.04499E-05 1.10801E-05 6.54830E-06-1.80986E-07-3.10300E-06
 -1       392 5.48956E-02-1.84889E-02-1.99677E-02-6.17706E-03 7.06609E-04 6.26153E-04
 -1       393 5.14942E-02-1.85670E-02-1.85885E-02-2.67225E-03 2.58182E-05 2.98443E-05
 -1       394 5.16010E-02-1.85718E-02-1.85904E-02-2.61453E-03 1.85545E-05-6.00563E-05
 -1       395 5.11458E-02-1.82862E-02-1.84275E-02-2.86947E-03-7.83154E-05 9.07397E-05
 -1       396 4.82214E-02-1.69136E-02-1.74417E-02-3.16475E-03-9.22150E-05 3.51950E-04
 -1       397 4.00491E-02-1.41325E-02-1.44704E-02-3.46413E-03 1.01924E-04 8.85306E-04
 -1       398 3.00934E-02-1.04626E-02-1.09442E-02-1.11463E-03-3.50191E-04-1.00283E-03
 -1       399 3.19225E-02-1.07083E-02-1.28327E-02 5.41380E-03 2.47204E-04-1.60627E-03
 -1       400 2.58939E-02-9.60895E-03-9.29346E-03-1.20033E-03 4.86731E-05 1.17928E-04
 -1       401 9.55551E-03-3.88606E-03-3.33867E-03-1.80533E-03 3.74672E-05 6.25937E-04
 -1       402 1.99840E-03-9.28747E-04-7.77927E-04-2.66137E-04 1.30141E-05 1.62454E-04
 -1       403 8.99815E-05-5.75368E-05-5.95210E-05-2.65960E-05 2.75085E-05-4.95578E-05
 -1       404-2.21154E-04 5.97490E-05 8.51178E-05 6.16078E-05 4.62944E-06-2.35722E-05
 -1       405-1.45083E-04 4.64490E-05 5.07370E-05 5.07428E-05-5.24874E-07-1.83076E-05
 -1       406-6.12610E-05 2.03676E-05 2.21620E-05 1.75648E-05-2.43472E-06-7.34284E-06
 -1       407-1.57573E-05 7.94880E-06 5.95222E-06 1.73602E-06-3.46568E-07-2.33778E-06
 -1       408 5.22144E-02-1.91310E-02-1.88100E-02 2.53682E-03-8.67855E-05 3.44099E-04
 -1       409 5.16935E-02-1.85509E-02-1.86472E-02 2.66066E-03-2.17458E-05-6.38189E-05
 -1       410 5.17675E-02-1.85752E-02-1.86559E-02 2.75905E-03-1.99911E-05-3.16000E-06
 -1       411 5.06640E-02-1.81625E-02-1.82769E-02 3.10281E-03-7.14216E-06 1.59961E-04
 -1       412 4.55493E-02-1.62925E-02-1.64063E-02 3.55263E-03 1.27148E-04 5.24130E-04
 -1       413 3.46972E-02-1.23233E-02-1.25695E-02 2.98701E-03 2.02439E-04 6.74282E-04
 -1       414 2.55386E-02-6.52167E-03-1.09705E-02-2.79339E-03 3.95492E-04-1.29681E-03
 -1       415 3.60014E-02-1.58696E-02-1.02670E-02-5.28698E-04 1.54385E-04-1.67869E-03
 -1       416 1.59272E-02-5.47954E-03-5.70788E-03 2.95399E-03 4.10098E-04 1.12363E-03
 -1       417 4.34877E-03-1.59296E-03-1.74181E-03 3.97714E-04-1.36803E-04 3.82102E-04
 -1       418 4.73348E-04-2.11141E-04-1.46397E-04 1.48100E-04 1.80965E-05 1.39984E-05
 -1       419-1.55427E-04 1.56004E-05 7.64717E-05-1.30891E-04 3.95127E-05-3.20783E-05
 -1       420-2.07718E-04 6.77045E-05 7.45705E-05-7.13669E-05 2.48993E-06-2.33362E-05
 -1       421-9.26121E-05 2.97643E-05 3.58980E-05-3.24489E-05-1.22293E-06-1.25832E-05
 -1       422-2.87123E-05 1.04537E-05 9.20259E-06-5.60304E-06 2.49153E-07-2.04484E-06
 -1       423 5.56568E-02-1.87751E-02-2.03790E-02 6.72910E-03-3.44884E-04 6.87661E-04
 -1       424 5.16247E-02-1.85079E-02-1.86485E-02 2.78533E-03-2.51154E-05 7.87597E-05
 -1       425 5.17818E-02-1.85922E-02-1.86726E-02 2.71243E-03-6.65992E-06-4.88700E-05
 -1       426 5.13972E-02-1.83450E-02-1.85528E-02 2.96884E-03 8.82049E-09 2.70197E-05
 -1       427 4.84828E-02-1.73191E-02-1.76070E-02 3.45345E-03-1.12917E-04 2.88499E-04
 -1       428 4.00546E-02-1.42893E-02-1.44128E-02 3.19661E-03 5.89508E-04 8.71600E-04
 -1       429 3.07133E-02-1.12030E-02-1.06907E-02 5.83231E-04 4.99590E-04-7.61844E-04
 -1       430 3.09377E-02-1.00980E-02-1.11667E-02-4.19978E-03 7.33841E-04-1.20645E-03
 -1       431 2.63549E-02-9.92206E-03-9.34677E-03 1.96292E-03 1.40799E-04 3.62987E-05
 -1       432 9.48882E-03-3.61697E-03-3.63287E-03 1.85075E-03-1.55611E-04 8.31325E-04
 -1       433 1.88249E-03-7.85597E-04-7.11386E-04 2.82347E-04 3.38831E-05 1.19524E-04
 -1       434 1.16905E-04-1.19845E-04-2.93391E-05-1.22447E-05-3.27459E-05 7.46759E-07
 -1       435-2.34856E-04 8.18021E-05 7.11780E-05-8.90575E-05 3.29481E-05-1.59211E-05
 -1       436-1.43431E-04 4.57908E-05 6.10209E-05-5.02145E-05-7.04464E-06-1.91316E-05
 -1       437-5.60825E-05 1.97047E-05 2.00271E-05-1.95924E-05 1.20894E-06-6.30778E-06
 -1       438-1.53543E-05 6.88232E-06 5.19907E-06-1.36599E-06 2.71599E-06-1.06816E-06
 -1       439 2.74981E-07-1.69106E-07-2.95966E-08 2.81732E-08-6.50624E-08 9.24541E-08
 -1       440 2.43650E-07-1.64947E-08-1.30248E-07-1.93083E-07-1.10925E-08 2.73054E-08
 -1       441 3.55834E-07-1.14291E-07-1.33464E-07-1.39320E-07 4.31697E-09-2.18135E-10
 -1       442 3.47264E-07-1.35295E-07-1.20439E-07 3.77073E-08-3.44445E-09 6.07740E-09
 -1       443 2.41786E-07-6.88853E-08-9.87127E-08 1.08041E-07 3.08097E-09 9.84589E-09
 -1       444 1.35103E-07 3.10078E-09-7.73217E-08 1.31397E-07 4.57198E-09 5.51888E-09
 -1       445 3.69841E-08 6.98197E-08-6.02149E-08 1.20138E-07 2.82718E-09 3.70408E-09
 -1       446-5.45386E-09 8.75755E-08-4.62048E-08 7.41073E-08 1.17301E-09 9.99636E-10
 -1       447-2.96473E-08 9.81247E-08-3.88488E-08 3.70871E-08-4.94501E-10 3.37213E-10
 -1       448-4.52898E-08 1.08631E-07-3.55823E-08 9.71501E-10-2.77011E-09 3.13533E-09
 -1       449-2.92544E-08 9.61568E-08-3.72689E-08-3.29998E-08-2.45906E-09-3.98147E-10
 -1       450-1.15368E-08 9.13601E-08-4.48183E-08-7.14014E-08-3.79189E-09 1.95133E-09
 -1       451 3.34012E-08 6.83295E-08-5.83228E-08-1.16934E-07-2.69960E-09 5.37297E-09
 -1       452 1.39477E-07-2.67366E-09-7.76091E-08-1.30662E-07 6.77813E-10 1.09219E-09
 -1       453 2.37976E-07-6.85737E-08-9.45951E-08-9.56984E-08-1.76260E-09 4.20784E-09
 -1       454 3.59915E-07-1.50779E-07-1.15226E-07-6.79607E-09 2.62577E-09 3.82438E-10
 -1       455 3.35143E-07-1.03876E-07-1.30778E-07 1.49606E-07-4.57612E-09-1.47469E-08
 -1       456 2.11040E-07 4.32539E-09-1.27033E-07 2.02914E-07 3.34512E-09 5.98025E-09
 -1       457 3.32756E-07-1.87609E-07-1.13119E-07-1.82931E-07 4.39225E-08 4.64666E-08
 -1       458-6.74384E-07 6.46476E-08 4.59205E-07-2.12351E-07-3.90207E-09 1.05748E-08
 -1       459 1.79903E-07-1.78337E-08-7.81870E-08-1.59186E-07-3.90355E-08 6.38659E-08
 -1       460 3.03604E-07-7.08377E-08-1.34604E-07-1.78243E-07 3.87661E-09 4.79503E-09
 -1       461 3.33185E-07-1.20802E-07-1.21109E-07-5.41958E-08-3.94624E-09 1.64027E-08
 -1       462 2.89248E-07-9.74602E-08-1.09029E-07 7.62217E-08 5.41345E-09 1.10850E-08
 -1       463 1.86389E-07-3.29785E-08-8.96019E-08 1.24431E-07 4.57069E-09 8.02933E-09
 -1       464 8.88759E-08 3.16351E-08-6.88010E-08 1.22688E-07 3.89531E-09 5.94664E-09
 -1       465 1.21812E-08 8.15746E-08-5.23141E-08 9.55781E-08 2.76140E-09 1.79101E-09
 -1       466-1.67532E-08 9.11995E-08-4.27506E-08 5.56026E-08 6.69680E-10 1.54673E-09
 -1       467-3.32771E-08 9.53807E-08-3.64292E-08 2.07736E-08-3.55239E-10 1.01550E-09
 -1       468-3.23205E-08 9.66210E-08-3.68402E-08-1.78771E-08-2.85138E-09 7.41047E-10
 -1       469-2.30453E-08 9.39906E-08-4.01204E-08-5.15363E-08-3.84576E-09 1.16900E-09
 -1       470 8.37251E-09 8.32722E-08-5.29949E-08-9.50798E-08-4.21463E-09 2.55130E-09
 -1       471 8.35793E-08 2.88255E-08-6.58929E-08-1.16405E-07-2.19326E-09 1.19736E-09
 -1       472 1.87970E-07-3.48700E-08-8.78074E-08-1.11507E-07-2.94586E-10 3.14993E-09
 -1       473 2.90453E-07-1.01350E-07-1.08639E-07-6.01979E-08-1.89628E-09-3.09968E-09
 -1       474 3.25067E-07-1.15663E-07-1.22794E-07 7.37005E-08-1.48142E-09 4.08675E-09
 -1       475 2.86432E-07-5.90916E-08-1.29264E-07 1.84289E-07-9.54622E-09-9.15482E-09
 -1       476 1.85612E-07-1.14284E-08-8.61586E-08 1.59940E-07 5.06129E-09 7.73733E-08
 -1       477-7.34374E-07 1.26637E-07 4.44346E-07 3.65081E-07-1.63319E-07-6.50682E-10
 -1       478-1.44444E-02 1.10531E-02 1.61451E-03-9.68859E-03 7.76838E-04-1.13003E-03
 -1       479 2.23166E-02-1.06475E-02-7.51997E-03-2.56946E-02-6.42344E-04 7.76187E-03
 -1       480 7.54864E-02-2.41579E-02-2.73526E-02-7.73723E-03 4.47444E-03-6.48100E-04
 -1       481 7.39557E-02-2.11609E-02-2.84188E-02 6.77793E-03-3.96066E-03-9.15517E-04
 -1       482 2.21340E-02-1.13553E-02-7.66486E-03 2.65940E-02-1.12116E-04 7.60326E-03
 -1       483-1.45903E-02 1.15441E-02 1.35425E-03 1.04134E-02-6.43829E-04-1.46096E-03
 -1       484-9.88532E-03 1.08312E-02-5.56216E-04-4.30776E-03 1.14230E-03-9.15882E-04
 -1       485-6.87106E-03 4.02160E-03 6.80461E-04-2.11249E-02 2.20062E-04 4.27330E-03
 -1       486 5.98890E-02-2.27667E-02-2.11157E-02-2.20732E-02 4.04478E-03 7.54402E-03
 -1       487 6.75887E-02-1.49548E-02-2.77943E-02-3.65886E-04-3.40215E-04-2.81466E-03
 -1       488 5.98466E-02-2.36013E-02-2.02436E-02 2.18882E-02-3.05627E-03 7.40201E-03
 -1       489-6.93243E-03 4.17763E-03-3.09131E-04 2.20662E-02-5.82858E-04 4.32407E-03
 -1       490-1.01600E-02 1.08751E-02-3.68176E-04 4.68312E-03-9.65383E-04-7.21738E-04
 -1       491 4.13935E-02-8.66710E-03-1.06712E-03-1.08712E-02-4.99098E-03-2.30486E-02
 -1       492 3.69200E-02-2.03384E-02-9.06462E-04-7.54129E-03-4.63284E-03-9.49648E-03
 -1       493 2.17530E-02-1.80192E-02 8.24547E-05 1.81321E-03-2.60582E-03-2.81466E-03
 -1       494 9.64385E-03-9.08231E-03 4.47741E-07 6.09141E-03-8.89787E-04-4.79784E-04
 -1       495 3.31088E-03-3.00782E-03-3.74186E-05 5.76314E-03-3.02959E-04-4.04025E-05
 -1       496 6.14810E-06 2.81013E-04-2.07769E-05 3.99937E-03-1.80664E-04 2.22478E-05
 -1       497-1.28651E-03 1.48555E-03-5.63882E-06 2.21081E-03-1.68328E-04 5.02187E-05
 -1       498-1.43139E-03 1.59808E-03-1.26426E-05 7.89786E-04-9.38440E-05 6.76619E-05
 -1       499-1.01709E-03 1.13130E-03-1.07953E-05-5.12798E-05-4.86029E-05 5.93905E-05
 -1       500-4.96825E-04 5.68384E-04-5.09290E-06-3.45657E-04-3.01329E-05 5.31866E-05
 -1       501-8.82767E-05 1.55305E-04-6.02777E-06-2.57897E-04-1.17373E-05 4.75251E-05
 -1       502 5.83649E-05-2.85522E-06-2.32614E-06 1.38570E-05 9.06439E-07 4.85351E-05
 -1       503-9.31769E-05 1.52457E-04-2.23727E-06 2.76352E-04 1.49001E-05 5.08230E-05
 -1       504-4.93449E-04 5.66754E-04-3.52068E-06 3.46530E-04 3.40616E-05 5.57684E-05
 -1       505-1.02044E-03 1.12654E-03-5.00865E-06 5.16734E-05 6.50650E-05 6.25834E-05
 -1       506-1.44723E-03 1.59183E-03-8.73288E-06-7.94480E-04 1.02700E-04 5.88720E-05
 -1       507-1.27281E-03 1.49193E-03-2.03095E-05-2.21848E-03 1.39162E-04 5.46921E-05
 -1       508 1.48996E-05 2.64996E-04-2.21772E-05-4.02956E-03 1.92496E-04 2.65731E-05
 -1       509 3.39692E-03-3.01251E-03-6.61264E-05-5.75420E-03 3.54969E-04-5.12371E-05
 -1       510 9.87548E-03-9.19483E-03-1.45273E-06-6.23232E-03 1.05396E-03-5.63466E-04
 -1       511 2.17453E-02-1.80777E-02 1.81507E-04-1.95729E-03 2.75754E-03-3.01696E-03
 -1       512 3.66115E-02-2.04506E-02-5.86577E-04 7.45056E-03 4.62944E-03-9.52810E-03
 -1       513 4.07359E-02-8.92816E-03-7.06384E-04 1.09863E-02 5.00169E-03-2.28541E-02
 -1       514 4.17763E-02-3.08123E-03-1.82502E-04-6.89427E-03-3.53925E-03-2.66781E-02
 -1       515 4.00911E-02-1.56599E-02-1.22391E-04-1.01876E-02-7.31900E-03-1.78701E-02
 -1       516 3.05642E-02-2.06260E-02-4.54381E-05-2.22645E-03-4.23103E-03-5.66600E-03
 -1       517 1.49523E-02-1.27704E-02-5.66655E-06 4.47988E-03-1.52071E-03-1.20709E-03
 -1       518 6.45454E-03-5.93964E-03-8.97987E-07 6.29151E-03-6.93840E-04-2.93145E-04
 -1       519 1.40709E-03-1.23088E-03 1.40032E-06 4.90760E-03-2.97875E-04-3.64410E-05
 -1       520-7.67793E-04 9.01017E-04 6.40464E-07 3.04671E-03-1.98463E-04 2.87776E-05
 -1       521-1.44001E-03 1.58958E-03 1.13419E-07 1.45600E-03-1.56829E-04 6.61749E-05
 -1       522-1.26280E-03 1.37018E-03 1.26019E-07 3.19765E-04-9.35838E-05 7.21969E-05
 -1       523-7.62502E-04 8.21209E-04 7.43584E-08-2.26597E-04-4.74659E-05 6.28368E-05
 -1       524-2.87849E-04 3.37483E-04 2.22186E-08-3.30796E-04-2.29901E-05 5.70893E-05
 -1       525 8.28095E-06 4.25430E-05-6.70971E-08-1.21445E-04-7.40515E-06 5.43886E-05
 -1       526 3.35554E-06 5.11311E-05-4.04588E-08 1.53130E-04 6.94956E-06 5.61841E-05
 -1       527-2.80094E-04 3.37585E-04-8.56452E-09 3.32558E-04 2.42479E-05 6.02956E-05
 -1       528-7.62398E-04 8.23931E-04-1.31203E-08 2.28759E-04 5.03988E-05 6.73305E-05
 -1       529-1.27062E-03 1.36173E-03 1.11326E-07-3.28080E-04 9.36621E-05 7.38566E-05
 -1       530-1.43612E-03 1.57438E-03 3.11670E-07-1.45307E-03 1.45775E-04 6.19706E-05
 -1       531-7.78775E-04 9.10650E-04 6.30603E-07-3.08644E-03 2.06282E-04 2.89973E-05
 -1       532 1.40695E-03-1.23882E-03 1.01105E-06-4.92101E-03 3.11145E-04-3.92408E-05
 -1       533 6.61068E-03-6.07036E-03-4.70148E-06-6.45398E-03 8.51213E-04-3.48236E-04
 -1       534 1.51696E-02-1.28532E-02-1.13033E-05-4.64525E-03 1.81401E-03-1.41501E-03
 -1       535 3.01106E-02-2.06543E-02-3.56602E-05 2.30566E-03 4.43247E-03-5.88846E-03
 -1       536 3.99542E-02-1.56101E-02-1.03394E-04 1.01402E-02 7.38000E-03-1.78042E-02
 -1       537 4.19415E-02-3.01145E-03-1.41808E-04 6.45760E-03 3.63025E-03-2.71025E-02
 -1       538 1.26547E-08-7.44197E-08 3.57980E-08 4.98198E-08 9.18156E-09-1.82284E-09
 -1       539-7.31795E-08-2.80678E-08 5.50501E-08 9.47302E-08 5.32933E-09-1.15108E-08
 -1       540-2.22648E-07 4.88042E-08 9.83140E-08 1.24918E-07 3.66174E-09-1.32273E-08
 -1       541-3.53591E-07 1.17088E-07 1.31443E-07-1.92789E-08-6.38156E-09-6.67530E-09
 -1       542-5.00482E-07 8.45578E-08 2.21398E-07-3.09651E-07 2.34261E-08 6.60865E-08
 -1       543-7.19587E-07 1.61611E-07 3.21850E-07-8.19372E-07 2.68824E-07 2.92923E-07
 -1       544 1.16161E-07-9.74157E-07 6.79533E-07 1.06470E-06-5.70969E-07-1.86656E-07
 -1       545 3.75754E-06-1.03652E-05 3.56667E-06-1.96293E-07-3.42675E-08-2.41999E-08
 -1       546-2.19531E-08-3.56330E-07 4.82152E-07-3.00734E-07 3.20731E-07-3.49028E-07
 -1       547-6.32421E-07 2.63810E-07 8.49093E-08 7.94624E-07-2.87177E-07 3.67722E-07
 -1       548-4.08116E-07 7.28626E-08 1.81473E-07 2.45806E-07 1.26999E-08-1.00229E-09
 -1       549-2.86685E-07 8.01800E-08 1.15838E-07 6.30645E-08 7.74043E-09-2.34716E-08
 -1       550-1.82022E-07 4.89265E-08 7.81129E-08-9.62451E-08-1.58890E-08-2.49775E-08
 -1       551-7.02983E-08-9.64403E-09 4.44094E-08-6.80416E-08-7.84741E-09-1.08748E-08
 -1       552 9.70257E-09-5.41070E-08 2.63902E-08-3.57795E-08-5.98327E-09-2.88628E-10
 -1       553 1.52389E-08-6.34700E-08 2.84456E-08 2.78166E-08 5.08847E-09-1.52158E-10
 -1       554-2.00002E-08-6.45006E-08 4.27987E-08 8.36010E-08 1.28454E-08-7.18194E-09
 -1       555-1.45309E-07 1.06983E-08 7.47414E-08 1.21461E-07-1.92739E-09-1.25655E-08
 -1       556-3.20296E-07 9.11235E-08 1.24305E-07 7.18435E-08 5.19143E-09-1.28997E-08
 -1       557-4.30184E-07 1.18504E-07 1.62291E-07-1.50872E-07-1.78430E-09 3.05751E-08
 -1       558-5.60652E-07 2.79716E-08 2.96626E-07-4.55516E-07 1.28340E-07 1.71433E-07
 -1       559-6.65546E-07 1.58299E-07 3.62341E-07-2.32432E-08 7.27414E-08 4.73134E-07
 -1       560 2.92848E-06-6.21026E-06 1.97170E-06-9.27207E-08-1.02736E-06-2.60831E-07
 -1       561 2.51978E-06-6.48645E-06 2.34980E-06 2.18856E-07 9.48058E-07-2.60526E-07
 -1       562-6.35611E-07 5.97339E-07-3.53688E-08 1.54326E-07-5.05657E-07 2.93916E-07
 -1       563-5.29153E-07 8.69364E-09 2.90440E-07 5.14663E-07-1.26008E-07 1.54299E-07
 -1       564-3.45395E-07 8.84754E-08 1.40735E-07 1.53454E-07-1.37096E-08-2.25889E-08
 -1       565-2.59922E-07 9.37362E-08 8.72612E-08-4.15845E-08-1.76677E-09-3.71958E-08
 -1       566-1.21585E-07 1.30875E-08 6.09648E-08-8.70130E-08-2.08939E-08-2.01935E-08
 -1       567-1.63081E-08-4.65721E-08 3.27581E-08-6.26157E-08-1.05160E-08-5.82503E-09
 -1       568 1.51904E-08-5.71202E-08 2.31615E-08-1.71657E-08-2.27866E-09 6.91272E-10
 -1       569-2.28000E-06 6.99598E-07 1.87027E-06 1.66018E-06 3.59067E-07 6.91975E-07
 -1       570-2.47170E-06 7.61626E-07 1.86395E-06 1.50575E-06-3.35581E-07-4.05813E-07
 -1       571-2.40122E-06 1.80088E-06 1.59801E-06 1.26882E-06 5.50342E-07 1.23166E-06
 -1       572-2.49287E-06 1.39783E-06 2.32375E-06 1.43984E-06-5.07692E-08-6.80408E-10
 -1       573-2.79320E-06 1.99088E-06 1.65116E-06 1.09059E-06-4.44453E-07-9.80582E-07
 -1       574-1.45558E-06 9.23735E-08 1.93983E-06-1.19020E-06-4.93206E-07 2.45907E-07
 -1       575-1.57744E-06 4.99794E-07 1.96912E-06-1.39145E-06 4.73648E-07-6.74916E-07
 -1       576-2.57191E-06 1.76651E-06 1.73722E-06-8.26883E-07-4.78983E-07 9.18832E-07
 -1       577-1.42585E-06 4.21185E-07 2.14902E-06-1.63125E-06 1.09460E-08-2.40860E-07
 -1       578-1.87101E-06 1.61830E-06 1.28145E-06-7.30330E-07 4.63786E-07-8.60178E-07
 -1       579-1.00625E-02 9.34913E-03 3.65015E-04 1.33741E-04 1.08276E-04-2.54669E-04
 -1       580-9.81387E-03 9.35933E-03 2.61429E-04 2.80598E-04-3.49778E-05 1.68808E-04
 -1       581-9.69462E-03 1.01971E-02-3.62703E-04 4.47231E-05 5.66974E-05-1.88825E-04
 -1       582-9.97137E-03 9.06067E-03 4.78281E-04 2.80656E-04 6.02636E-05 2.50475E-05
 -1       583-9.56887E-03 1.00461E-02-3.06565E-04 1.24470E-04-3.26706E-05 1.21715E-04
 -1       584 3.34025E-02-3.55110E-03-2.70503E-03-9.11398E-05-8.57002E-05 6.86000E-03
 -1       585 3.09282E-02-1.72592E-03-1.50071E-03-5.00015E-04 1.15188E-04-6.62041E-03
 -1       586 3.63702E-02-3.12591E-03 1.26070E-07-7.38014E-05-6.09580E-05 1.80424E-02
 -1       587 3.23589E-02-2.05749E-03 8.17035E-08 7.03800E-04 6.61315E-04-4.24146E-04
 -1       588 3.31192E-02-1.76052E-03 9.41412E-08-4.12349E-04-1.50810E-03-1.47701E-02
 -1       589 1.67443E-08-6.87396E-08 3.04677E-08 2.33514E-09 4.63464E-10 2.76207E-10
 -1       590 1.46879E-08-6.37653E-08 2.91933E-08-7.82531E-10 8.77321E-10-2.82645E-09
 -1       591 2.48205E-08-7.34488E-08 2.96494E-08-1.33661E-09 1.46319E-09 3.33993E-09
 -1       592 1.51361E-08-6.82981E-08 3.20051E-08-9.66816E-10 1.89147E-09-1.12941E-09
 -1       593 2.12589E-08-6.55012E-08 2.61950E-08 1.23709E-09 2.46389E-10-4.10150E-09
 -1       594-1.61043E-04 4.55302E-04-1.67559E-04 2.33656E-05 2.76150E-07 4.51550E-08
 -1       595-5.78555E-05 4.29579E-04-2.10854E-04-3.05649E-04-1.26041E-07-1.52424E-07
 -1       596 6.29428E-04 8.60437E-05-4.04869E-04-7.01916E-04 1.92705E-07-2.92542E-07
 -1       597-1.59662E-04 4.63473E-04-1.71685E-04 9.71250E-05 1.60395E-07 4.16340E-08
 -1       598-1.16900E-04 4.47294E-04-1.89438E-04 1.99593E-04 1.21668E-07 3.72032E-08
 -1       599-4.35691E-05 4.24349E-04-2.15187E-04 3.34724E-04 1.03658E-07 8.01916E-08
 -1       600 9.87477E-04-1.24028E-04-4.94687E-04 7.80749E-04 4.62322E-07 7.06339E-07
 -1       601 2.23702E-03 5.75089E-04-1.53731E-03 2.87017E-03 6.51192E-06 1.64681E-05
 -1       602 3.24696E-03-4.13544E-04-1.51086E-03 2.43333E-03-8.70940E-06 3.85618E-06
 -1       603 3.67993E-03-1.11291E-03-1.45431E-03 1.58537E-03-1.09196E-07-2.99860E-06
 -1       604 1.62563E-03-4.84788E-04-6.47683E-04-6.90781E-04-1.92633E-07 7.50044E-08
 -1       605 1.03442E-03-1.32501E-04-5.15373E-04-7.31582E-04-9.18099E-08 4.43939E-07
 -1       606 6.66642E-05 3.81211E-04-2.54821E-04 4.36236E-04-2.47145E-07 3.64426E-07
 -1       607 2.52752E-04 2.87506E-04-3.09956E-04 5.97636E-04-4.64748E-07-7.28035E-08
 -1       608 5.67404E-04 1.24046E-04-3.91172E-04 6.89190E-04-7.70762E-07-8.15864E-09
 -1       609 1.53665E-03-4.11700E-04-6.31291E-04 6.59167E-04 9.01629E-07 1.49510E-06
 -1       610 2.07901E-03-6.94392E-04-7.91393E-04 4.60247E-04-1.01314E-06 1.46058E-06
 -1       611-1.02889E-04 4.42435E-04-1.93660E-04-2.31633E-04-3.77206E-07 5.62632E-07
 -1       612-1.46435E-04 4.60715E-04-1.77544E-04-1.40162E-04 3.69240E-07-5.77322E-07
 -1       613 2.60370E-03-9.28419E-04-9.37582E-04 1.58074E-04 5.43135E-06-7.08647E-07
 -1       614 3.53899E-03-8.80466E-04-1.46127E-03-1.81089E-03 3.64871E-05 5.74245E-06
 -1       615-1.34069E-04 2.17285E-03-1.41472E-03-2.31829E-03-2.05846E-04 4.08812E-05
 -1       616-2.50055E-03 5.90647E-03-4.18158E-03-2.93602E-03 5.46539E-05 8.15614E-06
 -1       617 3.52016E-04 2.29555E-04-3.32696E-04-6.08644E-04 1.65564E-07 1.15641E-06
 -1       618 2.72233E-03 1.28556E-04-1.51055E-03-2.80136E-03-1.18802E-05 1.67759E-05
 -1       619 1.61393E-03 1.00624E-03-1.43732E-03-2.87713E-03 1.85350E-05 4.95586E-06
 -1       620 3.24954E-03-1.10663E-03-1.19106E-03 5.58111E-04 1.09573E-06-1.22267E-06
 -1       621 2.43531E-03-8.77897E-04-8.79988E-04-2.98720E-04-8.13612E-07-5.39839E-07
 -1       622 2.76684E-04 1.94949E-03-1.42582E-03 2.74271E-03 1.87878E-05 6.97375E-05
 -1       623-1.01605E-03 3.42263E-03-3.32328E-03 8.77191E-04-2.09757E-05 2.85744E-04
 -1       624 3.51228E-03-6.76972E-04-1.57315E-03-2.36358E-03-1.39553E-05 4.95601E-05
 -1       625 3.31862E-03-4.17715E-04-1.60325E-03-2.42604E-03 4.25482E-05-1.12795E-04
 -1       626 2.04340E-04 3.16070E-04-2.94939E-04-5.57195E-04 3.06859E-06-1.93987E-06
 -1       627 1.76083E-04 3.27812E-04-2.85168E-04-5.32189E-04-2.60336E-06 1.58932E-06
 -1       628 1.25826E-03-2.60001E-04-5.65295E-04 7.33167E-04 9.97712E-06-9.63995E-06
 -1       629 1.25692E-03-2.60231E-04-5.64316E-04 7.31515E-04-9.16013E-06 1.18847E-05
 -1       630-1.63078E-04 4.63315E-04-1.70115E-04 5.01276E-05 2.60142E-07-2.41164E-06
 -1       631-1.63227E-04 4.63733E-04-1.70340E-04 5.03202E-05-6.56004E-08 2.40439E-06
 -1       632 1.84539E-03-5.79321E-04-7.19552E-04 5.95326E-04 5.58857E-06-1.55150E-05
 -1       633 1.84551E-03-5.79227E-04-7.19709E-04 5.95539E-04-4.85851E-06 1.84306E-05
 -1       634 7.91151E-04-3.80968E-06-4.44488E-04 7.48838E-04-6.04881E-06-2.26306E-06
 -1       635-2.65282E-04 2.54878E-03-1.69453E-03-1.86454E-03-4.67831E-04 8.60857E-04
 -1       636 7.90954E-04-3.27595E-06-4.44972E-04 7.49876E-04 6.59507E-06 1.49676E-06
 -1       637-1.64103E-05 2.53155E-03-1.79893E-03-2.50354E-03 4.84026E-04-6.86916E-04
 -1       638 1.88487E-03-5.90427E-04-7.33106E-04-5.54594E-04-1.08385E-05-1.46386E-05
 -1       639 1.88530E-03-5.90699E-04-7.33491E-04-5.53728E-04 1.11366E-05 1.48592E-05
 -1       640-1.68656E-04 4.69619E-04-1.70827E-04-5.47492E-05-4.11897E-07-2.79456E-07
 -1       641-1.68612E-04 4.69429E-04-1.70659E-04-5.52542E-05 4.67228E-07 1.87639E-07
 -1       642 1.97941E-06 4.14524E-04-2.36674E-04 3.99806E-04-4.58751E-07-4.49419E-06
 -1       643 1.78170E-06 4.14651E-04-2.36647E-04 3.99604E-04 3.50710E-07 4.27830E-06
 -1       644-9.31284E-05 4.45748E-04-1.99097E-04 2.59919E-04 6.07127E-07-2.80841E-06
 -1       645-9.30957E-05 4.45642E-04-1.99036E-04 2.60054E-04-5.68435E-07 2.78412E-06
 -1       646 4.56248E-04 1.80129E-04-3.59246E-04-6.55333E-04-2.68955E-06-7.28661E-06
 -1       647 4.56392E-04 1.79985E-04-3.59036E-04-6.57497E-04 2.87193E-06 5.60553E-06
 -1       648 4.23137E-04 1.98323E-04-3.52139E-04 6.39861E-04 2.55566E-06-8.58695E-06
 -1       649 4.23782E-04 1.97093E-04-3.51605E-04 6.39812E-04-2.96235E-06 8.02681E-06
 -1       650-3.18228E-04 2.34672E-03-1.44610E-03 1.66930E-03-5.13722E-04-7.71186E-04
 -1       651 3.57932E-03-1.09699E-03-1.37965E-03-1.31739E-03-6.61874E-07 1.98191E-05
 -1       652 3.45915E-03-1.11645E-03-1.31014E-03-1.01375E-03-6.05828E-06-5.54788E-06
 -1       653 6.89363E-04 1.87382E-03-1.46695E-03-2.76737E-03-3.38084E-04 4.67350E-04
 -1       654 9.15056E-04 1.77518E-03-1.53665E-03-2.71346E-03 3.77275E-04-6.11519E-04
 -1       655 1.31555E-03-2.87296E-04-5.81061E-04-7.31886E-04 6.50647E-06-5.88423E-06
 -1       656 1.31554E-03-2.86908E-04-5.81384E-04-7.31896E-04-7.15050E-06 5.79573E-06
 -1       657-1.55965E-04 2.39862E-03-1.54389E-03 2.37503E-03 4.39668E-04 7.48273E-04
 -1       658 2.40895E-03 5.69294E-04-1.63843E-03-3.07030E-03-1.04771E-04 1.99368E-04
 -1       659 2.39529E-03 5.78498E-04-1.64310E-03-3.08498E-03 9.29943E-05-2.03176E-04
 -1       660 2.19321E-05 4.02043E-04-2.40948E-04-4.14168E-04-2.64767E-08-1.15688E-06
 -1       661 4.91210E-06 4.10136E-04-2.35877E-04-3.94145E-04-1.66028E-07 1.23725E-06
 -1       662-1.50367E-04 4.69956E-04-1.81364E-04 1.52409E-04-1.08161E-06-3.52809E-07
 -1       663-1.50415E-04 4.69989E-04-1.81322E-04 1.52324E-04 1.18806E-06 4.20463E-07
 -1       664-7.76845E-05 4.38600E-04-2.04700E-04-2.77494E-04-1.73828E-06-2.63097E-06
 -1       665-8.19855E-05 4.43705E-04-2.05332E-04-2.78349E-04 6.58722E-07 4.56810E-06
 -1       666 2.83757E-03 1.87423E-04-1.66972E-03 3.13325E-03 9.65162E-05 1.30099E-04
 -1       667 2.82208E-03 2.06101E-04-1.67836E-03 3.11978E-03-9.21650E-05-1.19720E-04
 -1       668 2.44522E-03-8.69499E-04-8.88182E-04 2.80816E-04 6.41850E-06-2.88872E-06
 -1       669 2.44734E-03-8.75012E-04-8.87013E-04 2.75937E-04-6.75761E-06 3.90451E-06
 -1       670 8.17032E-04-2.11278E-05-4.51586E-04-7.63056E-04 3.31716E-06-8.06919E-06
 -1       671 8.16584E-04-2.19614E-05-4.50413E-04-7.61500E-04-3.39889E-06 8.48802E-06
 -1       672 1.69758E-04 3.33053E-04-2.84753E-04 5.31539E-04-3.48841E-06 1.71102E-06
 -1       673 1.68882E-04 3.33630E-04-2.84079E-04 5.32388E-04 3.39027E-06-2.51579E-06
 -1       674 3.53822E-03-7.26700E-04-1.54496E-03 2.13662E-03 1.66973E-05 9.82518E-05
 -1       675-1.42427E-04 4.65995E-04-1.83407E-04-1.68081E-04 1.30635E-06-1.62769E-06
 -1       676 3.53459E-03-7.20275E-04-1.54808E-03 2.14194E-03-1.74083E-05-9.55978E-05
 -1       677-1.42028E-04 4.66189E-04-1.83719E-04-1.68839E-04-1.76364E-06 7.41587E-07
 -1       678 3.16898E-03-1.14452E-03-1.14615E-03-4.07401E-04 8.91974E-06-1.32710E-05
 -1       679 3.06752E-03-1.09290E-03-1.11333E-03-3.00179E-04-3.16050E-06 2.22880E-05
 -1       680 1.16341E-03 1.65639E-03-1.59844E-03 3.12133E-03 2.89543E-04 3.97119E-04
 -1       681 1.13044E-03 1.68256E-03-1.61634E-03 3.12709E-03-2.82081E-04-3.93145E-04
 -1       682 3.57185E-03-1.12482E-03-1.37130E-03 1.16534E-03 2.64119E-05-1.71326E-05
 -1       683 3.58137E-03-1.13112E-03-1.37242E-03 1.16705E-03-2.57454E-05 1.40727E-05
 -1       684 3.00555E-03-1.05546E-03-1.09841E-03 2.57368E-04-2.33607E-05-1.05819E-05
 -1       685 3.00710E-03-1.05447E-03-1.09999E-03 2.57120E-04 2.39421E-05 1.08886E-05
 -1       686 2.51712E-03-9.03883E-04-9.12635E-04-2.55645E-04 9.17474E-06-1.84626E-05
 -1       687 2.51844E-03-9.03883E-04-9.14029E-04-2.56122E-04-9.90059E-06 1.73230E-05
 -1       688 3.27935E-04 5.78274E-03-5.13707E-03 4.93127E-03-1.85872E-03-8.41961E-04
 -1       689-1.17881E-03 6.09258E-03-4.58135E-03 5.71087E-03 9.58820E-04-5.12903E-07
 -1       690-7.71514E-04 6.11631E-03-4.67637E-03-5.31681E-03 9.05036E-04-3.75439E-04
 -1       691-1.80835E-03 6.73020E-03-4.30355E-03-5.82345E-03-1.34086E-03 4.59189E-04
 -1       692 3.75346E-03 7.45234E-03-8.88723E-03-9.64786E-03 2.15682E-03-1.84228E-03
 -1       693-1.06849E-03 9.04838E-03-6.57865E-03-6.31919E-03 2.35337E-03-1.33070E-03
 -1       694-1.23933E-03 5.29598E-03-2.99251E-03-3.85425E-03 7.64005E-05 6.22993E-04
 -1       695 3.80053E-04 9.04441E-03-7.40822E-03 6.66326E-03-3.16495E-03-1.55691E-03
 -1       696 5.27628E-03 8.19885E-03-9.32929E-03 1.11990E-02-3.18535E-03-2.41443E-03
 -1       697-7.89498E-04 5.19519E-03-3.21800E-03 4.00654E-03-3.00609E-04 1.03195E-04
 -1       698-1.49659E-03 5.09479E-03-2.71169E-03-3.57574E-03-7.01704E-05-9.35365E-04
 -1       699-1.06092E-03 8.85752E-03-6.28367E-03-6.69324E-03-2.43623E-03 1.33580E-03
 -1       700 3.33669E-03 7.14346E-03-8.57452E-03-1.05226E-02-2.43844E-03 1.87739E-03
 -1       701 1.77184E-04 2.19495E-03-1.32638E-03-2.72251E-03 5.93605E-04-6.04961E-04
 -1       702 2.35678E-04 2.55595E-03-1.98166E-03-2.21082E-03 5.22814E-04-6.04587E-04
 -1       703-6.44060E-05 2.66416E-03-3.08769E-03-1.97671E-03 2.37237E-05-2.84170E-04
 -1       704 1.35852E-03 1.41833E-03-1.56036E-03-2.96988E-03 4.45919E-04-4.75175E-04
 -1       705 1.19545E-03 1.92844E-03-1.77662E-03-2.85270E-03 4.52869E-04-6.80512E-04
 -1       706 4.22270E-04 2.01692E-03-1.79826E-03-2.68857E-03 4.94387E-04-6.92863E-04
 -1       707 3.00525E-03 2.68017E-05-1.68674E-03-2.90215E-03 9.58780E-05-2.22772E-04
 -1       708 2.21910E-03 9.23666E-04-1.71531E-03-3.16057E-03 5.74942E-05-3.63315E-04
 -1       709 1.56245E-03 1.29006E-03-1.59538E-03-2.91914E-03 1.25107E-04-4.12598E-04
 -1       710 3.59559E-03-7.48463E-04-1.58472E-03-2.07498E-03 7.65157E-06-9.11423E-05
 -1       711 3.40046E-03-3.77880E-04-1.68270E-03-2.56667E-03 6.95904E-05-1.57281E-04
 -1       712 2.95394E-03-4.09985E-06-1.68413E-03-2.82321E-03 1.18600E-04-1.30230E-04
 -1       713 3.45665E-03-1.16250E-03-1.29431E-03-8.83550E-04-4.04571E-06-2.31336E-05
 -1       714 3.61092E-03-1.04423E-03-1.42496E-03-1.37277E-03 8.10955E-06-2.49870E-05
 -1       715 3.63022E-03-9.41774E-04-1.50412E-03-1.78685E-03 1.47905E-05-1.11241E-05
 -1       716 3.41609E-03-5.85135E-04-1.54346E-03-2.10255E-03 9.12545E-06-3.80976E-05
 -1       717 3.56866E-03-1.07007E-03-1.38306E-03-1.40459E-03 3.10269E-05 5.11820E-06
 -1       718 2.96328E-03-1.06994E-03-1.07142E-03-1.48341E-04-7.60148E-06 2.81700E-05
 -1       719 3.25536E-03-1.12813E-03-1.18725E-03-5.32200E-04-2.81135E-05 1.84959E-05
 -1       720 3.22970E-03-1.05462E-03-1.22891E-03-6.37063E-04-2.62502E-05 9.65621E-06
 -1       721 2.32886E-03-8.22408E-04-8.54735E-04 3.77062E-04-8.75655E-06-4.20748E-06
 -1       722 2.65121E-03-9.35311E-04-9.64943E-04 1.19097E-04-1.11361E-06 5.06891E-06
 -1       723 2.75750E-03-1.02249E-03-9.94488E-04 1.61872E-05 2.46232E-05 1.03702E-05
 -1       724 1.68541E-03-4.94117E-04-6.78003E-04 6.53406E-04-9.89691E-06 2.28058E-05
 -1       725 2.02045E-03-6.62327E-04-7.59776E-04 5.30262E-04-1.93778E-05 1.81448E-05
 -1       726 2.10969E-03-7.06902E-04-7.99557E-04 4.39983E-04-1.53521E-05 1.04921E-05
 -1       727 1.13115E-03-1.87125E-04-5.37642E-04 7.57111E-04-9.74459E-06 1.83801E-06
 -1       728 1.41629E-03-3.38379E-04-6.11090E-04 7.15848E-04-4.15469E-06 1.27230E-05
 -1       729 1.53458E-03-4.31327E-04-6.41696E-04 6.82379E-04 4.38660E-06 6.43213E-06
 -1       730 6.86461E-04 5.85949E-05-4.18763E-04 7.39938E-04 2.73565E-06 4.17041E-06
 -1       731 8.87780E-04-5.71926E-05-4.67114E-04 7.45658E-04-1.64517E-06 6.52288E-06
 -1       732 1.00106E-03-1.20998E-04-5.00921E-04 7.28611E-04-1.15313E-05 1.81240E-05
 -1       733 3.45496E-04 2.40879E-04-3.35130E-04 6.21740E-04-7.03698E-06 1.35992E-06
 -1       734 5.06710E-04 1.61428E-04-3.75619E-04 6.90147E-04-3.41994E-06 4.59898E-06
 -1       735 5.86639E-04 9.82171E-05-3.96011E-04 7.08491E-04 8.29829E-06-1.70481E-07
 -1       736 1.22070E-04 3.60535E-04-2.71167E-04 5.04416E-04 2.41737E-06-2.53744E-07
 -1       737 2.31845E-04 3.00354E-04-2.98484E-04 5.56700E-04 2.59749E-07 2.49264E-06
 -1       738 2.95529E-04 2.63847E-04-3.18778E-04 5.72154E-04-3.04975E-06 8.71413E-06
 -1       739-2.33385E-05 4.28223E-04-2.30001E-04 3.66224E-04-6.53495E-07 6.12215E-06
 -1       740 4.46842E-05 3.99064E-04-2.49935E-04 4.35980E-04-2.02651E-06 6.26341E-06
 -1       741 7.09735E-05 3.73203E-04-2.57644E-04 4.61782E-04 3.53431E-06-5.97198E-06
 -1       742-1.08803E-04 4.55512E-04-1.95877E-04 2.37072E-04-1.57990E-06 1.97472E-06
 -1       743-7.04724E-05 4.40591E-04-2.09876E-04 2.98210E-04 1.49540E-06 1.38029E-06
 -1       744-5.64913E-05 4.30424E-04-2.16251E-04 3.24909E-04 4.70442E-07 2.48911E-06
 -1       745-1.56923E-04 4.71510E-04-1.75881E-04 1.28047E-04 1.15147E-06 2.88981E-06
 -1       746-1.31429E-04 4.58068E-04-1.83919E-04 1.79863E-04 1.17099E-06 2.60153E-06
 -1       747-1.19523E-04 4.49194E-04-1.89156E-04 2.02287E-04 6.55374E-07 2.28579E-06
 -1       748-1.65420E-04 4.65214E-04-1.70429E-04 2.31710E-05-1.43348E-06 1.49131E-06
 -1       749-1.65118E-04 4.72726E-04-1.74153E-04 7.60594E-05 1.51720E-06 2.05156E-06
 -1       750-1.63384E-04 4.68266E-04-1.76675E-04 9.97326E-05-1.21661E-07 1.97682E-06
 -1       751-1.64194E-04 4.71288E-04-1.72932E-04-7.93073E-05-8.00487E-07 2.47914E-06
 -1       752-1.65646E-04 4.65176E-04-1.69924E-04-2.58523E-05-7.97346E-07 2.53669E-06
 -1       753-1.64983E-04 4.61031E-04-1.70250E-04-6.86023E-07 4.61518E-07 6.31629E-07
 -1       754-1.30212E-04 4.58333E-04-1.85261E-04-1.88579E-04-5.25985E-07 3.36062E-06
 -1       755-1.53404E-04 4.70921E-04-1.78790E-04-1.34739E-04-5.26266E-07 1.99317E-06
 -1       756-1.60196E-04 4.62233E-04-1.75816E-04-1.09426E-04-9.22160E-07-1.04674E-06
 -1       757-6.19919E-05 4.41461E-04-2.15405E-04-3.09764E-04-8.41559E-07 4.07369E-06
 -1       758-1.05033E-04 4.56444E-04-2.00068E-04-2.44370E-04 2.62757E-06 2.24916E-06
 -1       759-1.11326E-04 4.47451E-04-1.92889E-04-2.19695E-04-9.63463E-07 4.49204E-06
 -1       760 4.38467E-05 3.98665E-04-2.48341E-04-4.32065E-04 1.90620E-06 4.81930E-06
 -1       761-2.34165E-05 4.22500E-04-2.26901E-04-3.60709E-04 5.59795E-07 4.49974E-06
 -1       762-4.46239E-05 4.24440E-04-2.19693E-04-3.32885E-04-7.05358E-07-6.69861E-07
 -1       763 2.35211E-04 2.98704E-04-3.00893E-04-5.57871E-04-1.14252E-06 3.78657E-06
 -1       764 1.25928E-04 3.57761E-04-2.73839E-04-5.04582E-04-7.52440E-07 1.23571E-06
 -1       765 7.90828E-05 3.71960E-04-2.59248E-04-4.59721E-04-1.47709E-06-5.32190E-08
 -1       766 5.25277E-04 1.52795E-04-3.81158E-04-6.98943E-04 3.17033E-06 4.05722E-06
 -1       767 3.60121E-04 2.32292E-04-3.38754E-04-6.29520E-04 5.52137E-06 1.27799E-06
 -1       768 3.13400E-04 2.52525E-04-3.21503E-04-5.83088E-04 3.12195E-06 7.67269E-06
 -1       769 8.99090E-04-6.38924E-05-4.70034E-04-7.49873E-04 3.14647E-06 1.03398E-05
 -1       770 7.01229E-04 4.93119E-05-4.22634E-04-7.42697E-04 3.43688E-08 6.96991E-06
 -1       771 6.17342E-04 7.57422E-05-4.02039E-04-7.21890E-04-4.28580E-06 2.53394E-06
 -1       772 1.44053E-03-3.57678E-04-6.09244E-04-7.08598E-04 2.25903E-07 1.34839E-05
 -1       773 1.15631E-03-1.99508E-04-5.41077E-04-7.63406E-04-2.55251E-07 3.77042E-06
 -1       774 1.02731E-03-1.43526E-04-5.12189E-04-7.46339E-04-3.87516E-06 8.14175E-06
 -1       775 2.06268E-03-6.80167E-04-7.77032E-04-5.23917E-04 1.00870E-05 8.21065E-06
 -1       776 1.70735E-03-5.06769E-04-6.85784E-04-6.38730E-04 1.06925E-05 4.79349E-07
 -1       777 1.58304E-03-4.22886E-04-6.58324E-04-6.29001E-04 8.40210E-06 1.23887E-05
 -1       778 2.65800E-03-9.38512E-04-9.62523E-04-1.01007E-04 3.90385E-06 1.57095E-05
 -1       779 2.36814E-03-8.38202E-04-8.59921E-04-3.70330E-04-8.19323E-06 1.22547E-05
 -1       780 2.20172E-03-7.73680E-04-8.24723E-04-4.38664E-04-5.49278E-06 1.06960E-05
 -1       781 3.27779E-03-1.13752E-03-1.19782E-03 5.15488E-04 1.83269E-05 1.65688E-06
 -1       782 2.94425E-03-1.05943E-03-1.06973E-03 1.33335E-04 1.50718E-05-5.12620E-06
 -1       783 2.72001E-03-9.34195E-04-1.01034E-03 3.63281E-06 1.52422E-05 1.33545E-05
 -1       784 3.61262E-03-1.00137E-03-1.45249E-03 1.44623E-03 9.08377E-06-9.31692E-06
 -1       785 3.54306E-03-1.17084E-03-1.33389E-03 9.75709E-04-1.42964E-05 1.53246E-05
 -1       786 3.34129E-03-1.17051E-03-1.23592E-03 6.88258E-04-2.75763E-05 1.04991E-05
 -1       787 3.48944E-03-5.03386E-04-1.66208E-03 2.43229E-03-4.77824E-05-1.24203E-04
 -1       788 3.62816E-03-8.61320E-04-1.54430E-03 1.95253E-03-2.04460E-05-9.59107E-05
 -1       789 3.53614E-03-8.78078E-04-1.47528E-03 1.63437E-03 2.82508E-05-3.41635E-05
 -1       790 2.41162E-03 5.73155E-04-1.66629E-03 3.02227E-03-1.11386E-04-3.18592E-04
 -1       791 3.15023E-03-4.77980E-05-1.69107E-03 2.94267E-03-1.12786E-04-1.67450E-04
 -1       792 3.20319E-03-3.82350E-04-1.62885E-03 2.64511E-03-9.52371E-05-7.90518E-05
 -1       793 1.17118E-03 1.93771E-03-1.76433E-03 2.90723E-03-3.35001E-04-6.17446E-04
 -1       794 1.70404E-03 1.47211E-03-1.78353E-03 3.27376E-03-3.78643E-04-4.04540E-04
 -1       795 1.99506E-03 7.65795E-04-1.65704E-03 3.07429E-03-1.22111E-04-2.90155E-04
 -1       796 2.36377E-04 2.46837E-03-1.85948E-03 2.27481E-03-7.09640E-04-5.65055E-04
 -1       797 2.29614E-04 2.05620E-03-1.41044E-03 2.42262E-03-7.73849E-04-7.61415E-04
 -1       798 2.54559E-04 2.18033E-03-1.53307E-03 2.43864E-03-2.38986E-04-6.44933E-04
 -1       799-1.22359E-03 9.04517E-03-6.15106E-03 6.15919E-03 2.39492E-03 1.35137E-03
 -1       800-1.29140E-03 5.18718E-03-3.02256E-03 3.56589E-03 1.09978E-05-1.02714E-03
 -1       801-1.61268E-04 3.01931E-03-2.95211E-03 1.96816E-03-3.60904E-05-4.02116E-04
 -1       802 3.36790E-03 6.58244E-03-8.75135E-03-9.76102E-03 7.10615E-04-5.87038E-04
 -1       803 3.96955E-03 6.40446E-03-8.90058E-03-9.84601E-03-5.18347E-04 4.19987E-04
 -1       804-1.00655E-03 6.18737E-03-4.98830E-03-5.06588E-03-4.12114E-04 8.48450E-04
 -1       805-1.12466E-03 6.04679E-03-4.77740E-03-4.96734E-03 3.82425E-04-5.81009E-04
 -1       806 3.05978E-03 5.94401E-03-8.27672E-03 7.53403E-03 2.44927E-04-1.59222E-04
 -1       807 4.42929E-03 6.00759E-03-8.49141E-03 8.10536E-03-1.29026E-03-9.15923E-04
 -1       808 3.44732E-03 7.19730E-03-8.44248E-03 1.04752E-02 1.91081E-03 1.67833E-03
 -1       809 5.33849E-05 4.06601E-03-4.24533E-03 3.00429E-03 5.88507E-04 7.46817E-04
 -1       810-4.61232E-04 4.05032E-03-4.30382E-03 2.45950E-03-1.04779E-03-4.98252E-05
 -1       811 2.86809E-04 2.64909E-03-2.10554E-03-2.31458E-03-5.61993E-04 6.49071E-04
 -1       812 2.38395E-04 2.13380E-03-1.47276E-03-2.53752E-03-6.88635E-04 7.14284E-04
 -1       813 4.99021E-05 3.14328E-03-3.15720E-03-2.27243E-03 1.12041E-04 3.76557E-04
 -1       814 9.22176E-04 2.06432E-03-1.71376E-03-2.81884E-03-3.96250E-04 6.95304E-04
 -1       815 1.42662E-03 1.43110E-03-1.57881E-03-3.02462E-03-4.67366E-04 4.15216E-04
 -1       816 3.58590E-05 2.31809E-03-1.49341E-03-2.38843E-03-2.72345E-04 7.55429E-04
 -1       817 2.25653E-03 9.09658E-04-1.73725E-03-3.16385E-03-6.90771E-05 3.51961E-04
 -1       818 3.01640E-03 1.74346E-05-1.68461E-03-2.90982E-03-1.06455E-04 2.23691E-04
 -1       819 1.65115E-03 1.23711E-03-1.63425E-03-2.99183E-03-2.03321E-04 3.56552E-04
 -1       820 3.44772E-03-4.56523E-04-1.66379E-03-2.45564E-03-2.09228E-05 1.17461E-04
 -1       821 3.63579E-03-8.34120E-04-1.54997E-03-2.05984E-03 4.40967E-06 3.40614E-05
 -1       822 3.00231E-03-1.50976E-04-1.62780E-03-2.67683E-03-1.10203E-04 1.12693E-04
 -1       823 3.66223E-03-1.01905E-03-1.47471E-03-1.51691E-03-3.13860E-06 2.45180E-05
 -1       824 3.51411E-03-1.14932E-03-1.33834E-03-1.04243E-03-4.48459E-07 2.78871E-05
 -1       825 3.60904E-03-9.77354E-04-1.52512E-03-1.89632E-03-2.42488E-05 2.59464E-05
 -1       826 3.29593E-03-1.13556E-03-1.20570E-03-5.96630E-04 3.54307E-05-9.82632E-06
 -1       827 3.01001E-03-1.08590E-03-1.09422E-03-2.07303E-04 2.54331E-05-2.71368E-05
 -1       828 3.32684E-03-1.10150E-03-1.25711E-03-8.29908E-04 2.63187E-05 9.78964E-07
 -1       829 2.65295E-03-9.33221E-04-9.65287E-04 1.22162E-04-1.95761E-06-6.67679E-06
 -1       830 2.32749E-03-8.20621E-04-8.54826E-04 3.76865E-04 8.64398E-06 3.41454E-06
 -1       831 2.81324E-03-1.04541E-03-1.02030E-03-3.82708E-05-1.69174E-05-5.08783E-06
 -1       832 2.02012E-03-6.62088E-04-7.59909E-04 5.31166E-04 1.95106E-05-1.65207E-05
 -1       833 1.68691E-03-4.94485E-04-6.78578E-04 6.53087E-04 1.01551E-05-2.10910E-05
 -1       834 2.10820E-03-7.04657E-04-7.99273E-04 4.40254E-04 1.65227E-05-9.41331E-06
 -1       835 1.41820E-03-3.38775E-04-6.12016E-04 7.17170E-04 4.61505E-06-1.12224E-05
 -1       836 1.13173E-03-1.86722E-04-5.38180E-04 7.57928E-04 1.06128E-05-3.09417E-07
 -1       837 1.53603E-03-4.31711E-04-6.41810E-04 6.82674E-04-3.95867E-06-3.99774E-06
 -1       838 8.88339E-04-5.75096E-05-4.67147E-04 7.45278E-04 2.50658E-06-6.17664E-06
 -1       839 6.86731E-04 5.81528E-05-4.18740E-04 7.40536E-04-2.81251E-06-4.83127E-06
 -1       840 1.00188E-03-1.20864E-04-5.01129E-04 7.29081E-04 1.28791E-05-1.67863E-05
 -1       841 5.06091E-04 1.62454E-04-3.75856E-04 6.90583E-04 2.91723E-06-5.34332E-06
 -1       842 3.44873E-04 2.41337E-04-3.35291E-04 6.21051E-04 6.85435E-06-1.50777E-06
 -1       843 5.86691E-04 9.86543E-05-3.96094E-04 7.08373E-04-8.39841E-06-6.49517E-07
 -1       844 2.32154E-04 2.99705E-04-2.98481E-04 5.56072E-04-2.60241E-09-2.82402E-06
 -1       845 1.22212E-04 3.60423E-04-2.71334E-04 5.04437E-04-2.48940E-06-2.40749E-07
 -1       846 2.95423E-04 2.63736E-04-3.18943E-04 5.71814E-04 3.35831E-06-9.34208E-06
 -1       847 4.47141E-05 3.99009E-04-2.49997E-04 4.36274E-04 1.71657E-06-6.62923E-06
 -1       848-2.33513E-05 4.28328E-04-2.30080E-04 3.66525E-04 7.28647E-07-6.00240E-06
 -1       849 7.19623E-05 3.73319E-04-2.58470E-04 4.61379E-04-3.83506E-06 5.52705E-06
 -1       850-7.05486E-05 4.40796E-04-2.09936E-04 2.98253E-04-1.46790E-06-1.29093E-06
 -1       851-1.08709E-04 4.55429E-04-1.95911E-04 2.36971E-04 1.63771E-06-1.97002E-06
 -1       852-5.65738E-05 4.30404E-04-2.16181E-04 3.24941E-04-4.27072E-07-2.53379E-06
 -1       853-1.31404E-04 4.57984E-04-1.83899E-04 1.79930E-04-1.02401E-06-2.54498E-06
 -1       854-1.56997E-04 4.71540E-04-1.75752E-04 1.28083E-04-1.01508E-06-2.87769E-06
 -1       855-1.19520E-04 4.49183E-04-1.89208E-04 2.02324E-04-5.47845E-07-2.29492E-06
 -1       856-1.65227E-04 4.72534E-04-1.74037E-04 7.59104E-05-1.42134E-06-2.08488E-06
 -1       857-1.65293E-04 4.64746E-04-1.70208E-04 2.30898E-05 1.50211E-06-1.40399E-06
 -1       858-1.63219E-04 4.68102E-04-1.76765E-04 9.95777E-05 3.21544E-07-1.83640E-06
 -1       859-1.65664E-04 4.65004E-04-1.69871E-04-2.53311E-05 7.68660E-07-2.74568E-06
 -1       860-1.64355E-04 4.71475E-04-1.73019E-04-7.88899E-05 4.31357E-07-2.43344E-06
 -1       861-1.65071E-04 4.60549E-04-1.70112E-04-4.20313E-07-1.50256E-07-8.08279E-07
 -1       862-1.53850E-04 4.71964E-04-1.79698E-04-1.34338E-04 7.45427E-07-2.40560E-06
 -1       863-1.31204E-04 4.62126E-04-1.87536E-04-1.90196E-04 6.48092E-07-3.19268E-06
 -1       864-1.60149E-04 4.63337E-04-1.76107E-04-1.09122E-04 5.11255E-07 6.31200E-07
 -1       865-1.01915E-04 4.51005E-04-1.98241E-04-2.43720E-04-3.00454E-06-1.18355E-06
 -1       866-6.19145E-05 4.39875E-04-2.13717E-04-3.09784E-04-4.66153E-07-2.11682E-06
 -1       867-1.06134E-04 4.43886E-04-1.92498E-04-2.20459E-04-1.03797E-06-2.21017E-06
 -1       868-1.35670E-05 4.17828E-04-2.30525E-04-3.70228E-04-4.23648E-07-4.29361E-06
 -1       869 5.35268E-05 3.93591E-04-2.51091E-04-4.42189E-04-2.51738E-06-4.27637E-06
 -1       870-3.52742E-05 4.21748E-04-2.23032E-04-3.44408E-04-5.81697E-07 8.32294E-07
 -1       871 1.39523E-04 3.52434E-04-2.77621E-04-5.16816E-04 1.41556E-06-6.73746E-07
 -1       872 2.48891E-04 2.91965E-04-3.04486E-04-5.68552E-04 1.89747E-06-5.97501E-06
 -1       873 9.77727E-05 3.60454E-04-2.66029E-04-4.82852E-04 1.70471E-06 1.34906E-06
 -1       874 3.61755E-04 2.31972E-04-3.39040E-04-6.29171E-04-4.81581E-06-1.66602E-06
 -1       875 5.25197E-04 1.52958E-04-3.81312E-04-6.98779E-04-2.86560E-06-5.15252E-06
 -1       876 3.24959E-04 2.45693E-04-3.26330E-04-5.90941E-04-2.33285E-06-8.90204E-06
 -1       877 7.01544E-04 4.96749E-05-4.22821E-04-7.43664E-04-2.48276E-07-7.02133E-06
 -1       878 8.99669E-04-6.39151E-05-4.70404E-04-7.50482E-04-3.27835E-06-1.03078E-05
 -1       879 6.17776E-04 7.67142E-05-4.03735E-04-7.21867E-04 4.06310E-06-3.02635E-06
 -1       880 1.15699E-03-1.99883E-04-5.41229E-04-7.63551E-04-6.32009E-08-3.54376E-06
 -1       881 1.44055E-03-3.58029E-04-6.09211E-04-7.08442E-04-7.38501E-07-1.33330E-05
 -1       882 1.02727E-03-1.43472E-04-5.12204E-04-7.46571E-04 3.46484E-06-7.67167E-06
 -1       883 1.70688E-03-5.06379E-04-6.85608E-04-6.38821E-04-1.06338E-05-3.61386E-07
 -1       884 2.06197E-03-6.79738E-04-7.76713E-04-5.24541E-04-9.70191E-06-8.11329E-06
 -1       885 1.58273E-03-4.23454E-04-6.57482E-04-6.29349E-04-9.13318E-06-1.24742E-05
 -1       886 2.36726E-03-8.37989E-04-8.59830E-04-3.70352E-04 8.12697E-06-1.30563E-05
 -1       887 2.65727E-03-9.38422E-04-9.62246E-04-1.01153E-04-4.28517E-06-1.60237E-05
 -1       888 2.20109E-03-7.73391E-04-8.23717E-04-4.38676E-04 5.61922E-06-1.11848E-05
 -1       889 2.94268E-03-1.05892E-03-1.06873E-03 1.33483E-04-1.49422E-05 5.32066E-06
 -1       890 3.27110E-03-1.13547E-03-1.19589E-03 5.15707E-04-1.78573E-05-1.75022E-06
 -1       891 2.71946E-03-9.34526E-04-1.00902E-03 3.82910E-06-1.56829E-05-1.35679E-05
 -1       892 3.53134E-03-1.16585E-03-1.32964E-03 9.72475E-04 1.50085E-05-1.68856E-05
 -1       893 3.60362E-03-9.99275E-04-1.44742E-03 1.44279E-03-8.29049E-06 7.14765E-06
 -1       894 3.33418E-03-1.16689E-03-1.23296E-03 6.87527E-04 2.74555E-05-1.30676E-05
 -1       895 3.62518E-03-8.63362E-04-1.54121E-03 1.94715E-03 1.90028E-05 9.60084E-05
 -1       896 3.49266E-03-5.06079E-04-1.66026E-03 2.43270E-03 4.80086E-05 1.26558E-04
 -1       897 3.53396E-03-8.79658E-04-1.47472E-03 1.63110E-03-2.82442E-05 3.19950E-05
 -1       898 3.15768E-03-5.31577E-05-1.69010E-03 2.95170E-03 1.15734E-04 1.72112E-04
 -1       899 2.40626E-03 5.73357E-04-1.66525E-03 3.02667E-03 1.12113E-04 3.24132E-04
 -1       900 3.21121E-03-3.91519E-04-1.62560E-03 2.65020E-03 9.66539E-05 8.66688E-05
 -1       901 1.69280E-03 1.47923E-03-1.78155E-03 3.27649E-03 3.77748E-04 3.97774E-04
 -1       902 1.21233E-03 1.90494E-03-1.76069E-03 2.96393E-03 3.27253E-04 6.32749E-04
 -1       903 2.01831E-03 7.54227E-04-1.65091E-03 3.08274E-03 1.29172E-04 3.05672E-04
 -1       904 3.41522E-04 2.14593E-03-1.59419E-03 2.69265E-03 6.64203E-04 7.15200E-04
 -1       905 1.12318E-04 2.71637E-03-1.76681E-03 2.41113E-03 7.37901E-04 6.06007E-04
 -1       906 3.87040E-04 2.10584E-03-1.51053E-03 2.66490E-03 2.72347E-04 6.87326E-04
 -1       907 4.87855E-04 2.79013E-03-2.94009E-03 1.68085E-03 3.87086E-04 2.48367E-04
 -1       908 1.90643E-04 2.80151E-03-2.49126E-03 1.97150E-03 1.66537E-04 1.17114E-04
 -1       909-1.17326E-04 4.46792E-04-1.87877E-04-2.00139E-04-5.83984E-07 1.68962E-06
 -1       910-9.12354E-05 4.38427E-04-1.97573E-04-2.53249E-04 5.26533E-07-1.36024E-06
 -1       911-6.93432E-05 4.32776E-04-2.06038E-04-2.89200E-04-2.90007E-07-1.56036E-06
 -1       912-8.08555E-05 4.34275E-04-2.01115E-04-2.67254E-04-1.92251E-07 2.66802E-07
 -1       913-2.74985E-05 4.16519E-04-2.24301E-04-3.60942E-04 1.71162E-06 1.17515E-07
 -1       914 1.07325E-04 3.60163E-04-2.69815E-04 4.86924E-04-3.74976E-06 5.30825E-06
 -1       915 2.18776E-04 3.07711E-04-2.99867E-04 5.69758E-04-8.03922E-07 3.21563E-06
 -1       916 1.46780E-04 3.38383E-04-2.83527E-04 5.27359E-04-4.35222E-07-1.35232E-07
 -1       917 3.64315E-05 3.89697E-04-2.44153E-04 4.11848E-04 4.47219E-07 1.87649E-06
 -1       918 3.31697E-04 2.40141E-04-3.28483E-04 6.00647E-04-4.56241E-06-1.11456E-05
 -1       919 3.52410E-03-1.20658E-03-1.32915E-03 1.08647E-03-1.94797E-07-1.78956E-06
 -1       920 3.63527E-03-1.10428E-03-1.41950E-03 1.40506E-03 1.94258E-05-1.16683E-06
 -1       921 3.44516E-03-1.17941E-03-1.27824E-03 8.65042E-04 3.68120E-05-2.76631E-06
 -1       922 3.11116E-03-1.07410E-03-1.14249E-03 4.12393E-04-1.56563E-05-6.48791E-06
 -1       923 3.52757E-03-8.63767E-04-1.50263E-03 1.81771E-03-3.64044E-05 4.03228E-06
 -1       924 3.45099E-03-1.18339E-03-1.27832E-03 8.65755E-04-3.74271E-05-6.17720E-07
 -1       925 3.63905E-03-1.10844E-03-1.41836E-03 1.40483E-03-1.91467E-05-2.29514E-06
 -1       926 3.11243E-03-1.07321E-03-1.14284E-03 4.11945E-04 1.66205E-05 5.76091E-06
 -1       927 3.52688E-03-8.59198E-04-1.50489E-03 1.82211E-03 3.69607E-05-7.59372E-06
 -1       928 2.18535E-04 3.07824E-04-2.99435E-04 5.70443E-04 9.67363E-08-3.74577E-06
 -1       929 1.06703E-04 3.60182E-04-2.69286E-04 4.87473E-04 3.10556E-06-5.38302E-06
 -1       930 3.63213E-05 3.89695E-04-2.44098E-04 4.11785E-04-7.03127E-07-1.88720E-06
 -1       931 3.31975E-04 2.39525E-04-3.28441E-04 6.00718E-04 3.78408E-06 1.11849E-05
 -1       932-1.44887E-04 4.65179E-04-1.81123E-04-1.55897E-04 1.82945E-06 5.20484E-07
 -1       933-1.21860E-04 4.50176E-04-1.86968E-04-1.86091E-04 1.91722E-07-1.19033E-07
 -1       934-1.58117E-04 4.58267E-04-1.73138E-04-9.54177E-05-2.01101E-07 8.27699E-07
 -1       935 3.54295E-03-7.52682E-04-1.52374E-03-2.18862E-03 4.01740E-05-4.29824E-06
 -1       936 3.32883E-03-4.49835E-04-1.60577E-03-2.38819E-03-5.21735E-05 9.83049E-06
 -1       937 3.57293E-03-1.05438E-03-1.40183E-03-1.56745E-03 3.76986E-06-4.80387E-06
 -1       938 3.49016E-03-1.08987E-03-1.33844E-03-1.16445E-03-3.91974E-06-5.70865E-08
 -1       939-1.35995E-03 2.99934E-03-2.39167E-03-1.26179E-03 2.00476E-05 6.36287E-05
 -1       940-7.24257E-04 2.48780E-03-1.54872E-03-1.83269E-03-1.40567E-04 5.09180E-04
 -1       941-1.29966E-03 3.34978E-03-2.61833E-03-1.03936E-03-3.07546E-04 2.36908E-04
 -1       942-1.14005E-03 3.04314E-03-2.78543E-03-1.05792E-03 6.37504E-04-1.60278E-04
 -1       943-1.35873E-04 2.47035E-03-1.65979E-03-2.65408E-03-9.49776E-05-1.75636E-04
 -1       944 7.91538E-04 1.49996E-03-1.41032E-03-2.65243E-03-9.98284E-05-6.64265E-05
 -1       945 1.12845E-03 1.36613E-03-1.34876E-03-2.94395E-03-8.26219E-05 2.22807E-04
 -1       946 2.65998E-04 2.09232E-03-1.39006E-03-2.51246E-03-2.60668E-04 6.76882E-05
 -1       947 4.05215E-04 1.72623E-03-1.31049E-03-2.46485E-03 1.01170E-04-1.76952E-04
 -1       948 1.13373E-03 1.40620E-03-1.37847E-03-2.82454E-03 6.04036E-05-2.49952E-04
 -1       949 2.84661E-04 2.67251E-04-3.14544E-04-5.68896E-04 2.05267E-06 2.33161E-08
 -1       950 1.93799E-04 3.19201E-04-2.91007E-04-5.47949E-04 1.13665E-06-2.89829E-07
 -1       951 2.70572E-04 2.74782E-04-3.09617E-04-5.60158E-04-1.17884E-06 4.01780E-06
 -1       952 3.98618E-04 2.04180E-04-3.42965E-04-6.28437E-04 2.70764E-06-3.15076E-06
 -1       953 3.99212E-04 2.04866E-04-3.43755E-04-6.30821E-04-2.48067E-06 3.96574E-06
 -1       954 5.30833E-04 1.34379E-04-3.76527E-04-6.80966E-04 2.77719E-06-7.15735E-06
 -1       955 4.76317E-04 1.62289E-04-3.65115E-04-6.62032E-04 1.93765E-07 5.66315E-07
 -1       956 5.31225E-04 1.33642E-04-3.76840E-04-6.82418E-04-2.58220E-06 6.46630E-06
 -1       957 2.26203E-03 6.62939E-04-1.55877E-03-2.89855E-03-1.16458E-07 4.05822E-06
 -1       958 2.55156E-03 3.80707E-04-1.57837E-03-3.02242E-03-6.49100E-06 5.41499E-05
 -1       959 1.96922E-03 8.72700E-04-1.54970E-03-2.92088E-03-5.50786E-05 8.62562E-05
 -1       960 1.94685E-03 8.66309E-04-1.55194E-03-2.93294E-03 5.79454E-05-8.85664E-05
 -1       961 2.54248E-03 3.84895E-04-1.58314E-03-3.03645E-03-1.37690E-05-3.75508E-05
 -1       962 3.16041E-03-3.11088E-04-1.54323E-03-2.53545E-03-5.83638E-05 3.56095E-05
 -1       963 3.10916E-03-1.71787E-04-1.57803E-03-2.67215E-03 2.37503E-05 6.43394E-06
 -1       964 2.99369E-03-1.05849E-03-1.09170E-03 2.54282E-04-1.32812E-07-3.62210E-08
 -1       965 2.15584E-03-7.53486E-04-8.02924E-04-4.49800E-04-6.94206E-06-1.55940E-05
 -1       966 1.71550E-03-5.09013E-04-6.89291E-04-6.09976E-04-2.48139E-06-2.41539E-05
 -1       967 1.98520E-03-6.69179E-04-7.49914E-04-5.15794E-04-2.89825E-07 9.43499E-08
 -1       968 1.71546E-03-5.09130E-04-6.89415E-04-6.09771E-04 2.42242E-06 2.46840E-05
 -1       969 2.15620E-03-7.53268E-04-8.03028E-04-4.49251E-04 6.47217E-06 1.51814E-05
 -1       970 2.48000E-03-8.82591E-04-9.05084E-04-2.73444E-04-9.14145E-06 1.11786E-05
 -1       971 2.69511E-03-9.35203E-04-9.93209E-04-1.85794E-06 1.38838E-05 8.52711E-06
 -1       972 2.47901E-03-8.82481E-04-9.04126E-04-2.73181E-04 7.75690E-06-1.23777E-05
 -1       973 2.69484E-03-9.35704E-04-9.92902E-04-1.57650E-06-1.57656E-05-8.71110E-06
 -1       974-3.99562E-04 2.31518E-03-1.42942E-03 1.99793E-03 1.02563E-04-3.16376E-04
 -1       975-3.11648E-04 2.61644E-03-2.18292E-03 1.62625E-03-7.54495E-05 2.22767E-04
 -1       976-2.41352E-05 2.31029E-03-2.09889E-03 2.05593E-03 1.62837E-04 1.47136E-04
 -1       977-4.66899E-04 2.30286E-03-1.49162E-03 2.31665E-03-3.17140E-05 5.00024E-04
 -1       978 1.38006E-03 1.12944E-03-1.51192E-03 2.97336E-03 1.03491E-06 2.00735E-05
 -1       979 6.69519E-04 1.82203E-03-1.33953E-03 2.94550E-03 2.01406E-04 8.59998E-05
 -1       980 1.61574E-03 1.01019E-03-1.40923E-03 3.05453E-03 1.27579E-04 2.16099E-04
 -1       981 1.59708E-03 1.01533E-03-1.41078E-03 3.05441E-03-1.17522E-04-1.90722E-04
 -1       982 6.27034E-04 1.82886E-03-1.38718E-03 2.94936E-03-1.73174E-04-4.88456E-05
 -1       983 8.76623E-05 3.65119E-04-2.60717E-04-4.68316E-04-1.30165E-06-9.96582E-07
 -1       984-2.21564E-05 4.22146E-04-2.24942E-04 3.69556E-04-5.27500E-06-3.51106E-06
 -1       985 1.81501E-05 3.97830E-04-2.36256E-04 3.82939E-04-3.78703E-08 2.24768E-07
 -1       986-2.22545E-05 4.22378E-04-2.25084E-04 3.69605E-04 5.35295E-06 3.54004E-06
 -1       987-1.05073E-04 4.43828E-04-1.93048E-04 2.27874E-04 8.01995E-07 2.86248E-08
 -1       988-7.28978E-05 4.32029E-04-2.05310E-04 2.93719E-04 1.53516E-06-1.77915E-06
 -1       989-8.81297E-05 4.34464E-04-1.99615E-04 2.63359E-04 9.04075E-08-8.84435E-09
 -1       990-7.28540E-05 4.31924E-04-2.05343E-04 2.93791E-04-1.48715E-06 1.71502E-06
 -1       991-1.05051E-04 4.43781E-04-1.93014E-04 2.27914E-04-6.83282E-07 2.05915E-09
 -1       992 6.70770E-04 5.78256E-05-4.20726E-04 7.27658E-04-1.06606E-05 4.95710E-06
 -1       993 9.06918E-04-7.00563E-05-4.74699E-04 7.62027E-04-1.50522E-06 1.01849E-05
 -1       994 7.72531E-04-3.64954E-06-4.48406E-04 7.50533E-04 5.00453E-08-2.52312E-07
 -1       995 9.07186E-04-7.02108E-05-4.74532E-04 7.62325E-04 2.43910E-06-9.78140E-06
 -1       996 6.70671E-04 5.81577E-05-4.20949E-04 7.28087E-04 9.97921E-06-5.61320E-06
 -1       997 1.22289E-03-2.63462E-04-5.50676E-04 7.28440E-04 2.83285E-07 1.27923E-06
 -1       998 1.09075E-03-1.82686E-04-5.22563E-04 7.38970E-04 2.99355E-06-1.21417E-05
 -1       999 1.37866E-03-3.43669E-04-5.85318E-04 7.07739E-04-9.88892E-07-9.44346E-06
 -1      1000 1.37759E-03-3.43331E-04-5.85063E-04 7.07226E-04 2.09817E-06 1.22054E-05
 -1      1001 1.08961E-03-1.82806E-04-5.21679E-04 7.38080E-04-2.70407E-06 1.40666E-05
 -1      1002 2.79663E-03 1.72161E-04-1.57104E-03 2.75150E-03-3.36772E-06 1.06837E-05
 -1      1003 2.44495E-03 4.87936E-04-1.64963E-03 2.89923E-03 8.29816E-05 6.94915E-05
 -1      1004 3.00117E-03-7.86115E-05-1.58714E-03 2.84755E-03-3.33952E-05-3.06657E-06
 -1      1005 2.99337E-03-6.86074E-05-1.59439E-03 2.83978E-03 2.44561E-05 1.22944E-05
 -1      1006 2.43636E-03 5.03833E-04-1.65974E-03 2.88965E-03-7.61508E-05-4.29107E-05
 -1      1007 3.42363E-03-5.80698E-04-1.53126E-03 2.29730E-03-3.76407E-05 1.48517E-05
 -1      1008 3.51438E-03-7.66671E-04-1.51530E-03 1.98073E-03-2.08580E-06 1.05367E-06
 -1      1009 3.42454E-03-5.81887E-04-1.53388E-03 2.29483E-03 3.34830E-05-6.70080E-06
 -1      1010-1.44263E-04 4.64559E-04-1.81619E-04-1.56020E-04-1.89053E-06-1.24544E-06
 -1      1011-1.16213E-04 4.47393E-04-1.89056E-04-2.00383E-04 3.42602E-07-1.63708E-06
 -1      1012-9.32927E-05 4.39055E-04-1.96150E-04-2.53347E-04-3.07536E-07 1.34676E-06
 -1      1013-7.11230E-05 4.32621E-04-2.04408E-04-2.89299E-04 1.17790E-07 9.02124E-07
 -1      1014 1.48792E-03-3.98723E-04-6.14230E-04-7.05050E-04 5.68690E-06 5.45936E-06
 -1      1015 1.16261E-03-2.13983E-04-5.45700E-04-7.39703E-04 6.87982E-06 5.04105E-06
 -1      1016 1.32466E-03-3.30077E-04-5.82281E-04-7.38616E-04-8.56648E-08 1.12558E-07
 -1      1017 1.16251E-03-2.14047E-04-5.45888E-04-7.39923E-04-6.92393E-06-4.31640E-06
 -1      1018 1.48812E-03-3.98853E-04-6.14269E-04-7.05118E-04-5.94242E-06-5.60633E-06
 -1      1019 9.21182E-04-7.34663E-05-4.86802E-04-7.22177E-04-4.28754E-07 5.47140E-06
 -1      1020 9.21249E-04-7.37443E-05-4.86375E-04-7.21463E-04-3.91860E-08-4.83484E-06
 -1      1021 8.38906E-04-2.10619E-05-4.63718E-04-7.03212E-04 1.84527E-07-4.37587E-08
 -1      1022 7.32300E-04 2.72474E-05-4.31469E-04-7.31949E-04-7.68546E-06 7.77010E-06
 -1      1023 7.32593E-04 2.78401E-05-4.32017E-04-7.33009E-04 7.89423E-06-7.81480E-06
 -1      1024 4.03200E-04 2.04851E-04-3.47012E-04 6.21317E-04-4.76025E-07 1.19571E-07
 -1      1025 4.92805E-04 1.58423E-04-3.67840E-04 6.59049E-04 8.62125E-08 5.52099E-06
 -1      1026 4.92343E-04 1.58997E-04-3.67956E-04 6.59191E-04-8.12535E-07-6.03551E-06
 -1      1027 1.80773E-03-5.27334E-04-7.19217E-04 5.44178E-04 3.12896E-07 1.40597E-06
 -1      1028 1.70548E-03-5.09538E-04-6.75402E-04 6.27181E-04-5.79109E-06-1.74524E-05
 -1      1029 1.94248E-03-6.15466E-04-7.57321E-04 5.11695E-04-1.57661E-06 5.53730E-06
 -1      1030 1.94214E-03-6.14877E-04-7.57288E-04 5.12096E-04 1.20556E-06-2.55229E-06
 -1      1031 1.70540E-03-5.08935E-04-6.75459E-04 6.27898E-04 7.21241E-06 2.06123E-05
 -1      1032 2.32860E-03-8.10972E-04-8.58381E-04 3.10566E-04 2.06725E-06-6.73053E-07
 -1      1033 2.50425E-03-8.92183E-04-9.04309E-04 2.21284E-04 1.13516E-06-2.50180E-06
 -1      1034 2.25128E-03-7.79643E-04-8.34472E-04 3.69945E-04 3.92940E-07 3.84882E-06
 -1      1035 2.24735E-03-7.74123E-04-8.37522E-04 3.70214E-04-1.84919E-06-1.16240E-06
 -1      1036 2.50641E-03-8.87976E-04-9.08967E-04 2.26433E-04 4.60265E-06 4.30417E-06
 -1      1037 1.29572E-05 4.08716E-04-2.39679E-04-4.09355E-04 1.31980E-06-1.53775E-06
 -1      1038-1.58366E-04 4.57948E-04-1.72694E-04-9.55757E-05 2.23306E-09-1.15258E-06
 -1      1039-1.71853E-04 4.73648E-04-1.71300E-04-5.39759E-05 1.25738E-07 7.07927E-08
 -1      1040 2.90907E-03-1.10726E-03-1.03023E-03-1.10922E-04-8.50762E-06-1.02197E-05
 -1      1041 3.13659E-03-1.12692E-03-1.13635E-03-3.75050E-04-1.74679E-06-2.80333E-06
 -1      1042 2.85179E-03-1.07679E-03-1.01594E-03-5.91593E-05 1.66200E-05 8.91880E-06
 -1      1043 3.25633E-03-1.07004E-03-1.23881E-03-6.98584E-04-5.31948E-06 4.24454E-06
 -1      1044-1.62652E-04 4.56481E-04-1.68104E-04 5.73859E-05 2.36995E-07 1.15009E-08
 -1      1045-1.61525E-04 4.55648E-04-1.67045E-04 3.61752E-05-3.53882E-07-5.38260E-07
 -1      1046-1.62737E-04 4.59659E-04-1.68938E-04 7.11917E-05-3.22411E-07-1.33519E-06
 -1      1047-1.62857E-04 4.59829E-04-1.69063E-04 7.13184E-05 6.79368E-07 1.27582E-06
 -1      1048-1.61644E-04 4.55882E-04-1.67165E-04 3.62014E-05 7.98182E-07 5.49556E-07
 -1      1049-1.66055E-04 4.59872E-04-1.68376E-04-1.28720E-05 2.34818E-07 9.97721E-07
 -1      1050-1.66003E-04 4.60104E-04-1.68552E-04-1.30891E-05 3.61019E-07-8.49222E-07
 -1      1051-3.40828E-05 4.19456E-04-2.22053E-04-3.49611E-04-2.85866E-06-1.55725E-06
 -1      1052-1.55891E-04 4.70243E-04-1.77796E-04 1.26003E-04-3.16853E-06 6.26838E-07
 -1      1053-1.27487E-04 4.51312E-04-1.86322E-04 1.76340E-04 2.64706E-06 2.89090E-06
 -1      1054-1.34399E-04 4.54707E-04-1.82566E-04 1.50685E-04 1.04614E-07 5.24693E-08
 -1      1055-1.27439E-04 4.51318E-04-1.86297E-04 1.76311E-04-2.49561E-06-2.86422E-06
 -1      1056-1.55892E-04 4.70342E-04-1.77865E-04 1.25927E-04 3.28101E-06-5.95421E-07
 -1      1057 4.86767E-02-1.52466E-02-1.87962E-02-4.83580E-05 9.92206E-06-9.89885E-05
 -1      1058 4.44101E-02-1.37689E-02-1.71793E-02 2.26423E-03-4.89437E-05-1.85047E-04
 -1      1059 4.45165E-02-1.36906E-02-1.74069E-02-2.08147E-03 6.85706E-05-3.31571E-04
 -1      1060 5.40850E-02-2.03224E-02-1.89874E-02 2.90275E-05 2.40029E-05-1.56427E-05
 -1      1061 3.75470E-02-1.33173E-02-1.36655E-02-3.29063E-03-3.58563E-04-5.84918E-05
 -1      1062 3.79256E-02-1.36006E-02-1.37138E-02 3.48391E-03 1.93534E-04-5.66636E-05
 -1      1063-5.40763E-04 1.04401E-03-2.84331E-04-6.32404E-06-9.62485E-09-6.31053E-06
 -1      1064 6.50775E-02-2.86609E-02-2.06413E-02 3.64511E-05 7.54199E-05 4.23927E-04
 -1      1065 1.13609E-04-5.33098E-05-3.33628E-05 9.86100E-07 3.82096E-07 2.71244E-06
 -1      1066 4.17688E-02-1.02046E-02-1.78171E-02-9.98369E-04 5.32141E-04 2.72698E-04
 -1      1067 4.81719E-02-1.44904E-02-1.89228E-02-2.75215E-03 1.02552E-04-1.37564E-04
 -1      1068 4.17020E-02-9.63310E-03-1.82330E-02 9.86956E-04-4.63165E-04 2.19553E-04
 -1      1069 4.76868E-02-1.40776E-02-1.88903E-02 2.31020E-03-1.09228E-04-1.13791E-04
 -1      1070 4.83735E-02-1.62775E-02-1.84901E-02 2.24293E-06 1.22926E-04-1.68464E-03
 -1      1071 5.08520E-02-1.70700E-02-1.89893E-02 8.97810E-04 5.64131E-06 7.48983E-06
 -1      1072 3.14067E-05-3.48000E-05 1.95132E-06-1.25961E-05-6.67702E-07-4.00287E-07
 -1      1073 4.80595E-02-1.39416E-02-1.92370E-02 5.91767E-03-3.14277E-04-4.17571E-04
 -1      1074 4.85058E-02-1.44750E-02-1.91476E-02-5.93408E-03 2.24617E-04-3.51318E-04
 -1      1075 5.16763E-02-1.79556E-02-1.89659E-02-1.99250E-03 1.09078E-06 1.98478E-05
 -1      1076 1.53808E-02-2.89818E-03-7.85312E-03-1.01493E-02-8.01710E-04-5.15533E-04
 -1      1077 1.54153E-02-2.98173E-03-7.81548E-03 1.02357E-02 7.87807E-04-6.93659E-04
 -1      1078 5.52731E-02-2.16148E-02-1.89088E-02 4.04914E-03 5.93034E-06 1.16988E-05
 -1      1079 5.54601E-02-2.17252E-02-1.90097E-02-4.07691E-03-1.87247E-07-3.28854E-05
 -1      1080 3.82612E-02-1.30832E-02-1.41826E-02 8.27822E-03 5.73703E-04 6.40282E-04
 -1      1081 3.92628E-02-1.38656E-02-1.44364E-02-8.01073E-03-4.58310E-04 2.48777E-04
 -1      1082-2.37246E-03 3.66925E-03-7.38987E-04 3.19776E-03 2.09027E-06 1.39740E-04
 -1      1083-2.97489E-03 4.13225E-03-6.06577E-04-2.77944E-03-5.22450E-05 7.77016E-05
 -1      1084 4.94626E-02-1.57387E-02-2.38048E-02-1.88437E-03 3.13973E-04-1.80654E-03
 -1      1085 4.93717E-02-1.52421E-02-2.24709E-02 1.79091E-03 8.27905E-05-4.77003E-04
 -1      1086-2.48692E-04 4.94134E-04-1.38144E-04 1.50196E-04 2.15769E-06-4.07249E-06
 -1      1087-2.55890E-04 4.96659E-04-1.35329E-04-1.44656E-04 2.77017E-06-2.40131E-06
 -1      1088 4.91513E-04 1.61256E-04-3.66783E-04 1.25243E-03-8.49841E-07 5.31264E-06
 -1      1089 4.86720E-04 1.70274E-04-3.69684E-04-1.25921E-03-6.10630E-06-3.21628E-06
 -1      1090 5.12421E-03-3.02504E-03-1.16236E-03-1.32339E-03 6.26060E-05 7.43202E-05
 -1      1091 5.22830E-03-3.00209E-03-1.25624E-03 1.40036E-03-7.58297E-05 4.14523E-06
 -1      1092 5.27537E-02-1.91640E-02-1.88945E-02 2.35365E-03-6.16967E-06 2.36199E-05
 -1      1093 3.41156E-03-1.89542E-03-8.51404E-04-6.45124E-04-3.99160E-05-1.19106E-05
 -1      1094 3.38282E-03-1.90382E-03-8.20712E-04 6.63525E-04 2.87265E-05 1.03770E-05
 -1      1095 2.24609E-05 4.60532E-04-2.72216E-04-8.12455E-04-2.79875E-06-4.92266E-06
 -1      1096 2.43058E-05 4.57091E-04-2.71443E-04 8.06098E-04 5.04112E-07-2.70444E-06
 -1      1097-2.17705E-04 4.36668E-04-1.23234E-04-4.24323E-05 4.65675E-07-1.49411E-06
 -1      1098 6.28767E-03-2.09305E-03-2.38670E-03 6.06135E-03 9.29222E-05 5.59704E-05
 -1      1099 6.03202E-03-1.79692E-03-2.41974E-03-6.14531E-03-1.26330E-04 1.77190E-04
 -1      1100 6.13523E-02-2.61871E-02-1.99340E-02 1.29707E-02 1.31298E-04 7.57313E-04
 -1      1101 6.19977E-02-2.64698E-02-2.00570E-02-1.32458E-02-4.77073E-04 1.33504E-03
 -1      1102 9.45599E-05 7.68421E-05-9.79330E-05-7.90410E-05-2.44187E-05 4.98026E-06
 -1      1103 8.34338E-05 7.23098E-05-7.75608E-05 6.87913E-05 5.98482E-06 1.01898E-05
 -1      1104-2.15025E-04 4.31071E-04-1.20836E-04 4.11261E-05 5.22668E-07-1.68984E-06
 -1      1105-2.11450E-04 5.44916E-04-1.86773E-04-4.09035E-04 7.45740E-07-4.47464E-06
 -1      1106-2.06847E-04 5.41885E-04-1.88539E-04 4.06905E-04-3.65354E-07-1.65185E-06
 -1      1107 1.71625E-03-6.95822E-04-5.73952E-04-1.35452E-03-1.24539E-05-9.62481E-06
 -1      1108 1.71862E-03-7.00542E-04-5.72094E-04 1.34234E-03 6.30087E-06-4.34324E-06
 -1      1109 1.15036E-02 2.17680E-04-6.52817E-03-1.24661E-02-8.79061E-04-1.05098E-04
 -1      1110 1.12061E-02 6.65090E-04-6.73987E-03 1.27927E-02 7.55093E-04-3.44115E-04
 -1      1111 4.76367E-02-1.50309E-02-1.83624E-02-6.54020E-04 5.29919E-05-5.10562E-04
 -1      1112 4.74532E-02-1.49513E-02-1.82525E-02 6.81170E-04-2.50324E-06-2.31363E-04
 -1      1113 3.06107E-05-3.21822E-05-2.16443E-06 5.69655E-05-3.22399E-07-1.78862E-06
 -1      1114 2.25588E-06-6.80055E-06 2.44128E-06 9.79069E-06 4.32901E-07-4.78889E-07
 -1      1115 5.17641E-02-1.80348E-02-1.89726E-02 2.48307E-03-5.02283E-06 1.08386E-06
 -1      1116 3.89357E-02-4.92809E-03-1.99075E-02-5.04844E-03 1.11110E-03 1.03192E-03
 -1      1117 4.22352E-02-7.61156E-03-2.01134E-02 5.45598E-03-1.37639E-03 8.60397E-04
 -1      1118 5.02801E-02-1.65056E-02-1.89943E-02-1.12722E-03 9.12122E-06-3.24368E-05
 -1      1119 5.26293E-02-1.92583E-02-1.87639E-02-2.73844E-03 1.05205E-05 7.89163E-06
 -1      1120 2.80963E-05-3.75724E-05 5.28210E-06-6.10063E-05 1.05645E-06 6.25154E-07
 -1      1121 4.21492E-02-1.40073E-02-1.91136E-02-2.12477E-04-1.13175E-03-8.94172E-04
 -1      1122 4.20844E-02-1.38694E-02-1.85376E-02-2.41787E-05 1.03325E-03 4.97986E-05
 -1      1123 1.89196E-04 2.13375E-04-2.13954E-04-5.77604E-04-6.50915E-05 3.28037E-05
 -1      1124 1.02986E-04 3.79476E-04-2.63631E-04 8.51076E-04 2.00968E-05 2.82730E-05
 -1      1125 4.48082E-02-1.19462E-02-1.84126E-02-2.18054E-03 1.75451E-04-1.40940E-04
 -1      1126 4.50456E-02-1.19265E-02-1.85853E-02 1.96714E-03-1.97129E-04-2.48102E-04
 -1      1127 7.97378E-02-3.74885E-02-2.55571E-02-7.68303E-04 9.56250E-04 3.08475E-03
 -1      1128 5.14882E-02-1.77599E-02-1.89607E-02-3.52649E-03-1.61407E-05-6.76654E-05
 -1      1129 7.59906E-05-5.33159E-05-1.00606E-05 7.67843E-05-3.98735E-06-3.91888E-06
 -1      1130 1.74672E-06-6.52479E-06 2.59514E-06-9.77231E-06-5.72459E-07-4.78031E-07
 -1      1131 4.95361E-02-1.57737E-02-1.89764E-02 1.02793E-03-1.60560E-05-4.15267E-05
 -1      1132 5.22274E-02-1.98364E-02-1.82360E-02-7.57609E-03-6.06352E-05 8.62710E-05
 -1      1133 5.34670E-02-2.06887E-02-1.84895E-02 8.24023E-03-1.06522E-05 1.75044E-04
 -1      1134 4.17538E-02-1.32769E-02-1.59984E-02-1.62681E-03 1.65732E-04-2.73485E-04
 -1      1135 4.18229E-02-1.30522E-02-1.62187E-02 1.41354E-03-3.56021E-05-1.86266E-04
 -1      1136 5.77283E-02-2.34381E-02-1.92982E-02 5.47622E-05-3.57370E-05-5.84922E-05
 -1      1137 4.70048E-02-1.57592E-02-1.77313E-02-2.02240E-03 1.57776E-04-1.03858E-03
 -1      1138 4.71673E-02-1.57188E-02-1.80182E-02 1.71178E-03-2.69954E-04-1.47216E-03
 -1      1139 3.79984E-04 2.96358E-03-1.61720E-03 8.91052E-03-6.60608E-05 3.24085E-04
 -1      1140 7.28438E-04 2.67924E-03-1.62082E-03-8.73446E-03 4.54245E-05 5.18724E-04
 -1      1141 4.99285E-02-1.41770E-02-2.01121E-02-8.94967E-03 2.97493E-04-1.17046E-03
 -1      1142 4.97194E-02-1.39376E-02-2.00815E-02 8.82952E-03-4.48118E-04-1.36904E-03
 -1      1143 4.35365E-02-1.36904E-02-1.70917E-02 1.20936E-02 1.03979E-03 4.75455E-04
 -1      1144 4.33752E-02-1.30288E-02-1.70751E-02-1.19590E-02-6.46921E-04-3.99151E-04
 -1      1145 3.05731E-02-1.02062E-02-1.29633E-02 5.03235E-03 8.01678E-04-6.64670E-04
 -1      1146 3.07719E-02-1.00369E-02-1.27636E-02-5.08058E-03-7.63078E-04-2.12710E-04
 -1      1147 4.81222E-02-1.46625E-02-1.87849E-02-7.19297E-04 1.70624E-05-1.31488E-04
 -1      1148 4.98278E-02-1.61513E-02-2.13299E-02-4.49919E-05-1.33383E-04-1.47942E-03
 -1      1149 7.65997E-05-4.14933E-05-2.27819E-05-7.93658E-05 1.13964E-05-1.19773E-06
 -1      1150 4.30995E-02-1.48810E-02-1.60559E-02-1.99843E-03 5.53351E-04-9.34610E-04
 -1      1151 4.34743E-02-1.50926E-02-1.60297E-02 2.25083E-03-3.22305E-04-7.61871E-04
 -1      1152 5.09238E-02-1.70275E-02-1.90280E-02 4.13419E-03 2.31397E-07-1.12202E-04
 -1      1153 4.09627E-03-2.06158E-03-1.13717E-03 7.86685E-04-2.11858E-05 2.47320E-05
 -1      1154 4.05501E-03-1.99874E-03-1.16227E-03-7.72337E-04 4.04435E-05-3.51866E-06
 -1      1155 4.81608E-02-1.52436E-02-1.85566E-02-5.44597E-05 2.17197E-05-5.49464E-04
 -1      1156 4.80622E-02-1.47224E-02-1.87316E-02 2.39914E-04 1.75785E-05-7.08943E-05
 -1      1157 4.44277E-03 1.45280E-03-3.27005E-03-7.72023E-03-4.28509E-04-2.21571E-04
 -1      1158 4.40075E-03 1.46596E-03-3.27594E-03 7.93632E-03 3.44601E-04-1.98480E-04
 -1      1159 4.67967E-04 1.85090E-04-3.65199E-04-9.81774E-04-1.33525E-06-1.79242E-06
 -1      1160 4.70013E-04 1.82864E-04-3.65994E-04 9.86313E-04 7.98150E-06-9.30257E-07
 -1      1161 5.25017E-02-1.91974E-02-1.87431E-02 3.66168E-03-6.96696E-05-6.13639E-06
 -1      1162-2.12059E-04 4.70988E-04-1.45261E-04-1.32414E-04-1.24271E-06-1.25948E-06
 -1      1163 4.32990E-03-1.43870E-03-1.64149E-03 3.54716E-03 6.31806E-05 6.39650E-05
 -1      1164 4.26229E-03-1.45590E-03-1.57101E-03-3.37632E-03 1.46044E-05 9.86574E-06
 -1      1165-2.12554E-04 4.74935E-04-1.47469E-04 1.35543E-04-5.09916E-07-1.51066E-06
 -1      1166 3.66954E-02-9.25751E-03-1.56678E-02 1.49186E-02 1.78019E-03 3.00588E-03
 -1      1167 3.68844E-02-8.90198E-03-1.67358E-02-1.50454E-02-1.61666E-03 1.96915E-03
 -1      1168-1.88483E-04 5.04129E-04-1.76767E-04 3.03981E-04 2.05859E-06-3.04238E-06
 -1      1169-1.87211E-04 5.03069E-04-1.76872E-04-3.03996E-04-1.07797E-06-2.52789E-06
 -1      1170 1.25210E-03-3.26678E-04-5.19067E-04 1.17206E-03 1.45485E-05-6.87837E-06
 -1      1171 1.26187E-03-3.40351E-04-5.15453E-04-1.17767E-03-9.13927E-06-2.72052E-06
 -1      1172 1.05499E-04 8.53943E-05-1.07797E-04 8.07354E-06 2.98894E-07-4.79030E-06
 -1      1173 7.43552E-05-6.25295E-05-7.29812E-06 2.54824E-06 1.23888E-06 8.04496E-07
 -1      1174-5.46908E-03 6.54705E-03-5.53030E-04 2.02945E-04 5.91925E-05 2.09438E-04
 -1      1175-2.23931E-06-9.14560E-06 5.63159E-06-3.21152E-05-4.80349E-07-3.41970E-07
 -1      1176 4.07362E-02-1.25492E-02-1.58036E-02 6.93120E-04-1.12614E-04 2.70132E-05
 -1      1177 4.05259E-02-1.23999E-02-1.56815E-02-1.13326E-03 8.26957E-05 1.63776E-04
 -1      1178 5.21804E-02-1.84376E-02-1.89697E-02-4.47777E-04 9.87638E-06-1.13627E-05
 -1      1179-2.11982E-04 4.48647E-04-1.32237E-04 1.01822E-06-1.45110E-07-1.78059E-06
 -1      1180-1.92749E-05 4.60932E-04-2.46611E-04-6.19916E-04-2.73004E-06-1.94916E-06
 -1      1181-2.31586E-05 4.64055E-04-2.45964E-04 6.20021E-04 3.15912E-06-2.88343E-06
 -1      1182 2.66420E-03-1.28085E-03-7.74089E-04-8.45453E-04-1.33694E-05-2.62337E-07
 -1      1183 2.66402E-03-1.26824E-03-7.86243E-04 8.26840E-04 2.52279E-05-1.08101E-05
 -1      1184 1.86133E-02-1.58152E-03-9.75296E-03 1.72613E-02 1.50681E-03 1.36303E-04
 -1      1185 2.78501E-02-8.82494E-03-1.06183E-02 1.10120E-02 1.21570E-03 8.07192E-05
 -1      1186 1.73963E-02-9.58305E-04-9.14596E-03-1.78722E-02-8.38116E-04-3.02121E-04
 -1      1187 2.85590E-02-9.00392E-03-1.09311E-02-1.16348E-02-8.31653E-04-3.36535E-04
 -1      1188 1.04994E-05-1.48281E-05 2.34763E-06-1.36577E-06 3.37029E-08-4.03399E-07
 -1      1189 5.22331E-02-1.91489E-02-1.86317E-02-4.02636E-03 7.44437E-05 3.23041E-05
 -1      1190 5.21211E-02-1.86560E-02-1.88162E-02-2.58899E-03-1.06394E-05 1.21907E-05
 -1      1191 1.30986E-02-5.66137E-03-4.69472E-03-7.52777E-03 7.56359E-05 3.73433E-04
 -1      1192 1.30919E-02-5.60049E-03-4.99689E-03 7.34633E-03 8.25867E-05 2.37485E-04
 -1      1193 4.28620E-02-9.64930E-03-1.86615E-02-4.18814E-03 4.03763E-04-1.85990E-04
 -1      1194 4.32210E-02-9.87503E-03-1.87045E-02 4.11687E-03-5.14343E-04-3.24733E-04
 -1      1195 5.27547E-02-1.90238E-02-1.89761E-02 1.23714E-03 8.62558E-07-1.86049E-06
 -1      1196 5.43057E-02-2.05664E-02-1.89802E-02 2.06170E-03 2.24680E-06 1.15482E-05
 -1      1197 1.22408E-03 3.00968E-04-8.07892E-04 2.70491E-03 1.48146E-04 1.37304E-04
 -1      1198 8.83767E-04 5.72999E-04-7.61836E-04-2.75824E-03-7.90929E-05 1.93348E-05
 -1      1199 4.38017E-03-3.23478E-03-6.09357E-04-1.73808E-03-1.52683E-04 1.03415E-05
 -1      1200 4.46291E-03-3.33908E-03-6.07713E-04 1.81642E-03 1.53403E-04 2.86053E-05
 -1      1201-3.95496E-04 7.63825E-04-2.03645E-04-1.01995E-03-2.31349E-05-1.84213E-05
 -1      1202-4.12150E-04 7.75868E-04-1.97898E-04 1.02691E-03 2.75323E-05-2.68656E-05
 -1      1203-2.22929E-04 3.75237E-04-8.40655E-05 2.58133E-05-4.25876E-06-1.29178E-05
 -1      1204 4.03468E-07-1.06309E-05 5.06642E-06 2.96345E-05 1.15878E-06-1.34538E-06
 -1      1205 8.17861E-03-5.70792E-03-1.46884E-03-1.75495E-03 1.52319E-04 1.04881E-04
 -1      1206 8.09000E-03-5.58633E-03-1.51364E-03 1.74945E-03-1.88198E-04 4.90120E-05
 -1      1207-2.32209E-04 4.01028E-04-8.96650E-05 4.06815E-06 1.75565E-06-1.59874E-05
 -1      1208-3.54633E-04 5.45715E-04-1.04854E-04 7.39771E-05 5.21124E-06-1.31523E-05
 -1      1209-3.77737E-04 5.66459E-04-1.04089E-04-7.58585E-05-8.84541E-06-1.34826E-05
 -1      1210 2.27600E-04 2.96845E-04-2.85284E-04 1.80437E-03 4.78584E-05-1.97412E-05
 -1      1211 2.43080E-04 2.94534E-04-2.93828E-04-1.77539E-03-4.40641E-05-2.74798E-05
 -1      1212-2.20714E-03 2.99971E-03-4.28556E-04 3.09262E-04-1.58059E-05 5.71959E-05
 -1      1213-1.67168E-04 3.14590E-04-8.18266E-05-6.25427E-07-8.78459E-07-1.09587E-05
 -1      1214-4.78751E-04 7.39044E-04-1.45141E-04-3.80825E-04-1.23911E-05-1.51662E-05
 -1      1215-4.86646E-04 7.44555E-04-1.42736E-04 3.78130E-04 6.88514E-06-1.89742E-05
 -1      1216 1.62739E-03-8.69136E-04-4.06107E-04-2.24694E-03-7.53348E-05-2.50857E-05
 -1      1217 1.65427E-03-8.86035E-04-4.22542E-04 2.28808E-03 7.22636E-05-2.04885E-05
 -1      1218 5.44497E-02-2.07508E-02-1.89470E-02-2.15033E-03 1.44791E-06-4.91123E-06
 -1      1219-1.28307E-06-3.81088E-08 4.93596E-07-1.21902E-06-1.01627E-08-2.94131E-07
 -1      1220 4.22180E-08-7.36504E-08 2.82752E-08-3.72464E-08 1.28743E-08 6.94139E-09
 -1      1221-3.81107E-08 3.60913E-08 2.01937E-09 6.52166E-09-2.04481E-09-1.29468E-09
 -1      1222-2.47092E-08 3.31962E-08-3.81319E-09-4.52404E-09-6.70540E-10 4.74750E-10
 -1      1223-2.45234E-08 2.53654E-08 1.40598E-10-7.22604E-09-8.95679E-11 6.83415E-10
 -1      1224-3.69280E-08 4.18931E-08-1.61005E-09-1.63305E-08 8.60705E-11-4.61700E-10
 -1      1225-7.14509E-08-1.96373E-08 4.94291E-08 5.63638E-08 5.69565E-09-2.85985E-08
 -1      1226-5.75594E-08-6.64986E-08 8.07941E-08-9.06800E-08-2.27097E-08-3.38789E-08
 -1      1227 9.71419E-09-5.51784E-08 3.14654E-08 1.16567E-08-1.38703E-09-6.97651E-09
 -1      1228-1.77037E-08-1.43444E-08 2.06827E-08 4.27533E-08-5.17222E-09 1.70716E-09
 -1      1229-2.98706E-08 2.71826E-08 2.80774E-09-5.45020E-08-8.15198E-10 3.86715E-09
 -1      1230-2.76455E-08 1.49373E-08 8.83960E-09 4.35045E-08-1.98408E-09 3.24914E-09
 -1      1231-1.34574E-06-2.52639E-08 5.07983E-07 1.06485E-06-1.87965E-08-2.76017E-07
 -1      1232 1.37465E-08-1.49778E-08 5.79915E-09-8.21379E-08 5.45836E-09-3.59899E-09
 -1      1233 4.96692E-02-1.59235E-02-1.89792E-02-1.73771E-05 1.30034E-05 6.15453E-06
 -1      1234 3.95040E-02-1.39386E-02-1.45318E-02-1.12925E-04-4.86050E-04-7.74429E-04
 -1      1235 3.99155E-02-1.42531E-02-1.44805E-02 1.61861E-04 6.44333E-04-7.71761E-04
 -1      1236 1.12383E-02-4.11850E-03-3.64014E-03 1.45226E-02-2.73104E-04-1.51873E-04
 -1      1237 1.02986E-02-3.32927E-03-3.51810E-03-1.44757E-02 1.17988E-03 1.35769E-04
 -1      1238 4.60670E-02-1.34221E-02-1.83904E-02-5.91516E-04-6.68305E-06-1.61278E-04
 -1      1239 4.58822E-02-1.34500E-02-1.82351E-02 5.55301E-04-2.21559E-05-2.82779E-04
 -1      1240 4.82935E-02-1.80915E-02-1.67787E-02 1.08441E-02 4.37828E-04 1.95577E-04
 -1      1241 4.74939E-02-1.74443E-02-1.69595E-02-1.03089E-02-2.67735E-04 1.63310E-05
 -1      1242 5.96551E-02-2.52621E-02-1.92297E-02 5.14112E-03 2.32918E-05 3.15011E-04
 -1      1243 5.93886E-02-2.48371E-02-1.94703E-02-5.13327E-03 2.88926E-05 3.17262E-04
 -1      1244 5.02898E-02-1.65231E-02-1.89632E-02-2.57482E-03 3.55304E-05-5.72153E-05
 -1      1245 5.21634E-02-1.85087E-02-1.88986E-02 3.11605E-03 5.29400E-05-3.20378E-05
 -1      1246 5.22182E-02-1.87671E-02-1.88054E-02 2.56862E-03 2.03004E-05 3.21634E-05
 -1      1247-6.47930E-03 7.96123E-03-7.82580E-04 4.19513E-03 1.19520E-05 3.17024E-04
 -1      1248-6.90997E-03 8.11049E-03-5.04443E-04-4.14082E-03 2.56530E-05 4.21482E-04
 -1      1249 4.08734E-03-1.51320E-03-1.46068E-03 2.11117E-03 1.30073E-05 3.83337E-06
 -1      1250 4.07906E-03-1.52556E-03-1.43709E-03-2.12480E-03 9.04816E-06-7.09184E-06
 -1      1251 4.27704E-03 3.35717E-03-4.27344E-03 8.86351E-03 3.73292E-04-6.66331E-04
 -1      1252 4.24566E-03 3.55409E-03-4.39235E-03-9.19267E-03-3.94765E-04-7.00790E-04
 -1      1253 9.62943E-04-1.07216E-04-4.83978E-04-1.01393E-03-4.98761E-06-6.43196E-06
 -1      1254 9.61298E-04-1.09154E-04-4.81286E-04 1.00983E-03-1.81352E-06-3.21527E-06
 -1      1255-1.75083E-04 4.84231E-04-1.74610E-04-2.31206E-04 9.28244E-07-2.63729E-07
 -1      1256-1.77278E-04 4.84643E-04-1.72224E-04 2.32758E-04-7.83775E-08-1.24985E-07
 -1      1257 5.02228E-02-1.64120E-02-1.89990E-02 2.34305E-03-1.58848E-05-7.44500E-05
 -1      1258 5.21918E-02-1.92884E-02-1.85682E-02 5.45784E-03 9.47032E-06 1.07201E-05
 -1      1259 2.62166E-05-3.00156E-05 2.07017E-06 1.64225E-05 4.16866E-07 4.45641E-07
 -1      1260 4.31438E-02-1.14863E-02-1.78649E-02 5.54501E-04 1.73444E-04-1.15237E-04
 -1      1261 4.30992E-02-1.16125E-02-1.77127E-02-6.16980E-04-1.54831E-04-1.18834E-04
 -1      1262 5.28327E-02-1.92128E-02-1.89024E-02-1.74307E-03 9.03338E-06 1.48059E-05
 -1      1263-1.08744E-03 1.91601E-03-4.75092E-04-1.27487E-03-4.41130E-05 1.15480E-05
 -1      1264 5.72750E-05-2.11792E-05-1.61001E-05-6.40681E-06-1.01123E-05 1.66958E-05
 -1      1265 6.42243E-05-2.48750E-05-1.25075E-05-1.20676E-05 2.20122E-05 2.36222E-05
 -1      1266 4.09737E-02-6.17205E-03-2.05686E-02-1.77014E-02-2.85160E-04 2.68875E-03
 -1      1267 4.88975E-02-1.23210E-02-2.23144E-02-9.68441E-03 1.43083E-03 4.49772E-04
 -1      1268 5.15191E-02-1.71827E-02-1.93548E-02-5.23445E-03 9.08002E-05-1.08260E-03
 -1      1269 5.57866E-02-1.78147E-02-2.13651E-02-9.30377E-03 6.24531E-04-1.36036E-03
 -1      1270 4.47615E-02-8.39703E-03-2.00320E-02-9.18380E-03 8.27723E-04-4.77986E-05
 -1      1271 4.72734E-02-7.14263E-03-2.26375E-02 2.03233E-02-3.09579E-04 3.59676E-03
 -1      1272 4.91548E-02-1.34272E-02-2.20729E-02 1.01503E-02-2.10287E-03-3.01280E-05
 -1      1273 5.15685E-02-1.71357E-02-1.94262E-02 5.35499E-03-1.42276E-04-1.07708E-03
 -1      1274 5.53282E-02-1.73139E-02-2.13491E-02 9.49705E-03-5.35765E-04-1.22123E-03
 -1      1275 4.47535E-02-8.98891E-03-1.96902E-02 9.01600E-03-8.04616E-04-2.48705E-04
 -1      1276-1.22419E-05 8.55923E-08 6.85274E-06 2.19361E-05 7.83988E-07-1.94008E-06
 -1      1277-7.97988E-06-1.73702E-06 3.70895E-06 1.33728E-05 3.53328E-07-5.31684E-07
 -1      1278-2.57920E-07-2.50102E-07 1.76279E-07-7.67967E-07-6.17070E-08-1.43175E-07
 -1      1279-2.27000E-06 1.04374E-06 5.89781E-07-2.51085E-07 9.52641E-08-1.16442E-07
 -1      1280 1.51216E-06-7.49866E-06 3.76904E-06 1.80347E-05-2.83193E-07 5.73731E-07
 -1      1281-2.58760E-06-1.21773E-06 1.79943E-06 6.43453E-06 2.68318E-09-9.64730E-07
 -1      1282-1.47324E-06-2.63322E-06 1.26026E-06 4.24498E-06 2.80181E-07-9.72495E-07
 -1      1283-1.88369E-05 2.16694E-06 8.25644E-06-2.20641E-05 5.22150E-07-8.11622E-07
 -1      1284-8.73435E-06-1.06203E-06 3.99389E-06-1.42872E-05-1.07401E-06-6.39296E-07
 -1      1285-2.67102E-07-2.39632E-07 1.55121E-07 7.35634E-07 1.00059E-07-1.64898E-07
 -1      1286-2.55007E-06 1.06831E-06 6.63824E-07 3.85587E-07-5.21111E-08-2.46330E-07
 -1      1287 1.13351E-06-7.38795E-06 4.18643E-06-1.98510E-05-8.84840E-07 3.71746E-07
 -1      1288-3.03660E-06-1.13388E-06 2.10713E-06-6.42354E-06-2.89162E-07-8.10099E-07
 -1      1289-1.03014E-06-2.55210E-06 1.39591E-06-4.30872E-06-2.54827E-07-5.83265E-07
 -1      1290-9.59223E-03 9.85932E-03-4.20280E-04-6.98099E-03-7.82364E-04 6.76431E-04
 -1      1291-8.28080E-03 9.81584E-03-5.93203E-04-2.08925E-03-2.25267E-04 3.07749E-04
 -1      1292-8.97500E-03 9.33360E-03-3.88357E-04 6.99783E-03 6.65910E-04 5.98387E-04
 -1      1293-8.20933E-03 9.66889E-03-6.63017E-04 2.22472E-03 1.18136E-04 2.11234E-04
 -1      1294-6.06272E-03 7.25269E-03-6.63097E-04 2.14468E-03 7.08787E-05 2.69954E-04
 -1      1295-7.33976E-03 8.49048E-03-7.23547E-04 1.61173E-04 9.70423E-05 1.31888E-04
 -1      1296-6.27373E-03 7.43515E-03-5.22926E-04-1.83216E-03 5.16338E-05 3.74136E-04
 -1      1297 6.26374E-03 3.88443E-03-5.20173E-03-1.05329E-02-3.04392E-04 4.45285E-05
 -1      1298 1.13757E-02 5.57761E-03-9.43189E-03-1.73134E-02-2.02627E-03 6.16010E-04
 -1      1299 3.86247E-02-6.03422E-03-1.77391E-02-2.34179E-02-2.04966E-03 4.35647E-03
 -1      1300 1.83607E-02 3.08782E-03-1.41855E-02-1.97849E-02-3.72105E-03 3.08552E-03
 -1      1301 2.60443E-02-5.46749E-03-1.26092E-02-1.78873E-02-9.85776E-04 1.04643E-03
 -1      1302 4.67826E-02-1.22473E-02-1.63111E-02-3.04920E-03 2.07356E-03 1.01911E-02
 -1      1303 4.70283E-02-9.40917E-03-1.55592E-02-1.05954E-04 9.84762E-04 1.22404E-02
 -1      1304 4.68335E-02-1.23500E-02-1.76507E-02 3.33646E-03-2.08883E-03 8.82231E-03
 -1      1305 4.68729E-02-9.49966E-03-1.61816E-02-2.53065E-04-6.46532E-04 1.19104E-02
 -1      1306 4.92591E-02-1.50440E-02-2.29246E-02-1.21588E-03 1.56154E-04-1.37953E-03
 -1      1307 4.68725E-02-1.16004E-02-1.50324E-02-1.51081E-04-2.74937E-04 9.73471E-03
 -1      1308 4.96699E-02-1.53538E-02-2.24744E-02 1.35783E-03-1.10139E-04-6.08625E-04
 -1      1309-3.35076E-08 6.72724E-08-2.00461E-08-8.10851E-09 1.59690E-09-1.12562E-09
 -1      1310-1.67490E-08 2.80029E-08-5.49741E-09-3.98547E-09 6.43733E-10-3.38050E-09
 -1      1311-8.07273E-11-1.66221E-08 9.17940E-09-3.92138E-10-3.95676E-10-6.54289E-10
 -1      1312-3.31633E-08 6.70512E-08-1.92596E-08-3.41230E-09-7.03939E-10-1.20293E-09
 -1      1313 1.30307E-09-2.11518E-08 1.17334E-08-5.56932E-09 1.77087E-10 1.24593E-10
 -1      1314-5.28785E-09-2.42877E-08 1.73651E-08-2.67245E-08 5.27158E-10 1.74715E-09
 -1      1315-6.33947E-09-1.37441E-08 1.24446E-08 1.75669E-08-2.64930E-09-9.43329E-10
 -1      1316 1.88898E-03 3.14111E-03-2.78910E-03-6.04154E-03 5.16215E-05-2.30092E-04
 -1      1317 2.16076E-03 3.86574E-03-3.29398E-03-6.77800E-03 2.23106E-04-4.79769E-04
 -1      1318 1.29549E-02 7.64006E-04-7.90063E-03-1.51812E-02-4.32177E-04 3.90396E-04
 -1      1319 3.68265E-03 3.54215E-03-3.92731E-03-9.03262E-03-7.65242E-05 5.12747E-04
 -1      1320 7.49312E-03 1.99209E-03-5.48049E-03-1.07349E-02-7.48519E-04-1.96397E-04
 -1      1321 2.50420E-03 1.33139E-03-2.21161E-03-5.21339E-03-8.24297E-05-6.11221E-06
 -1      1322 2.12521E-03 2.21040E-03-2.46279E-03-5.44482E-03-1.74436E-04 1.26278E-04
 -1      1323 4.29898E-03 2.73753E-03-3.96488E-03-8.47781E-03-4.15651E-04-3.28027E-04
 -1      1324 3.75043E-03-7.39842E-04-1.67033E-03-3.10936E-03 3.83958E-06 5.09758E-05
 -1      1325 3.13932E-03 2.40915E-05-1.77912E-03-3.59286E-03 2.41652E-05-4.41625E-05
 -1      1326 5.40057E-03-1.05383E-04-2.94955E-03-7.08962E-03-3.53489E-04-9.88563E-05
 -1      1327 3.46487E-03 7.86336E-05-1.98005E-03-4.75483E-03-1.60304E-04 1.81082E-04
 -1      1328 5.00329E-03-1.76836E-03-1.89364E-03-4.60036E-03 5.29147E-05 1.19729E-04
 -1      1329 3.85613E-03-1.19441E-03-1.48633E-03-1.92093E-03-2.19228E-05 5.84786E-07
 -1      1330 3.64373E-03-8.64109E-04-1.58152E-03-2.46921E-03 2.46296E-05-3.36649E-05
 -1      1331 4.15711E-03-1.51825E-03-1.51396E-03-2.65636E-03 2.41055E-05-3.72076E-05
 -1      1332 3.72535E-03-1.54872E-03-1.22907E-03-7.60146E-04 1.54501E-05 4.76525E-06
 -1      1333 3.85099E-03-1.47615E-03-1.36067E-03-1.29330E-03 2.52263E-05-5.79224E-06
 -1      1334 4.14015E-03-1.78046E-03-1.30528E-03-1.46792E-03 3.46238E-05 9.74734E-06
 -1      1335 2.78428E-03-1.16275E-03-9.06843E-04 3.91303E-04 1.61955E-05 1.86443E-06
 -1      1336 3.12471E-03-1.27198E-03-1.04236E-03 2.30806E-05 8.37651E-06-1.89281E-05
 -1      1337 3.00297E-03-1.60766E-03-7.89304E-04 7.61513E-04 3.83414E-05-4.58113E-06
 -1      1338 3.41855E-03-1.55337E-03-1.04988E-03-1.01742E-04 7.05141E-06 6.03362E-06
 -1      1339 3.77456E-03-1.95911E-03-1.00180E-03-4.95580E-05 2.20160E-05 7.00050E-06
 -1      1340 2.41858E-03-9.86569E-04-8.09712E-04 6.58542E-04 1.05116E-05 2.02914E-07
 -1      1341 1.41894E-03-3.77703E-04-5.77508E-04 9.35883E-04 1.08026E-05 2.37557E-06
 -1      1342 1.76779E-03-5.75556E-04-6.64822E-04 8.43429E-04 7.55580E-06-1.63212E-05
 -1      1343 2.17214E-03-9.58006E-04-6.78008E-04 1.11356E-03 1.02935E-05-8.24045E-06
 -1      1344 1.97115E-03-7.35972E-04-6.93568E-04 8.94019E-04 4.02258E-06 3.60634E-06
 -1      1345 1.47002E-03-5.19400E-04-5.46470E-04 1.26979E-03 1.43453E-05-1.01444E-05
 -1      1346 9.91130E-04-1.13612E-04-4.88029E-04 8.90975E-04-3.73619E-07-3.24972E-06
 -1      1347 1.27799E-03-2.79238E-04-5.59980E-04 8.76527E-04 2.17350E-06-5.69629E-06
 -1      1348 1.09211E-03-2.03727E-04-5.08252E-04 1.09104E-03 8.05838E-06-9.57602E-06
 -1      1349 5.38991E-04 1.52259E-04-3.90441E-04 8.47174E-04 5.03442E-06 2.35454E-06
 -1      1350 7.53293E-04 1.75573E-05-4.32718E-04 8.85493E-04 4.57246E-06-5.07806E-06
 -1      1351 7.08596E-04 3.82757E-05-4.20226E-04 1.00202E-03-1.31451E-06 3.05801E-06
 -1      1352 1.39045E-04 3.67524E-04-2.82541E-04 6.18379E-04 1.78323E-06-4.59350E-07
 -1      1353 2.83255E-04 2.98420E-04-3.25318E-04 6.93215E-04-6.23719E-07-4.40204E-06
 -1      1354-8.88669E-06 4.60128E-04-2.58527E-04 7.13484E-04 2.72460E-06-5.40354E-06
 -1      1355 3.13470E-04 2.81149E-04-3.35228E-04 7.69042E-04 4.37590E-06-1.82762E-06
 -1      1356 2.30815E-04 3.36336E-04-3.21165E-04 8.93615E-04 1.53684E-06-1.19606E-06
 -1      1357 3.19700E-05 4.24143E-04-2.57759E-04 5.42173E-04 4.62441E-06 6.59939E-07
 -1      1358-1.15961E-04 4.71803E-04-1.97416E-04 3.26167E-04 2.70054E-06-1.98000E-06
 -1      1359-5.78036E-05 4.53442E-04-2.20534E-04 3.99446E-04-1.17073E-06-7.24422E-06
 -1      1360-1.21556E-04 5.10237E-04-2.18122E-04 5.04787E-04 1.15967E-06-2.59672E-06
 -1      1361-5.93522E-05 4.61068E-04-2.26956E-04 4.42404E-04 1.27346E-06-1.20602E-06
 -1      1362-1.99882E-04 5.21127E-04-1.82744E-04 3.53876E-04 1.38636E-06-4.52059E-06
 -1      1363-1.48449E-04 4.75243E-04-1.83728E-04 2.24687E-04-4.80439E-07 5.61663E-07
 -1      1364-1.16188E-04 4.64813E-04-1.94913E-04 2.88332E-04-1.11511E-06-3.13261E-06
 -1      1365-1.85554E-04 4.93334E-04-1.72737E-04 2.65511E-04 1.96063E-06-2.41547E-07
 -1      1366-1.86900E-04 4.75672E-04-1.63072E-04 1.21109E-04 8.13244E-07-2.46891E-07
 -1      1367-1.70344E-04 4.71456E-04-1.68968E-04 1.75970E-04-9.66603E-07-1.95833E-06
 -1      1368-1.95237E-04 4.78735E-04-1.59588E-04 1.82164E-04 6.24477E-07-1.01280E-07
 -1      1369-1.94567E-04 4.64576E-04-1.49914E-04 6.07348E-07 1.96365E-07-1.42994E-06
 -1      1370-1.91199E-04 4.67662E-04-1.55186E-04 4.99913E-05-4.12438E-07-8.07294E-07
 -1      1371-2.13690E-04 4.39405E-04-1.28016E-04 2.30903E-05-1.45371E-06-1.67593E-06
 -1      1372-1.91595E-04 4.55900E-04-1.48350E-04 7.31174E-05 1.07508E-06-2.39581E-06
 -1      1373-2.12057E-04 4.49947E-04-1.33571E-04 8.57399E-05-4.64087E-08-1.13206E-06
 -1      1374-1.90724E-04 4.66567E-04-1.54525E-04-4.96941E-05 2.82005E-06-2.10820E-06
 -1      1375-1.71370E-04 4.70443E-04-1.67157E-04-1.76045E-04 1.83762E-07-2.69942E-06
 -1      1376-1.87196E-04 4.76302E-04-1.63190E-04-1.20439E-04-2.26567E-06-1.48476E-06
 -1      1377-2.12548E-04 4.38896E-04-1.28678E-04-2.05410E-05 6.07774E-07-1.94328E-06
 -1      1378-1.92381E-04 4.57775E-04-1.49520E-04-7.36007E-05-3.04645E-07-1.04286E-06
 -1      1379-2.15646E-04 4.52626E-04-1.34054E-04-8.42419E-05-6.96454E-07-9.28498E-07
 -1      1380-1.16675E-04 4.67248E-04-1.96334E-04-2.89465E-04 1.13948E-06-1.84298E-06
 -1      1381-1.50257E-04 4.76080E-04-1.81418E-04-2.24117E-04 3.34617E-07-8.37918E-07
 -1      1382-1.93774E-04 4.76766E-04-1.59396E-04-1.79906E-04-6.14071E-07 1.27329E-06
 -1      1383-5.85249E-05 4.54073E-04-2.20463E-04-3.98944E-04 1.40893E-06-3.59736E-06
 -1      1384-1.17442E-04 4.72347E-04-1.97182E-04-3.24561E-04-2.56012E-06-1.14361E-06
 -1      1385-1.82879E-04 4.93540E-04-1.76702E-04-2.63613E-04 1.17377E-07-2.50974E-06
 -1      1386 1.39982E-04 3.67420E-04-2.81765E-04-6.19101E-04-2.39133E-06-5.03480E-08
 -1      1387 3.19658E-05 4.23030E-04-2.57109E-04-5.43194E-04-3.84972E-06-1.76811E-08
 -1      1388-1.20767E-04 5.09538E-04-2.16819E-04-5.06383E-04-1.23570E-06-2.94943E-06
 -1      1389-6.15910E-05 4.61619E-04-2.25238E-04-4.43832E-04-7.38229E-07-1.15986E-06
 -1      1390-2.03290E-04 5.22428E-04-1.83180E-04-3.54495E-04-9.04571E-08-4.75850E-06
 -1      1391 2.84733E-04 2.98424E-04-3.25781E-04-6.93215E-04 1.57075E-06-3.87201E-06
 -1      1392 7.50900E-04 2.07659E-05-4.34480E-04-8.85180E-04-3.93909E-06-9.07778E-06
 -1      1393 5.38891E-04 1.52870E-04-3.91111E-04-8.48347E-04-5.43571E-06 1.52686E-06
 -1      1394-1.08670E-05 4.60666E-04-2.59377E-04-7.15321E-04-2.18815E-06-6.04065E-06
 -1      1395 3.13769E-04 2.82121E-04-3.35450E-04-7.73390E-04-5.04673E-06-1.50580E-06
 -1      1396 2.29542E-04 3.35904E-04-3.18673E-04-8.96126E-04-1.25450E-06 5.47945E-07
 -1      1397 1.27753E-03-2.80221E-04-5.61022E-04-8.71496E-04-2.46664E-06-7.96214E-06
 -1      1398 9.93970E-04-1.08236E-04-4.93461E-04-8.92298E-04-2.48411E-06-2.85026E-06
 -1      1399 7.08900E-04 4.30934E-05-4.21705E-04-1.00069E-03 9.21151E-07 2.37727E-07
 -1      1400 1.77780E-03-5.72748E-04-6.72410E-04-8.47929E-04-2.11086E-06-4.49053E-06
 -1      1401 1.42205E-03-3.82683E-04-5.78324E-04-9.35784E-04-2.96542E-06 4.16800E-06
 -1      1402 1.09122E-03-2.10684E-04-5.00995E-04-1.09540E-03-9.14872E-06-8.10342E-06
 -1      1403 2.78884E-03-1.17028E-03-9.07364E-04-3.97335E-04-4.48732E-06-1.17124E-06
 -1      1404 2.42261E-03-9.92310E-04-8.09714E-04-6.63135E-04-6.12960E-06 4.49578E-06
 -1      1405 1.47505E-03-5.26548E-04-5.46520E-04-1.27699E-03-1.67571E-05-9.84927E-06
 -1      1406 1.97028E-03-7.28077E-04-6.98993E-04-9.01862E-04-5.92956E-06 1.26253E-06
 -1      1407 2.17114E-03-9.60448E-04-6.74123E-04-1.12119E-03-1.09189E-05-4.17687E-06
 -1      1408 3.14986E-03-1.29105E-03-1.03943E-03-3.62750E-05-6.59568E-06-9.11532E-06
 -1      1409 3.86320E-03-1.49450E-03-1.33676E-03 1.32406E-03 1.04451E-05 1.38222E-05
 -1      1410 3.74869E-03-1.58658E-03-1.22751E-03 7.62218E-04-6.75901E-07 2.38565E-05
 -1      1411 3.79489E-03-1.98558E-03-1.00096E-03 1.94673E-05-2.95501E-05-2.35942E-06
 -1      1412 3.43614E-03-1.53195E-03-1.07322E-03 9.84166E-05-1.62788E-05 3.98985E-06
 -1      1413 3.02828E-03-1.61059E-03-8.14455E-04-7.65289E-04-3.79644E-05-6.06616E-06
 -1      1414 3.72326E-03-8.70499E-04-1.62212E-03 2.48822E-03-1.46343E-05-1.07526E-05
 -1      1415 3.85068E-03-1.22281E-03-1.48890E-03 1.91037E-03 1.13318E-05-2.36461E-07
 -1      1416 4.10903E-03-1.78088E-03-1.28890E-03 1.45082E-03 2.17961E-08 1.45009E-05
 -1      1417 3.15187E-03 5.11237E-05-1.74907E-03 3.59449E-03-3.62777E-05 1.14572E-05
 -1      1418 3.73502E-03-7.59184E-04-1.67587E-03 3.18294E-03 5.40201E-05 9.82212E-05
 -1      1419 4.25038E-03-1.58973E-03-1.60344E-03 2.70287E-03 9.38614E-05 2.49374E-05
 -1      1420 1.96547E-03 2.19195E-03-2.33560E-03 5.51284E-03 2.04435E-04-1.30927E-07
 -1      1421 2.52783E-03 1.33190E-03-2.19329E-03 5.34728E-03 1.21203E-04 2.83858E-05
 -1      1422 5.45944E-03-1.87011E-04-2.88835E-03 7.01518E-03 2.81929E-04-5.87598E-05
 -1      1423 3.51404E-03 2.10170E-05-2.03837E-03 4.61767E-03 7.79597E-05 1.34973E-04
 -1      1424 5.02814E-03-1.80383E-03-1.93374E-03 4.76204E-03 2.62172E-05 7.50527E-05
 -1      1425 2.26292E-03 3.66159E-03-3.11836E-03 6.67718E-03-1.05259E-04-3.95189E-04
 -1      1426 1.94005E-03 3.14872E-03-2.79366E-03 5.93947E-03-2.12286E-05-3.20335E-04
 -1      1427 4.27429E-03 2.72512E-03-3.94869E-03 8.59614E-03 3.96950E-04-4.04240E-04
 -1      1428 6.61054E-03 3.59774E-03-5.41036E-03 1.09523E-02 8.18919E-04 1.06017E-04
 -1      1429 1.14741E-02 4.65276E-03-9.44478E-03 1.69921E-02 2.38513E-03 7.39875E-04
 -1      1430 1.38410E-02 5.54349E-04-8.35323E-03 1.49562E-02 1.21506E-03-1.47554E-04
 -1      1431 3.74398E-03 3.40340E-03-3.88154E-03 8.96282E-03 2.91892E-05 3.13094E-04
 -1      1432 7.37692E-03 2.02585E-03-5.32967E-03 1.04962E-02 5.94944E-04-3.25101E-04
 -1      1433 4.01399E-02-7.18475E-03-1.80610E-02-8.89446E-03-2.39667E-04 8.26642E-04
 -1      1434 3.86537E-02-5.20806E-03-1.77335E-02 2.53492E-02 1.52535E-03 5.67107E-03
 -1      1435 1.85040E-02 2.62875E-03-1.31260E-02 1.98484E-02 4.52221E-03 3.41112E-03
 -1      1436 4.25885E-02-8.64231E-03-1.83869E-02 9.72386E-03-1.02430E-04 1.86373E-03
 -1      1437 5.17808E-02-1.83754E-02-1.87209E-02-2.99980E-03 2.82208E-05-3.69216E-05
 -1      1438 5.20713E-02-1.83288E-02-1.89016E-02-3.50605E-03-9.92798E-05-2.04985E-04
 -1      1439 5.01188E-02-1.64437E-02-1.89463E-02-4.66874E-03 2.50489E-04-1.75600E-04
 -1      1440 5.08528E-02-1.73458E-02-1.89579E-02-4.77184E-03 1.32099E-04-4.63354E-04
 -1      1441 4.90995E-02-1.44927E-02-1.96491E-02-7.38396E-03 7.25965E-05-8.54900E-04
 -1      1442 5.18770E-02-1.85867E-02-1.87159E-02-2.66646E-03 8.94823E-06 2.77568E-05
 -1      1443 5.18743E-02-1.85766E-02-1.87130E-02-2.60879E-03 9.53987E-06 7.55124E-05
 -1      1444 5.18308E-02-1.82542E-02-1.89161E-02-2.94355E-03-8.37456E-06-2.54301E-05
 -1      1445 5.10778E-02-1.84060E-02-1.84252E-02-3.54667E-03-7.53674E-06 4.80438E-05
 -1      1446 5.16800E-02-1.87093E-02-1.86013E-02-3.27329E-03 8.48422E-05 2.94843E-05
 -1      1447 5.23324E-02-1.89659E-02-1.87765E-02-2.60287E-03-3.52797E-06 2.83952E-07
 -1      1448 5.19619E-02-1.87910E-02-1.86580E-02-2.76496E-03 1.15127E-05 1.36192E-05
 -1      1449 5.25143E-02-1.92318E-02-1.87127E-02-3.34842E-03 2.77068E-05 1.19854E-05
 -1      1450 4.84541E-02-1.78620E-02-1.72666E-02-5.89364E-03-1.04293E-04 6.38202E-05
 -1      1451 5.06538E-02-1.87438E-02-1.80790E-02-5.12484E-03 6.06253E-05 1.44173E-04
 -1      1452 5.23255E-02-1.94680E-02-1.84746E-02-5.60267E-03-1.04205E-04-3.51613E-05
 -1      1453 4.08550E-02-1.47188E-02-1.47496E-02-6.53345E-03-3.61116E-04-1.85629E-04
 -1      1454 4.60656E-02-1.66911E-02-1.65596E-02-6.69694E-03-4.06534E-07-2.42091E-04
 -1      1455 5.04525E-02-1.86823E-02-1.77753E-02-9.17936E-03-1.25858E-04 6.25496E-05
 -1      1456 3.44018E-02-1.16710E-02-1.31269E-02-4.79042E-03-4.22426E-04 1.41031E-03
 -1      1457 3.82698E-02-1.28298E-02-1.43003E-02-7.56124E-03-3.89226E-04-3.12041E-04
 -1      1458 4.51606E-02-1.53713E-02-1.67875E-02-1.19621E-02-5.03429E-04-2.09946E-04
 -1      1459 2.45197E-02-1.11428E-02-7.54457E-03-1.08078E-02 2.47216E-04-2.24087E-03
 -1      1460 2.91518E-02-9.82357E-03-1.07163E-02-8.41918E-03 7.40219E-04-2.56351E-03
 -1      1461 4.06203E-02-1.37948E-02-1.44806E-02-1.78031E-02-4.95306E-04-4.43820E-03
 -1      1462 1.48231E-02-4.40127E-03-5.72763E-03-8.38561E-03 5.24545E-04-5.53724E-04
 -1      1463 2.31264E-02-8.41669E-03-7.88866E-03-6.02179E-03 9.04723E-04 8.92845E-04
 -1      1464 8.95285E-03-4.55302E-03-3.29140E-03-2.16214E-02 1.73575E-03-3.43428E-03
 -1      1465 3.45372E-03 8.17310E-05-1.91203E-03-4.86530E-03 1.19107E-04 2.16236E-04
 -1      1466 8.53897E-03-1.91589E-03-3.65160E-03-6.71048E-03-3.60058E-05 1.69339E-04
 -1      1467 3.91065E-03 4.69894E-04-2.60519E-03-1.24073E-02 8.10356E-05 1.45269E-05
 -1      1468 1.05889E-03-5.88047E-05-4.44584E-04-1.44834E-03 1.01123E-04-5.93318E-05
 -1      1469 3.03756E-03-4.91450E-04-1.30841E-03-2.07372E-03-1.09760E-04-3.92831E-05
 -1      1470 8.12821E-04 1.46845E-03-1.41495E-03-5.39517E-03-5.73087E-06 4.18837E-04
 -1      1471 1.07953E-04 3.66307E-05-4.28612E-05-2.56718E-04 2.42128E-06 2.56704E-05
 -1      1472 5.69280E-04-2.67607E-05-2.58270E-04-4.49508E-04-6.04992E-05 3.61749E-05
 -1      1473 3.58733E-04 3.89764E-04-4.79005E-04-1.54978E-03-7.69491E-05 5.57054E-05
 -1      1474-5.35436E-05 1.16447E-05 2.74813E-05 4.06170E-05-5.95677E-06 2.32931E-06
 -1      1475-6.69671E-05 2.86832E-05 2.46730E-05 1.51714E-05-1.39979E-05 4.24672E-05
 -1      1476 1.19265E-04 6.56937E-05-1.07403E-04-2.53652E-04-3.15191E-05 1.69174E-05
 -1      1477-9.23316E-06-1.33491E-05 1.71381E-05 6.55520E-05 2.36087E-06-4.41235E-06
 -1      1478-4.42720E-05 5.81454E-06 2.28356E-05 8.08413E-05 3.13770E-06-4.19198E-06
 -1      1479 6.85999E-05-3.99527E-05-1.96563E-05 5.84213E-05-1.64222E-05 2.47236E-06
 -1      1480-3.26812E-05 7.87117E-06 1.44913E-05 3.21736E-05 8.98431E-07 2.20034E-06
 -1      1481 4.49449E-05-3.74888E-05-5.82901E-06 6.88006E-05-3.87327E-06-3.28700E-06
 -1      1482-3.17419E-05 5.99560E-07 1.38997E-05 4.69641E-05-1.93234E-07-8.25103E-07
 -1      1483 9.25265E-06-2.22971E-05 2.98782E-06 4.14144E-05 2.57592E-06-2.46028E-06
 -1      1484 5.20259E-02-1.86399E-02-1.87227E-02 2.79690E-03-1.43368E-05 4.58824E-06
 -1      1485 5.22504E-02-1.86874E-02-1.88656E-02 3.12446E-03-5.78085E-05-3.08867E-05
 -1      1486 4.86472E-02-1.39715E-02-1.97330E-02 7.31823E-03-2.59411E-04-8.89772E-04
 -1      1487 5.06543E-02-1.72680E-02-1.89500E-02 4.77419E-03-2.65902E-04-2.93419E-04
 -1      1488 4.94485E-02-1.57106E-02-1.90185E-02 5.00536E-03-2.93613E-04-2.19843E-04
 -1      1489 5.19007E-02-1.80598E-02-1.89267E-02 3.96926E-03 6.50931E-05 1.27849E-04
 -1      1490 5.17402E-02-1.78644E-02-1.90370E-02 3.63496E-03 9.62095E-05-2.27814E-05
 -1      1491 5.20156E-02-1.86643E-02-1.87499E-02 2.65509E-03 2.36956E-06 2.98156E-05
 -1      1492 5.19573E-02-1.86237E-02-1.87565E-02 2.61214E-03 1.55172E-05 4.90074E-05
 -1      1493 5.21721E-02-1.86702E-02-1.88549E-02 2.79881E-03 2.78428E-05-2.26164E-05
 -1      1494 5.15147E-02-1.85948E-02-1.85845E-02 3.44463E-03-3.06357E-05-5.37076E-06
 -1      1495 5.19220E-02-1.87348E-02-1.86804E-02 3.16316E-03-3.81479E-05-7.96602E-06
 -1      1496 5.28176E-02-1.92293E-02-1.88159E-02 2.95592E-03-4.43467E-05 7.49006E-06
 -1      1497 5.22366E-02-1.88901E-02-1.87809E-02 2.62485E-03-1.83612E-05 3.28551E-05
 -1      1498 5.24366E-02-1.89070E-02-1.88560E-02 2.49572E-03 4.28357E-06 3.02473E-05
 -1      1499 4.92414E-02-1.78899E-02-1.76778E-02 4.89608E-03 1.75714E-04-1.76207E-04
 -1      1500 5.11729E-02-1.85596E-02-1.83949E-02 4.25792E-03 2.15522E-05-6.48459E-05
 -1      1501 5.24984E-02-1.91912E-02-1.86755E-02 4.54336E-03 3.18214E-05-1.31071E-05
 -1      1502 4.12682E-02-1.49118E-02-1.46105E-02 7.24846E-03 2.13573E-04-8.23146E-05
 -1      1503 4.65141E-02-1.70959E-02-1.65548E-02 6.84541E-03 2.08366E-04-3.07907E-04
 -1      1504 5.12964E-02-1.96392E-02-1.73939E-02 9.69987E-03 9.03862E-05 2.94137E-04
 -1      1505 4.92009E-02-1.81668E-02-1.75535E-02 6.52719E-03 8.75958E-05 1.03713E-04
 -1      1506 5.26595E-02-1.99366E-02-1.85428E-02 6.87829E-03-5.63249E-05 1.91660E-04
 -1      1507 3.38605E-02-1.03050E-02-1.38800E-02 3.97100E-03 1.03296E-03 3.89503E-04
 -1      1508 3.92906E-02-1.28073E-02-1.49480E-02 7.99977E-03 6.46531E-04 1.69377E-04
 -1      1509 4.68895E-02-1.62013E-02-1.76682E-02 1.23003E-02 6.28606E-04 3.31549E-04
 -1      1510 2.50930E-02-1.09022E-02-8.41191E-03 1.04176E-02-9.84320E-04-1.64649E-03
 -1      1511 2.88950E-02-8.88070E-03-1.02731E-02 8.35728E-03-1.55579E-03-2.11589E-03
 -1      1512 3.88049E-02-1.25099E-02-1.47021E-02 1.78895E-02 2.04740E-03-4.94795E-03
 -1      1513 1.43084E-02-4.64816E-03-5.38797E-03 8.11782E-03 1.07461E-05-4.24807E-04
 -1      1514 2.33809E-02-8.56214E-03-8.18999E-03 6.49954E-03-2.84607E-04 6.89392E-04
 -1      1515 9.30992E-03-4.24592E-03-4.08639E-03 2.16884E-02 2.75221E-04-4.14838E-03
 -1      1516 3.32953E-03 1.40939E-04-1.66758E-03 4.97153E-03-8.09464E-05 1.94803E-05
 -1      1517 8.08645E-03-1.56194E-03-3.52365E-03 6.80725E-03-1.68224E-04 2.91721E-04
 -1      1518 3.77689E-03 7.06810E-04-2.77806E-03 1.24449E-02-4.16403E-05 3.60208E-05
 -1      1519 1.14651E-03-1.15048E-04-4.83892E-04 1.22808E-03 1.48545E-05 2.87238E-05
 -1      1520 3.07393E-03-7.79288E-04-1.22172E-03 1.86419E-03 1.21145E-06 1.46239E-04
 -1      1521 1.08169E-03 1.24621E-03-1.09056E-03 5.60546E-03-2.40161E-04 5.07657E-05
 -1      1522 1.32945E-04 8.90005E-05-5.95111E-05 3.44231E-04-1.88814E-05 1.28115E-06
 -1      1523 4.76379E-04 3.88011E-05-2.49885E-04 6.20350E-04 5.04128E-06 2.55632E-05
 -1      1524 5.67286E-04 2.79012E-04-5.30801E-04 1.61234E-03 1.07877E-04 2.13785E-05
 -1      1525-5.44408E-05 1.22765E-05 3.21574E-05-4.75321E-05 1.05611E-05 1.33176E-05
 -1      1526-6.48257E-05 1.88384E-05 3.06199E-05-4.20793E-05 7.41324E-06 4.64246E-05
 -1      1527 1.00373E-04 1.43240E-04-1.22784E-04 3.59907E-04 1.74314E-06 7.58275E-06
 -1      1528-2.43440E-05-2.39046E-06 8.17262E-06-7.05399E-05 4.87712E-06 9.17374E-06
 -1      1529-6.56782E-05 1.57962E-05 2.24663E-05-8.15723E-05 4.35519E-06 1.34069E-06
 -1      1530 7.30453E-05-2.76735E-05-2.37284E-05-5.30994E-05 2.10768E-05 2.64901E-06
 -1      1531-9.76354E-06-9.85349E-06 1.13946E-05-3.76091E-05-1.66977E-06-2.06358E-06
 -1      1532-3.61822E-05-4.86708E-06 2.47468E-05-5.49568E-05-1.93495E-07 4.99893E-06
 -1      1533 5.06597E-05-4.39366E-05-7.18481E-06-7.96886E-05 6.15890E-06 7.35528E-06
 -1      1534 9.53458E-06-2.06015E-05 5.68316E-06-4.47554E-05 1.91939E-06-5.64373E-07
 -1      1535 8.52775E-08-1.42871E-08-4.27678E-08-6.91701E-08 1.30946E-08-2.45309E-08
 -1      1536-8.69341E-08 2.17959E-08 2.55284E-08 4.67438E-08 3.98728E-09-6.14769E-08
 -1      1537-3.51438E-07 2.13753E-08 2.11474E-07 3.60080E-07 4.58432E-08-1.61667E-07
 -1      1538-4.16191E-07 5.22760E-09 2.18191E-07 3.88345E-07 9.06465E-08-1.19722E-07
 -1      1539-8.89104E-07-1.44669E-08 4.07782E-07 1.05876E-06 9.48803E-08-3.46282E-07
 -1      1540 1.59864E-07-5.50439E-08-5.73137E-08-7.43706E-08 5.67474E-09-1.04238E-08
 -1      1541 1.87195E-07-9.26586E-08-4.84526E-08 4.22961E-09-1.10050E-09-5.33362E-09
 -1      1542 1.87974E-07-8.56992E-08-5.00351E-08-6.19931E-08-9.42494E-09 5.62475E-09
 -1      1543-3.61745E-08-3.63716E-08 3.14255E-08 1.51547E-08 3.89882E-09-1.97703E-08
 -1      1544 1.11388E-07-4.59864E-08-3.36041E-08 6.81601E-08-5.09437E-10 1.96851E-09
 -1      1545 1.69416E-07-8.04817E-08-5.08501E-08 3.33426E-08-3.56992E-09 1.43889E-09
 -1      1546-1.71497E-07 3.08366E-08 8.06826E-08 1.69522E-08-6.11919E-09-7.69101E-11
 -1      1547 2.73370E-08-3.66210E-08 1.26046E-09 1.84107E-08-3.83697E-09 4.60333E-09
 -1      1548-1.58234E-07 4.28450E-08 6.39831E-08 2.06931E-08-4.76137E-09 3.11842E-09
 -1      1549 5.37525E-08 5.18622E-09-2.99654E-08 9.07234E-08-1.01961E-09 3.66030E-09
 -1      1550 9.89154E-08-2.74588E-08-4.07255E-08 7.83219E-08 2.86552E-10 1.60512E-09
 -1      1551-2.72955E-08-2.24605E-09 1.72950E-08 4.57557E-08-2.34725E-09 2.52074E-09
 -1      1552 1.51338E-08 3.85438E-08-2.97817E-08 8.16692E-08-3.63883E-09-2.41178E-10
 -1      1553-2.25658E-08 6.12191E-08-2.09643E-08 4.08184E-08 6.54511E-11-6.24312E-10
 -1      1554-5.59393E-09 5.04313E-08-2.53272E-08 6.00760E-08-3.09637E-10-8.55446E-11
 -1      1555-2.20536E-08 2.15531E-08 1.64760E-10 1.94652E-08 1.05039E-09 4.99535E-09
 -1      1556-4.99717E-08 3.23355E-09 2.50094E-08-3.97956E-08 1.14656E-09 1.73297E-09
 -1      1557-5.80214E-08-2.54381E-09 3.56092E-08-3.59781E-08 8.05249E-10 4.09271E-09
 -1      1558-3.02848E-08 6.46336E-08-1.94826E-08 2.28587E-08-3.15960E-10 4.13548E-11
 -1      1559-2.98106E-08 6.15315E-08-1.63887E-08 1.27561E-08 1.35457E-09 8.18587E-10
 -1      1560-3.03140E-08 2.59598E-08 1.49256E-09-3.71197E-09-1.45043E-09-1.03141E-09
 -1      1561-2.91435E-08 6.47348E-08-1.85135E-08-1.96783E-08-7.27094E-10 2.65375E-11
 -1      1562-2.21007E-08 6.71045E-08-2.44890E-08-3.79613E-08-1.56209E-09 3.98895E-10
 -1      1563-2.83986E-09 5.73564E-08-3.06955E-08-7.01316E-08 1.21891E-09 9.25195E-13
 -1      1564-2.14442E-08 6.69457E-08-2.45164E-08-4.75826E-08 8.92817E-10-6.67666E-10
 -1      1565-3.14110E-08 3.40630E-08-2.74909E-09-5.54842E-09 8.69441E-11 5.76716E-10
 -1      1566 5.50006E-08 1.45990E-08-3.71057E-08-1.04385E-07-2.35682E-09 6.78067E-09
 -1      1567 1.59851E-08 4.78513E-08-3.61101E-08-9.22467E-08-5.22710E-10 1.37292E-09
 -1      1568-4.90895E-08 1.30978E-08 1.78546E-08 2.73659E-08-3.69727E-09 4.56037E-09
 -1      1569-1.81667E-08 3.14902E-08-6.64698E-09-3.34365E-08-8.76459E-10 6.20023E-09
 -1      1570-6.01678E-08 8.99183E-09 3.02410E-08 1.70384E-08-3.09655E-09 4.41154E-09
 -1      1571 1.36189E-07-4.76509E-08-4.69516E-08-9.54420E-08 2.40951E-09 4.74583E-10
 -1      1572 8.86627E-08-1.11185E-08-4.20564E-08-1.09297E-07 4.10020E-09-1.79031E-09
 -1      1573-2.20356E-08 9.34083E-09 7.01236E-09-6.47538E-08 3.38416E-09-1.70796E-09
 -1      1574 1.88931E-07-8.59879E-08-5.96762E-08-6.37470E-08-1.05050E-09-4.82361E-09
 -1      1575 2.13728E-07-1.00629E-07-5.57845E-08 3.91203E-08 1.08103E-08 9.38720E-09
 -1      1576 2.21162E-07-1.06059E-07-5.84112E-08-2.28004E-08 3.24190E-09-2.55323E-09
 -1      1577 6.10607E-08-4.83611E-08-9.95036E-09-4.30961E-08 6.54957E-09 1.41946E-08
 -1      1578-1.16550E-07 6.91233E-09 6.45444E-08-3.93274E-08 1.14272E-08 1.26551E-08
 -1      1579-1.13684E-07 3.33525E-08 4.74352E-08-5.01958E-08 5.38191E-09 5.92783E-09
 -1      1580 9.96124E-08-3.92269E-08-4.25691E-08 4.62656E-08-8.78153E-09-1.57931E-08
 -1      1581 1.97400E-07-7.98772E-08-7.12915E-08 4.45790E-08-6.56546E-09-1.65659E-08
 -1      1582-7.27425E-09-6.62500E-08 4.34442E-08-5.19982E-08-3.94295E-09-2.53048E-08
 -1      1583 3.66084E-08-7.38819E-08 5.61453E-08-4.51357E-08 7.90574E-09-5.67931E-08
 -1      1584-3.05318E-07 1.75965E-08 1.91576E-07-3.88102E-07-1.50855E-08-8.70942E-08
 -1      1585-8.27155E-07-2.54104E-10 4.11331E-07-1.19393E-06-1.01750E-07-4.52825E-08
 -1      1586-3.32796E-07 7.64322E-09 2.34396E-07-3.59005E-07-5.32575E-08-8.35488E-08
 -1      1587 3.99382E-02-1.51388E-02-1.36295E-02-4.88491E-03 1.16261E-03 4.06455E-03
 -1      1588 4.36572E-02-1.16126E-02-1.32265E-02-4.61894E-03 1.58010E-03 1.00028E-02
 -1      1589 4.60289E-02-1.43055E-02-2.10630E-02 8.87770E-04-3.53910E-04-1.01143E-03
 -1      1590 1.77249E-02-1.19420E-02-2.81847E-03-3.13083E-03 1.25802E-03 1.57964E-03
 -1      1591 2.52090E-02-1.35447E-02-4.48322E-03-6.91343E-03 2.23440E-03 3.77867E-03
 -1      1592 3.55330E-02-1.23527E-02-1.56085E-02-3.46105E-03-9.08929E-04-1.16693E-03
 -1      1593 3.32592E-02-1.35711E-02-8.68428E-03-6.50254E-03 1.39612E-03 4.37898E-03
 -1      1594 2.29194E-02-6.30534E-03-1.09982E-02-8.30017E-03-7.86675E-04-1.30495E-04
 -1      1595 2.52935E-02-1.11418E-02-5.85790E-03-7.36154E-03 1.92888E-03 2.71602E-03
 -1      1596 1.39664E-02-3.25690E-03-7.18211E-03-8.71214E-03-5.54464E-04-2.45479E-04
 -1      1597 9.24386E-03-7.51584E-03-7.61410E-04 1.67704E-03 4.55983E-04 3.00037E-04
 -1      1598 1.43592E-02-1.07747E-02-1.10515E-03-3.24110E-04 1.09193E-03 1.09742E-03
 -1      1599 1.03199E-02-5.87925E-03-3.00432E-03-4.40398E-03 4.00545E-04-3.18133E-05
 -1      1600 6.40320E-03-4.79568E-03-7.39016E-04 2.26287E-03 2.74719E-04 2.69200E-04
 -1      1601 2.40556E-03-1.51562E-03-3.57348E-04 3.10424E-03 2.55018E-04 7.26377E-05
 -1      1602 3.92005E-03-3.28675E-03-2.53228E-04 3.58978E-03 2.47935E-04 3.03725E-05
 -1      1603 6.23688E-03-4.79654E-03-8.84024E-04 5.21643E-04 1.66966E-04 1.63957E-04
 -1      1604 2.61540E-04 3.63038E-04-2.74403E-04 2.31687E-03 1.35710E-04-9.02574E-06
 -1      1605 8.92276E-04-3.80551E-04-1.96340E-04 3.06009E-03 1.45983E-04-4.46874E-05
 -1      1606 2.86284E-03-2.04952E-03-5.11242E-04 2.22162E-03 9.02470E-05 3.84473E-05
 -1      1607-6.17743E-04 1.02256E-03-1.63000E-04 1.35033E-03 1.06419E-04-3.78360E-05
 -1      1608-4.65267E-04 8.31424E-04-1.38998E-04 1.99563E-03 8.91899E-05-4.38010E-05
 -1      1609 8.28886E-04-2.44357E-04-3.80501E-04 2.07720E-03 5.12013E-05 2.32609E-05
 -1      1610-7.40002E-04 1.02587E-03-1.14128E-04 5.02508E-04 7.11937E-05-5.03788E-05
 -1      1611-8.90559E-04 1.13825E-03-9.58465E-05 9.20288E-04 6.21612E-05-5.08676E-05
 -1      1612-1.68558E-04 5.83858E-04-2.46459E-04 1.40803E-03 4.67776E-05-8.48931E-06
 -1      1613-4.96754E-04 7.00590E-04-8.47176E-05 1.77791E-05 2.78094E-05-4.10199E-05
 -1      1614-7.27078E-04 9.11679E-04-7.19410E-05 1.84468E-04 2.56828E-05-4.49291E-05
 -1      1615-5.02484E-04 7.85969E-04-1.71843E-04 6.68813E-04 2.47128E-05-1.58726E-05
 -1      1616-2.37553E-04 3.85160E-04-5.87204E-05-1.12646E-04 1.20927E-05-3.01545E-05
 -1      1617-4.16163E-04 5.52215E-04-5.26593E-05-1.14705E-04 1.19736E-05-3.11607E-05
 -1      1618-4.40154E-04 6.42833E-04-1.26173E-04 1.98734E-04 1.55487E-05-7.98311E-06
 -1      1619-7.03355E-05 1.66092E-04-4.07417E-05-5.69311E-07 4.97395E-06-2.57358E-05
 -1      1620-1.04956E-04 2.32932E-04-5.66537E-05-1.01995E-04 8.30188E-06-3.00772E-05
 -1      1621-2.92160E-04 4.66588E-04-1.02978E-04 2.58467E-05 1.22539E-05-1.08731E-05
 -1      1622-1.73857E-04 2.81309E-04-4.50925E-05-1.16527E-04 2.35923E-06-2.70008E-05
 -1      1623-1.93611E-04 3.43849E-04-8.64823E-05-1.31494E-06-6.24296E-06-1.58866E-05
 -1      1624-1.68516E-04 2.71869E-04-4.27974E-05 1.41392E-04-4.16815E-06-2.78240E-05
 -1      1625-7.35804E-05 2.03424E-04-5.36488E-05 4.53229E-05-6.44468E-06-3.30326E-05
 -1      1626-1.84859E-04 3.23548E-04-8.47118E-05 2.11614E-05-9.26691E-06-1.07706E-05
 -1      1627-4.39166E-04 5.70607E-04-5.20346E-05 1.18414E-04-1.28618E-05-3.22367E-05
 -1      1628-2.45760E-04 3.95821E-04-5.86502E-05 1.21832E-04-1.82777E-05-3.31459E-05
 -1      1629-2.99934E-04 4.60509E-04-9.67705E-05-5.93686E-06-1.30334E-05-1.05944E-05
 -1      1630-7.34018E-04 9.14985E-04-7.24008E-05-1.83066E-04-2.44826E-05-3.92505E-05
 -1      1631-5.01739E-04 7.08402E-04-8.57360E-05-1.78721E-05-3.02055E-05-3.27344E-05
 -1      1632-4.47291E-04 6.55339E-04-1.33011E-04-2.09282E-04-1.82112E-05-5.02545E-06
 -1      1633-8.82785E-04 1.14028E-03-1.01853E-04-9.22756E-04-5.11082E-05-4.46286E-05
 -1      1634-7.50736E-04 1.02998E-03-1.07420E-04-5.06200E-04-5.99951E-05-3.82295E-05
 -1      1635-4.89858E-04 7.80806E-04-1.79392E-04-6.67940E-04-2.49174E-05-6.72046E-06
 -1      1636-4.57430E-04 8.34490E-04-1.47414E-04-1.99902E-03-9.52390E-05-4.83352E-05
 -1      1637-6.08017E-04 1.02422E-03-1.65918E-04-1.34954E-03-9.49656E-05-2.88203E-05
 -1      1638-1.62125E-04 5.83754E-04-2.63221E-04-1.39471E-03-3.86295E-05 2.81898E-06
 -1      1639 8.87418E-04-3.83970E-04-1.91194E-04-3.05793E-03-1.39639E-04-3.76898E-05
 -1      1640 2.21286E-04 3.55415E-04-2.13546E-04-2.34245E-03-1.60540E-04-7.89284E-06
 -1      1641 8.41273E-04-2.43046E-04-3.74857E-04-2.04902E-03-6.34507E-05 2.63772E-06
 -1      1642 3.93233E-03-3.24738E-03-2.86127E-04-3.55416E-03-2.43406E-04 6.41990E-06
 -1      1643 2.38937E-03-1.51622E-03-3.03598E-04-3.10361E-03-2.53865E-04 6.69689E-05
 -1      1644 2.82802E-03-1.98183E-03-5.26970E-04-2.19831E-03-1.12371E-04 4.44783E-05
 -1      1645 9.20694E-03-7.45151E-03-8.28039E-04-1.66901E-03-5.19588E-04 2.55248E-04
 -1      1646 6.38320E-03-4.88485E-03-5.82577E-04-2.35063E-03-2.58550E-04 2.75049E-04
 -1      1647 6.21169E-03-4.64140E-03-9.47992E-04-4.58038E-04-1.96122E-04 1.81361E-04
 -1      1648 1.45990E-02-1.08203E-02-1.43875E-03 3.58193E-04-1.27030E-03 1.01291E-03
 -1      1649 2.53599E-02-1.35253E-02-4.82631E-03 6.76267E-03-2.15385E-03 3.48413E-03
 -1      1650 1.77526E-02-1.20353E-02-3.09198E-03 3.06101E-03-1.18386E-03 1.46396E-03
 -1      1651 1.02471E-02-5.60956E-03-3.16750E-03 4.34105E-03-2.27059E-04-7.41262E-05
 -1      1652 4.34584E-02-1.16975E-02-1.40676E-02 4.70778E-03-1.54263E-03 9.97815E-03
 -1      1653 3.97018E-02-1.52577E-02-1.37342E-02 4.78275E-03-1.38311E-03 4.79199E-03
 -1      1654 1.39696E-02-3.25054E-03-7.32691E-03 8.91770E-03 6.44955E-04-4.02028E-04
 -1      1655 2.51987E-02-1.10883E-02-5.78791E-03 7.46536E-03-1.93223E-03 2.57709E-03
 -1      1656 2.32147E-02-6.59550E-03-1.12916E-02 8.40876E-03 7.95942E-04-6.40623E-04
 -1      1657 3.36381E-02-1.37764E-02-9.53315E-03 6.23355E-03-1.29289E-03 4.03647E-03
 -1      1658 3.65091E-02-1.24722E-02-1.55011E-02 2.72588E-03 7.25005E-04-6.59064E-04
 -1      1659 4.66505E-02-1.43496E-02-2.20080E-02-6.49795E-04 4.39050E-04-1.53877E-03
 -1      1660-1.14014E-07 2.51088E-08 5.11404E-08-3.92888E-08-1.04157E-09 4.68615E-09
 -1      1661-1.28282E-07 2.27681E-08 6.09606E-08-3.49647E-08-5.06454E-09 1.46891E-09
 -1      1662-1.90984E-08-1.61303E-08 2.16820E-08-2.65218E-08-1.88918E-09-3.45064E-10
 -1      1663-1.66947E-08-8.21879E-09 1.73022E-08 1.65546E-08 1.91450E-10-5.83606E-10
 -1      1664-1.04976E-07 3.36497E-08 3.86070E-08 2.49049E-08-3.23625E-10 7.50844E-09
 -1      1665-9.16564E-08 1.94581E-08 4.78543E-08-4.73941E-09 1.37176E-09-2.69540E-09
 -1      1666-2.01273E-07 1.66508E-08 1.22747E-07-1.35889E-07 2.29641E-08-5.43909E-09
 -1      1667-2.54349E-07-3.46346E-08 1.69338E-07-1.98736E-07-2.21761E-08-2.34831E-08
 -1      1668-9.34435E-07-3.39573E-07 6.67346E-07-8.65104E-08 1.27172E-07-3.17427E-07
 -1      1669 3.50724E-06-8.20037E-06 2.71315E-06 4.02453E-06 4.08324E-07 3.62497E-08
 -1      1670 1.53008E-06-3.75763E-06 1.31965E-06 4.35724E-06 1.24621E-07 3.13252E-07
 -1      1671 1.64961E-06-3.74397E-06 1.31524E-06-4.34584E-06-1.88494E-07-6.97527E-08
 -1      1672 3.51075E-06-8.32525E-06 2.76905E-06-4.08892E-06-8.52177E-08-1.16599E-08
 -1      1673 6.00714E-06-1.13356E-05 2.70508E-06-6.36444E-06-3.17895E-07-7.68651E-07
 -1      1674 5.78577E-06-1.18948E-05 3.41310E-06-6.33745E-07-1.48569E-07-1.92376E-07
 -1      1675 6.59090E-06-1.17972E-05 2.78790E-06 5.10492E-06 1.55571E-07-4.14203E-07
 -1      1676-1.02675E-06-3.63791E-07 7.31498E-07 2.12388E-07-3.48553E-09 8.64075E-08
 -1      1677-2.75074E-07 2.85359E-08 1.41345E-07 1.62829E-07 6.58307E-09-1.25271E-08
 -1      1678-2.15857E-07 3.58241E-08 1.10404E-07 1.03862E-07-9.93220E-09-8.40374E-09
 -1      1679-3.80241E-03 4.00582E-03 3.14895E-04-1.36750E-02 6.11251E-04 4.58601E-04
 -1      1680-5.87649E-03 7.33129E-03-1.39352E-04-9.53909E-03-2.48205E-04 6.75898E-04
 -1      1681-3.22209E-03 5.86725E-03-1.22331E-03-6.84853E-03 1.10004E-04 5.59379E-04
 -1      1682 6.14654E-02-1.99683E-02-2.20863E-02-1.11055E-02-1.35730E-03 5.46626E-05
 -1      1683 7.71705E-02-3.19087E-02-2.66067E-02 3.46045E-03 1.17505E-03 2.33998E-03
 -1      1684 7.61027E-02-2.89118E-02-2.80771E-02-2.60396E-03-6.66165E-04 2.74334E-03
 -1      1685 7.06444E-02-3.16944E-02-2.32541E-02-8.92961E-03 5.31622E-04 2.69425E-03
 -1      1686 6.65896E-02-2.63710E-02-2.33844E-02-1.28632E-02-4.53753E-04 2.70564E-03
 -1      1687 5.26782E-02-1.87329E-02-1.84876E-02-1.47034E-02-1.06864E-04-2.62813E-05
 -1      1688 6.22045E-02-2.02859E-02-2.31401E-02 1.03261E-02 1.79925E-03-7.03625E-04
 -1      1689 6.92525E-02-3.20847E-02-2.19310E-02 8.58151E-03 5.30579E-04 1.88019E-03
 -1      1690 6.64956E-02-2.67003E-02-2.25167E-02 1.29818E-02-1.04178E-04 1.08564E-03
 -1      1691 5.37907E-02-2.02334E-02-1.82185E-02 1.35374E-02-2.22598E-04 1.03141E-03
 -1      1692-2.77831E-03 3.80555E-03-2.21327E-04 1.45008E-02-5.78319E-04-3.88089E-05
 -1      1693-5.32360E-03 6.90478E-03-4.36669E-04 9.79634E-03 4.91616E-04 6.00879E-04
 -1      1694-3.38531E-03 5.84998E-03-1.27928E-03 6.64886E-03-5.48828E-05 4.95897E-04
 -1      1695 4.87920E-02-1.52225E-02-1.88443E-02 6.89787E-04-5.89248E-06-6.03395E-05
 -1      1696 4.84159E-02-1.50410E-02-1.87571E-02 1.35704E-04-8.58376E-06-8.04675E-05
 -1      1697 4.91147E-02-1.54839E-02-1.88731E-02 4.34720E-04-9.57411E-06-6.85036E-05
 -1      1698 4.96053E-02-1.58643E-02-1.89727E-02 4.93538E-04 1.15959E-06-1.87838E-05
 -1      1699 4.91308E-02-1.55263E-02-1.88938E-02-2.82746E-05 2.65240E-05-3.71844E-05
 -1      1700 4.85238E-02-1.49877E-02-1.88426E-02-3.37979E-04-2.29422E-05-1.05966E-04
 -1      1701 4.83219E-02-1.51824E-02-1.86932E-02-5.04501E-05 2.22328E-05-2.55993E-04
 -1      1702 4.81973E-02-1.49298E-02-1.86529E-02-2.18052E-04-1.48724E-05-2.88424E-04
 -1      1703 4.90311E-02-1.53628E-02-1.89307E-02-4.44939E-04 4.89872E-06-3.45287E-05
 -1      1704 4.81126E-02-1.49963E-02-1.86235E-02 3.24477E-05 3.87578E-05-2.22312E-04
 -1      1705 1.05351E-04-5.74037E-05-2.27050E-05-3.35161E-05 2.40662E-06-4.79053E-06
 -1      1706 8.45723E-05-6.18315E-05-1.41582E-05-3.53883E-05 1.21035E-06 1.52232E-06
 -1      1707 5.49205E-05-5.03699E-05-1.90702E-06-2.93481E-05 1.03573E-06 2.29288E-07
 -1      1708 9.69750E-05-6.20320E-05-2.10415E-05 6.10749E-07 3.16831E-06 1.94288E-06
 -1      1709 9.11843E-05-4.63929E-05-2.09243E-05 3.19872E-05-3.18460E-06 1.64442E-06
 -1      1710 1.18490E-04 3.80754E-06-7.16519E-05-6.38454E-07 2.97074E-06 1.94688E-06
 -1      1711 1.11855E-04-7.53824E-06-6.07909E-05 2.43049E-05 1.01997E-06 2.68067E-06
 -1      1712 7.59397E-05-6.11796E-05-7.76158E-06 3.64023E-05-1.53850E-06-3.95892E-07
 -1      1713 1.01105E-04 4.84722E-06-5.78243E-05-2.84202E-05-1.10892E-06-6.97910E-06
 -1      1714 1.44303E-05-1.95899E-05 2.72346E-06-1.18261E-05-1.00762E-06-5.82472E-07
 -1      1715 2.00294E-05-2.30340E-05 1.62006E-06-6.58135E-06 1.23808E-07-1.18639E-07
 -1      1716 1.88039E-05-2.21116E-05 2.41738E-06 7.27021E-06 1.98419E-07 2.98484E-08
 -1      1717 2.85219E-05-3.28662E-05 2.21531E-06 2.57145E-06-6.88029E-07 1.87049E-07
 -1      1718 1.19561E-05-1.71958E-05 2.90394E-06 1.31840E-05 7.91483E-07 1.67782E-07
 -1      1719 5.18961E-02-1.83563E-02-1.88689E-02-2.29879E-03-5.64470E-06 2.69319E-06
 -1      1720 5.15281E-02-1.76916E-02-1.90475E-02-2.74713E-03-4.65495E-05-2.65163E-05
 -1      1721 5.24671E-02-1.88805E-02-1.88441E-02-2.20335E-03-1.08294E-05 2.27565E-06
 -1      1722 5.22341E-02-1.85755E-02-1.89365E-02-1.83642E-03 2.30451E-05 2.60501E-05
 -1      1723 5.27865E-02-1.93161E-02-1.88349E-02-2.24598E-03 7.10764E-06 1.03594E-05
 -1      1724 8.49970E-03-2.19841E-03-3.54475E-03 7.84735E-03 1.78853E-04 1.15385E-04
 -1      1725 9.46476E-03-9.15747E-04-5.09950E-03 9.73122E-03 5.71577E-04-3.44349E-04
 -1      1726 9.58712E-03-4.37547E-03-2.95759E-03 6.76203E-03 4.94810E-05 2.92244E-04
 -1      1727 7.74313E-03-4.31388E-03-1.88620E-03 3.96841E-03-8.02640E-05 6.10491E-05
 -1      1728 4.38287E-02-1.08470E-02-1.84919E-02-3.15583E-03 2.60695E-04-1.91708E-04
 -1      1729 4.58919E-02-1.17669E-02-1.90488E-02-5.55299E-03 1.44354E-04-3.46558E-04
 -1      1730 4.63630E-02-1.29629E-02-1.87511E-02-4.14217E-03 1.51003E-04-2.32622E-04
 -1      1731 4.54598E-02-1.10827E-02-1.93043E-02-6.92484E-03 6.27508E-04-9.27075E-04
 -1      1732 4.16017E-02-8.76379E-03-1.86758E-02-4.95409E-03 9.53139E-04 4.27855E-04
 -1      1733 4.20995E-02-9.84137E-03-1.82344E-02-2.42673E-03 4.01824E-04 8.64992E-05
 -1      1734 4.16666E-02-8.89626E-03-1.86016E-02-3.11658E-03 8.86795E-04 7.27008E-04
 -1      1735 4.27944E-02-1.04348E-02-1.82997E-02-1.45418E-03 1.19900E-04-1.80953E-04
 -1      1736 4.38920E-02-1.15522E-02-1.81889E-02-8.36746E-04 1.13861E-04-9.78428E-05
 -1      1737 4.23824E-02-1.08672E-02-1.78975E-02 6.72644E-05 2.78347E-04-2.57519E-05
 -1      1738 5.51602E-02-2.25055E-02-1.84926E-02-1.23444E-02-2.68414E-04 1.88325E-04
 -1      1739 5.67757E-02-2.33652E-02-1.90266E-02-9.47654E-03-2.73389E-04 1.46556E-04
 -1      1740 1.73703E-05-2.45823E-05 4.19841E-06-2.51299E-05-7.47279E-07 1.15257E-06
 -1      1741 5.12525E-02-1.74600E-02-1.89957E-02-7.97367E-04 2.33673E-05-1.17892E-05
 -1      1742 5.09857E-02-1.72229E-02-1.89981E-02-1.59447E-03-3.19214E-06 1.04143E-05
 -1      1743 5.19397E-02-1.81767E-02-1.89805E-02-1.23975E-03 7.46265E-07 2.41067E-06
 -1      1744 5.25345E-02-1.88629E-02-1.89422E-02-1.11187E-03 8.43018E-06-5.84825E-06
 -1      1745 5.02759E-02-1.64826E-02-1.90011E-02-1.81578E-03 5.53679E-06-3.15592E-05
 -1      1746 5.10140E-02-1.72400E-02-1.89570E-02-2.28349E-03 1.66503E-05-3.18674E-05
 -1      1747 5.07702E-02-1.69660E-02-1.90292E-02-3.12796E-03-8.12280E-07-8.07966E-05
 -1      1748 4.53846E-05 2.66232E-04-1.74032E-04 3.73660E-04 2.94025E-05 5.36424E-05
 -1      1749-2.91201E-04 8.76854E-04-2.92795E-04 5.26240E-04 1.61451E-05 1.14518E-05
 -1      1750-1.47453E-04 4.54292E-04-1.73690E-04 1.14663E-04 8.53093E-06-1.55416E-06
 -1      1751 8.34218E-05 1.06141E-04-9.15493E-05 4.28105E-05 2.95631E-07 2.87821E-06
 -1      1752-1.66433E-04 4.99380E-04-1.92498E-04 1.78813E-06 9.40982E-07-3.69928E-06
 -1      1753-3.92980E-04 9.28408E-04-3.24144E-04-9.12205E-04-4.62052E-05 1.12924E-06
 -1      1754-2.48022E-04 7.66609E-04-2.53895E-04-4.41508E-04-2.86264E-05 7.14472E-06
 -1      1755-9.19954E-04 1.46278E-03-3.59924E-04-6.20762E-04-2.47627E-05 1.92371E-05
 -1      1756 1.04617E-04 1.62695E-04-1.63602E-04-3.30155E-04-4.59542E-05 2.57509E-07
 -1      1757-1.51366E-04 5.00804E-04-1.95909E-04-1.44340E-04-2.47336E-05 3.27060E-05
 -1      1758-1.09190E-03 1.67537E-03-3.64931E-04 7.50084E-04-1.50678E-05 1.20922E-04
 -1      1759-1.19011E-03 1.91386E-03-3.80333E-04 1.48374E-04 4.94801E-05 2.66721E-06
 -1      1760 1.10375E-04 9.02610E-05-9.80895E-05-3.26959E-05-1.43314E-05-3.60674E-06
 -1      1761-1.67784E-03 2.50832E-03-4.82934E-04-5.41334E-04-1.91047E-05 2.51004E-05
 -1      1762 5.34657E-02-2.01345E-02-1.87967E-02-3.23188E-03 1.46683E-05 3.10703E-05
 -1      1763 5.35460E-02-1.99449E-02-1.88839E-02-2.53046E-03 6.81656E-06-1.28513E-06
 -1      1764 5.36292E-02-1.99812E-02-1.89327E-02-1.94326E-03-1.16317E-05-1.90197E-05
 -1      1765 4.02249E-02-1.31351E-02-1.51279E-02-3.69498E-03-1.98821E-04 5.32005E-05
 -1      1766 3.92531E-02-1.30156E-02-1.47054E-02-2.12454E-03-1.25907E-04 1.04128E-04
 -1      1767 3.82647E-02-1.36503E-02-1.38292E-02-5.67691E-03-1.56923E-04-7.89658E-05
 -1      1768 3.28256E-02-1.16547E-02-1.18059E-02-1.00733E-02 4.16388E-04-1.47429E-05
 -1      1769 3.23902E-02-1.08793E-02-1.21607E-02-7.25413E-03-3.45016E-04-1.68102E-05
 -1      1770 4.13108E-02-1.28760E-02-1.59361E-02 3.01401E-04 3.75342E-05 1.02727E-04
 -1      1771 3.99787E-02-1.34595E-02-1.49350E-02-5.17604E-04-2.85913E-04-7.58047E-05
 -1      1772 2.91415E-02-9.65556E-03-1.09836E-02-8.05500E-03-1.40592E-03-5.92958E-04
 -1      1773 3.33872E-02-1.20360E-02-1.19854E-02-4.80286E-03-6.54682E-04-5.40075E-04
 -1      1774 4.07977E-02-1.37985E-02-1.53043E-02 8.22073E-04-2.30521E-04-4.18841E-04
 -1      1775 3.87386E-02-1.38057E-02-1.40879E-02-1.65938E-03-3.89628E-04-4.63275E-04
 -1      1776 3.51042E-02-1.25624E-02-1.30295E-02-2.86964E-03-5.82976E-04-1.03861E-03
 -1      1777 5.09263E-05-4.75151E-05-2.24919E-06-5.39411E-06-1.84399E-06-1.90663E-08
 -1      1778 3.29689E-05-3.78692E-05 3.40189E-06-3.38388E-05 5.22605E-07-8.24906E-07
 -1      1779 4.85088E-05-4.59715E-05-2.68875E-06 9.46229E-06-6.58211E-07 1.25738E-06
 -1      1780 6.83403E-05 4.34024E-05-4.95493E-05 3.74363E-05 9.62733E-06 1.29409E-06
 -1      1781 5.92500E-05 3.18687E-05-4.62976E-05 2.73346E-06 4.64449E-06-5.03265E-06
 -1      1782 5.75272E-02-2.38064E-02-1.91257E-02 9.72203E-03 6.28399E-06 2.48805E-04
 -1      1783 5.56076E-02-2.24396E-02-1.85986E-02 1.25946E-02 5.09360E-04 1.29126E-04
 -1      1784-2.57487E-04 5.98527E-04-1.91363E-04 5.07730E-04 3.65083E-06-8.15702E-06
 -1      1785-2.64378E-04 6.26313E-04-2.11142E-04 6.09528E-04-9.17028E-07-8.73032E-06
 -1      1786-3.31859E-04 6.33148E-04-1.62331E-04 3.94011E-04 5.39883E-06-6.41679E-06
 -1      1787 5.15363E-02-1.77629E-02-1.89846E-02 2.44081E-04 1.48720E-05 2.59118E-06
 -1      1788 5.05716E-02-1.67928E-02-1.89885E-02-1.29803E-04 1.18658E-05-1.98075E-05
 -1      1789 5.24865E-02-1.87451E-02-1.89903E-02 4.00662E-04-5.54695E-06-7.35191E-06
 -1      1790 5.18438E-02-1.80493E-02-1.89983E-02 1.08140E-03 6.67276E-06-3.33815E-06
 -1      1791 5.31304E-02-1.93613E-02-1.89865E-02-2.10361E-04 1.23916E-05-2.14755E-05
 -1      1792 5.34538E-02-1.96813E-02-1.89863E-02 6.48330E-04-7.13713E-06-3.96009E-06
 -1      1793 5.35554E-02-1.97729E-02-1.89735E-02-9.39838E-04 9.34828E-06-1.60411E-05
 -1      1794-1.94849E-04 3.81786E-04-1.05289E-04 9.81314E-07-2.74899E-07-4.01869E-06
 -1      1795-1.97201E-04 3.81275E-04-1.02882E-04 1.35106E-05-7.28785E-07-3.44204E-06
 -1      1796-1.92802E-04 3.74008E-04-1.00652E-04-1.31848E-05 2.06262E-06-4.86280E-06
 -1      1797 4.81913E-02-1.43213E-02-1.90248E-02-4.20312E-03 1.23923E-04-1.98779E-04
 -1      1798 4.66116E-02-1.29641E-02-1.87344E-02-2.65221E-03 1.14603E-04-1.82249E-04
 -1      1799 4.96894E-02-1.61316E-02-1.89233E-02-3.25693E-03 7.17729E-05-4.26614E-05
 -1      1800 2.67625E-02-6.07469E-03-1.26618E-02 1.70373E-02 1.37380E-03 1.54722E-03
 -1      1801 4.04619E-02-1.01668E-02-1.72824E-02-2.47581E-03 6.49017E-04 5.69532E-04
 -1      1802 4.08182E-02-1.06652E-02-1.70214E-02-4.99907E-03 3.33520E-04 1.15717E-03
 -1      1803 3.89574E-02-1.26478E-02-1.54180E-02-1.27510E-02-1.94985E-03 1.37232E-03
 -1      1804 4.11365E-02-1.13637E-02-1.66420E-02-1.11068E-03 2.97546E-04 2.95477E-04
 -1      1805 3.97204E-02-1.31061E-02-1.48716E-02 3.84058E-03 1.69899E-04 5.75868E-04
 -1      1806 3.81923E-02-1.34708E-02-1.38917E-02 5.72583E-03 3.64434E-04 2.04078E-04
 -1      1807 3.94747E-02-1.32252E-02-1.47507E-02 1.96202E-03 1.22478E-04 1.62913E-05
 -1      1808 3.26515E-02-1.05384E-02-1.24435E-02 1.02661E-02 6.21375E-04 1.66558E-04
 -1      1809 3.30252E-02-1.13177E-02-1.21532E-02 7.62096E-03 4.37442E-04 1.42022E-05
 -1      1810 4.05844E-02-1.38295E-02-1.51185E-02-8.12650E-04 3.73488E-04-4.69291E-04
 -1      1811 4.00591E-02-1.36426E-02-1.48256E-02 7.51339E-04 2.44148E-04-3.07924E-04
 -1      1812 3.88148E-02-1.40064E-02-1.40172E-02 1.85128E-03 4.00658E-04-2.87932E-04
 -1      1813 4.12854E-02-1.30104E-02-1.58355E-02-5.44770E-04 1.13843E-05-2.47255E-04
 -1      1814 3.46885E-02-1.27432E-02-1.27795E-02 2.93880E-03 4.65223E-04-1.07442E-03
 -1      1815 3.27790E-02-1.19157E-02-1.17486E-02 4.81331E-03 1.29186E-04-4.96837E-04
 -1      1816 2.85068E-02-9.86489E-03-1.06100E-02 8.38305E-03 1.33741E-03-6.51628E-04
 -1      1817 2.22602E-03-1.12096E-03-6.18528E-04 1.51331E-03 4.48751E-05-6.21442E-06
 -1      1818 2.54837E-03-1.49211E-03-6.03472E-04 1.58801E-03 6.09175E-05-7.06876E-06
 -1      1819 4.33700E-03-2.68651E-03-9.06807E-04 3.02376E-04 7.35703E-05 1.95290E-05
 -1      1820 3.85356E-03-2.43801E-03-7.66468E-04 1.11555E-03 6.06015E-05 6.35503E-05
 -1      1821 2.47531E-02-5.40029E-03-1.06096E-02-1.49019E-02-2.80196E-04-6.91158E-04
 -1      1822 2.79517E-02-7.10171E-03-1.16541E-02-1.37294E-02-4.37673E-04-1.16367E-04
 -1      1823-3.76809E-03 4.83880E-03-4.41819E-04 2.61909E-04-5.34037E-05 1.01163E-04
 -1      1824-4.39607E-03 5.42349E-03-5.91901E-04-1.55884E-03 2.58496E-05 1.30782E-04
 -1      1825-2.73925E-03 3.65778E-03-5.82665E-04-1.10626E-03-1.00970E-05 5.25289E-05
 -1      1826-4.68354E-03 6.00778E-03-5.22697E-04-3.47985E-03 2.59390E-07 2.39116E-04
 -1      1827-1.30184E-03 2.39772E-03-6.50652E-04-2.93008E-03-9.11247E-05 5.07500E-05
 -1      1828-1.77738E-03 3.81551E-03-1.08261E-03-5.48551E-03-7.84955E-05 8.96697E-05
 -1      1829-3.13293E-04 1.52180E-03-6.10540E-04-2.13678E-03-4.48783E-05-3.65503E-05
 -1      1830-1.92065E-03 3.05429E-03-6.05857E-04-1.99830E-03-5.11212E-05 5.90950E-05
 -1      1831 4.50858E-02-1.52343E-02-1.69267E-02-2.12618E-03 3.40792E-04-1.03673E-03
 -1      1832 4.33814E-02-1.51973E-02-1.65402E-02-9.91165E-04 5.59162E-04-1.68228E-03
 -1      1833 4.49732E-02-1.53492E-02-1.73617E-02-1.42264E-03 4.42706E-04-1.66270E-03
 -1      1834 4.13552E-02-1.43955E-02-1.57123E-02-8.05130E-04 9.20988E-04-5.72826E-04
 -1      1835 4.70417E-02-1.62706E-02-1.82765E-02-1.09182E-03 2.27161E-06-1.74529E-03
 -1      1836 6.93205E-02-3.22431E-02-2.16961E-02-5.33001E-04 4.64408E-04 1.74412E-03
 -1      1837 6.46688E-02-2.76838E-02-2.04583E-02-5.25336E-03-4.71526E-04 6.55309E-04
 -1      1838 6.46917E-02-2.77158E-02-2.08345E-02 5.65022E-03 2.54061E-04 4.63503E-04
 -1      1839 4.04401E-02-1.48517E-02-1.49072E-02 5.64035E-04-9.64459E-04-8.63743E-04
 -1      1840 4.33492E-02-1.53659E-02-1.58429E-02 1.21784E-03-5.69022E-05-1.14983E-03
 -1      1841 4.53904E-02-1.54539E-02-1.70222E-02 1.86449E-03-3.25217E-04-1.13493E-03
 -1      1842 4.54866E-02-1.52731E-02-1.73729E-02 1.35829E-03-2.93216E-04-1.57193E-03
 -1      1843 4.73500E-02-1.64850E-02-1.81438E-02 9.46119E-04-2.65275E-04-1.78218E-03
 -1      1844 4.38763E-02-1.07957E-02-1.85052E-02 2.93793E-03-2.87792E-04-2.74279E-04
 -1      1845 4.62929E-02-1.24706E-02-1.89588E-02 3.98934E-03-2.65690E-04-3.16680E-04
 -1      1846 4.59558E-02-1.16024E-02-1.92635E-02 5.30900E-03-1.53152E-04-4.43351E-04
 -1      1847 4.64648E-02-1.29422E-02-1.88173E-02 2.21627E-03-1.94099E-04-1.72372E-04
 -1      1848 4.77369E-02-1.39437E-02-1.90106E-02 3.98175E-03-1.38335E-04-2.63560E-04
 -1      1849 4.28787E-02-1.04033E-02-1.82790E-02 1.49764E-03-3.73994E-04-1.82806E-04
 -1      1850 4.39599E-02-1.16624E-02-1.80888E-02 6.24237E-04-1.67280E-04-1.09594E-04
 -1      1851 4.56340E-02-1.26372E-02-1.85314E-02 6.47142E-04-1.17602E-04-1.74483E-04
 -1      1852 4.67166E-02-1.35618E-02-1.87026E-02 8.76362E-04-8.21024E-05-1.12906E-04
 -1      1853 4.45193E-02-1.26283E-02-1.80030E-02-7.61646E-04-8.38786E-05 4.02106E-06
 -1      1854-2.29437E-04 4.43266E-04-1.20449E-04 7.20230E-05-2.54100E-07-6.18808E-06
 -1      1855-2.29215E-04 4.81647E-04-1.43367E-04 1.43022E-04 2.11337E-07-2.55420E-06
 -1      1856-2.48546E-04 4.54311E-04-1.16063E-04 7.23089E-05 7.14274E-07-6.95441E-06
 -1      1857-2.12213E-04 4.86353E-04-1.55658E-04 1.90606E-04 1.68195E-06-7.50184E-07
 -1      1858-2.74136E-04 5.25952E-04-1.42210E-04 1.96549E-04 2.16539E-06-5.03934E-06
 -1      1859-2.92800E-04 5.13878E-04-1.22703E-04 1.16210E-04 4.44365E-06-9.36034E-06
 -1      1860-2.19979E-04 5.03662E-04-1.58700E-04 2.24154E-04 3.05623E-06-2.20453E-06
 -1      1861-2.21544E-04 4.11358E-04-1.05091E-04 2.73041E-05 2.78551E-06-5.41533E-06
 -1      1862 4.13522E-02-1.44142E-02-1.52486E-02 1.12524E-03-4.21872E-04-7.37423E-04
 -1      1863 3.81744E-02-1.38393E-02-1.40593E-02-7.63895E-04-7.50823E-04-8.13219E-04
 -1      1864 4.26454E-02-1.40841E-02-1.61997E-02 1.71328E-03-2.27260E-04-4.16299E-04
 -1      1865 4.29710E-02-1.32255E-02-1.67455E-02 1.78871E-03-5.66518E-05-8.73872E-05
 -1      1866 4.38970E-02-1.44110E-02-1.66676E-02 2.35650E-03-2.62960E-04-3.91875E-04
 -1      1867 4.56871E-02-1.49279E-02-1.73739E-02 1.88894E-03-2.18330E-04-6.07345E-04
 -1      1868-2.25835E-04 4.26284E-04-1.13116E-04-5.84332E-05-1.89029E-06-4.89284E-06
 -1      1869-2.52199E-04 4.40929E-04-1.05894E-04-5.33195E-05 3.36825E-06-5.19324E-06
 -1      1870-2.31784E-04 4.81921E-04-1.41684E-04-1.39152E-04 1.01822E-06-1.60347E-06
 -1      1871-2.13343E-04 4.87856E-04-1.56736E-04-1.87410E-04 1.91352E-06 8.40056E-07
 -1      1872-2.80782E-04 5.31886E-04-1.41449E-04-2.00885E-04-2.24383E-06-4.72502E-06
 -1      1873-2.21459E-04 5.04365E-04-1.57536E-04-2.21762E-04-6.92512E-08-2.72704E-06
 -1      1874-3.04917E-04 5.23404E-04-1.23267E-04-1.15184E-04-3.56462E-06-8.19957E-06
 -1      1875 4.11765E-02-1.45797E-02-1.50339E-02-1.05591E-03 5.33537E-04-7.42234E-04
 -1      1876 4.24211E-02-1.42451E-02-1.60584E-02-1.76139E-03 4.54397E-04-4.83038E-04
 -1      1877 4.36814E-02-1.43228E-02-1.66075E-02-2.27280E-03 2.66903E-04-6.00477E-04
 -1      1878 4.29990E-02-1.33508E-02-1.66770E-02-2.02470E-03 9.12746E-05-1.74643E-04
 -1      1879 4.57246E-02-1.47979E-02-1.75543E-02-2.05191E-03 1.66422E-04-6.08379E-04
 -1      1880 3.92646E-02-1.41566E-02-1.43493E-02 6.19078E-04 6.21814E-04-4.80608E-04
 -1      1881 5.37487E-02-2.04934E-02-1.87496E-02 4.77492E-03 1.01582E-06-3.86350E-05
 -1      1882 5.49701E-02-2.13797E-02-1.88083E-02 6.06333E-03 7.85083E-05 4.26768E-05
 -1      1883 5.39283E-02-2.04582E-02-1.88010E-02 3.80079E-03-6.64396E-06-1.05620E-05
 -1      1884 3.67841E-05 4.59818E-04-2.81463E-04 1.01766E-03 1.40066E-05-9.19942E-06
 -1      1885 4.81051E-04 1.69636E-04-3.66209E-04 1.11840E-03 5.87343E-06 1.43395E-06
 -1      1886 2.14699E-05 4.78075E-04-2.90973E-04 1.17230E-03 3.48402E-06-1.19715E-05
 -1      1887 7.25780E-04 2.56003E-05-4.28328E-04 1.12431E-03-4.93027E-06 7.35517E-06
 -1      1888 7.73119E-04-4.55459E-05-4.03297E-04 1.47636E-03 1.88009E-05-1.23339E-05
 -1      1889 3.72521E-04 2.23246E-04-3.22600E-04 1.48370E-03 2.63168E-05 1.37734E-07
 -1      1890 8.68405E-04-6.21827E-05-4.55028E-04 1.21799E-03 6.72227E-06-3.12901E-06
 -1      1891 5.55886E-02-2.23563E-02-1.87582E-02-6.62438E-03 1.09835E-06 1.76915E-04
 -1      1892 6.14066E-02-2.61743E-02-1.96593E-02-7.82925E-03-5.25805E-04 3.70618E-04
 -1      1893 6.24947E-02-2.69729E-02-2.01245E-02-2.73966E-03 1.09181E-04 5.11116E-04
 -1      1894 4.16611E-02-1.15867E-02-1.69602E-02 3.95521E-04 2.97636E-04-1.30058E-04
 -1      1895-2.49645E-04 5.92289E-04-1.93091E-04-5.12095E-04-4.81568E-06-5.58907E-06
 -1      1896-2.66439E-04 6.24608E-04-2.02177E-04-6.10908E-04 2.92594E-06-8.38830E-06
 -1      1897-3.29514E-04 6.37623E-04-1.70600E-04-4.01044E-04-5.84709E-06-1.03659E-05
 -1      1898 1.69561E-03-7.68869E-04-5.06695E-04 1.75578E-03 2.74095E-05 6.42709E-06
 -1      1899 7.72319E-04-5.37230E-05-3.99997E-04-1.46912E-03-1.97176E-05-8.30201E-06
 -1      1900 9.93147E-04-2.26078E-04-4.28640E-04-1.63139E-03-1.56086E-05-2.03217E-05
 -1      1901 2.17560E-03-1.11719E-03-5.91621E-04-1.52561E-03-2.58752E-05-2.96880E-08
 -1      1902 1.68972E-03-7.54830E-04-5.16426E-04-1.76441E-03-4.20994E-05 7.52985E-08
 -1      1903 4.57863E-02-1.14469E-02-1.93720E-02 6.52989E-03-7.67924E-04-1.15432E-03
 -1      1904 4.90426E-02-1.55114E-02-1.88859E-02 3.31375E-03-4.48472E-05-1.85647E-04
 -1      1905 5.02529E-02-1.64693E-02-1.89910E-02 4.18352E-04 5.64356E-06 2.87580E-06
 -1      1906 5.02033E-02-1.63983E-02-1.89900E-02 9.72781E-04 8.77574E-06-2.46420E-05
 -1      1907 4.98364E-02-1.60008E-02-1.90178E-02 1.69098E-03-8.32337E-06-4.21621E-05
 -1      1908 5.05482E-02-1.67365E-02-1.90194E-02 1.62038E-03-1.51268E-06 1.04880E-05
 -1      1909 4.87343E-02-1.49977E-02-1.89429E-02 1.61269E-03-5.42869E-05-5.34409E-05
 -1      1910 4.78389E-02-1.43228E-02-1.88248E-02 1.13921E-03-6.08855E-05-7.39439E-05
 -1      1911 4.90574E-02-1.52987E-02-1.89415E-02 2.42882E-03-1.64328E-05-1.10712E-04
 -1      1912 4.72339E-02-1.53398E-02-1.79808E-02-1.34898E-03 1.54680E-04-6.94410E-04
 -1      1913 4.77185E-02-1.60849E-02-1.80917E-02-7.21866E-04 3.04810E-04-1.37222E-03
 -1      1914 4.76997E-02-1.57368E-02-1.81586E-02-1.39808E-04 1.63179E-04-1.06829E-03
 -1      1915 4.79672E-02-1.52041E-02-1.84385E-02-2.92816E-04 5.65386E-05-5.30415E-04
 -1      1916 4.75555E-02-1.57227E-02-1.82643E-02 4.69559E-05 4.31565E-05-1.18399E-03
 -1      1917 4.79749E-02-1.63177E-02-1.87504E-02-2.96419E-05 1.20614E-04-1.95915E-03
 -1      1918 4.78359E-02-1.59392E-02-1.82234E-02 6.37446E-04-1.96518E-04-1.55687E-03
 -1      1919 4.68308E-02-1.51973E-02-1.79940E-02 1.24974E-03-1.17782E-04-7.89157E-04
 -1      1920 4.74893E-02-1.55707E-02-1.80780E-02 2.24788E-04-6.50282E-05-9.42297E-04
 -1      1921 4.78579E-02-1.51862E-02-1.83637E-02 2.70040E-04-7.70810E-06-3.58593E-04
 -1      1922 4.99875E-02-1.62146E-02-1.89739E-02-5.68429E-04 1.91151E-05-1.78319E-05
 -1      1923 5.22112E-02-1.84942E-02-1.89756E-02 1.86856E-03 9.66547E-06-2.15394E-05
 -1      1924 5.13064E-02-1.75388E-02-1.89973E-02 1.74463E-03-6.89422E-06 2.11571E-06
 -1      1925 5.10597E-02-1.72741E-02-1.89968E-02 2.44671E-03-4.51050E-05-2.90099E-05
 -1      1926 4.56145E-03-2.54350E-03-1.11052E-03-1.04143E-03 3.99498E-05 1.30116E-05
 -1      1927 4.87294E-03-3.33868E-03-8.73222E-04 2.83036E-04 1.07620E-04 2.72039E-05
 -1      1928 4.56619E-03-2.23190E-03-1.31019E-03-1.81284E-03 4.92580E-05-1.00272E-05
 -1      1929 5.99854E-03-3.46027E-03-1.39296E-03-2.71462E-03 7.78533E-05 4.46718E-05
 -1      1930 6.40755E-03-4.15504E-03-1.22335E-03-1.51829E-03 8.74397E-05 2.04007E-04
 -1      1931 4.83553E-03-2.15963E-03-1.44940E-03-2.46582E-03 4.24219E-05-2.84208E-05
 -1      1932 2.09753E-02-5.90926E-03-8.52492E-03 1.10183E-02 9.33564E-04-5.31583E-04
 -1      1933 9.51263E-03-1.03995E-04-5.54779E-03 1.01540E-02 6.50104E-04-5.50929E-04
 -1      1934 1.94057E-02-3.55653E-03-9.20340E-03 1.26275E-02 1.18281E-03-9.34506E-04
 -1      1935 1.43596E-02-1.92798E-03-6.86944E-03 1.14909E-02 9.50485E-04-4.54214E-04
 -1      1936 5.67735E-02-2.32178E-02-1.88071E-02 6.89231E-03 6.03121E-05 1.76480E-04
 -1      1937 5.72830E-02-2.33822E-02-1.91058E-02 4.60563E-03 1.96123E-05 1.27015E-04
 -1      1938 5.59701E-02-2.19750E-02-1.91058E-02 1.26688E-03-4.56339E-05 1.46037E-05
 -1      1939 5.67657E-02-2.27348E-02-1.91700E-02 2.26651E-03-8.42594E-05-5.49116E-05
 -1      1940 5.48102E-02-2.10793E-02-1.89174E-02 3.04828E-03-1.88950E-06 1.28956E-05
 -1      1941 5.89225E-02-2.43404E-02-1.93589E-02 2.26754E-03-2.28396E-05 1.40233E-04
 -1      1942 5.35726E-02-2.01104E-02-1.88589E-02 2.95609E-03-7.09841E-05 1.91455E-05
 -1      1943 4.13836E-02-1.08753E-02-1.73575E-02 2.45049E-03-9.88934E-04 3.56653E-04
 -1      1944 4.07380E-02-1.10882E-02-1.64333E-02 6.46437E-03-9.37501E-04 9.85635E-04
 -1      1945 2.45952E-02-5.59491E-03-1.02959E-02 1.38010E-02 1.65865E-03 4.34582E-04
 -1      1946 2.84016E-02-7.02680E-03-1.22479E-02 1.36899E-02 9.86788E-04 2.27698E-04
 -1      1947 3.77108E-02-1.13478E-02-1.49509E-02 1.21527E-02 1.24134E-03 1.67608E-03
 -1      1948-8.02680E-04 1.96057E-03-7.44972E-04 3.24161E-03 4.08405E-05 1.28162E-05
 -1      1949-7.36734E-04 1.84239E-03-5.91709E-04 1.97410E-03 1.60175E-05 1.23679E-04
 -1      1950-2.42679E-03 3.32920E-03-5.03309E-04 1.63491E-03-3.81669E-05 1.01133E-04
 -1      1951-1.52192E-03 3.60476E-03-1.13424E-03 5.58230E-03-1.25417E-04 1.26606E-04
 -1      1952-4.18495E-03 5.85202E-03-8.36404E-04 3.67504E-03 7.69345E-05 2.29517E-04
 -1      1953-4.04024E-03 5.17585E-03-6.36779E-04 1.84226E-03 3.58099E-05 2.59113E-04
 -1      1954-2.16131E-04 4.05725E-04-1.05590E-04-1.85054E-05-1.51277E-06-7.20516E-06
 -1      1955 5.95381E-03-3.39754E-03-1.45239E-03 2.70327E-03-5.19189E-05 9.88651E-05
 -1      1956 6.12143E-02-2.60184E-02-1.98852E-02 8.11358E-03 9.11404E-06 4.10420E-04
 -1      1957 6.27823E-02-2.72172E-02-2.00253E-02 2.87326E-03-4.64089E-05 4.71750E-04
 -1      1958 9.81440E-04-2.31278E-04-4.37775E-04 1.63934E-03 1.09918E-05-1.77653E-05
 -1      1959 2.01972E-02-3.92939E-03-9.10376E-03-1.30390E-02-9.74844E-04-1.21073E-03
 -1      1960 2.06785E-02-5.53421E-03-8.91736E-03-1.13679E-02-1.21789E-03-7.09610E-04
 -1      1961 1.41870E-02-2.00268E-03-6.80250E-03-1.12749E-02-9.98761E-04-4.71720E-04
 -1      1962 9.45385E-03-1.25284E-04-5.38696E-03-1.02930E-02-5.56263E-04-4.67432E-04
 -1      1963 4.63094E-02-1.46278E-02-1.79129E-02-1.41011E-03 1.34126E-04-4.15145E-04
 -1      1964 4.68833E-02-1.42317E-02-1.83898E-02-6.43858E-04 4.13124E-05-3.64984E-04
 -1      1965 4.77280E-02-1.48626E-02-1.85585E-02-2.28353E-04 3.41419E-05-2.07128E-04
 -1      1966 4.71245E-02-1.40372E-02-1.86205E-02-8.23452E-05 2.80887E-05-1.69703E-04
 -1      1967 5.86578E-05-5.47737E-05-3.02078E-06 3.39960E-05 3.04407E-06 2.29282E-06
 -1      1968 2.99543E-05-3.39819E-05 3.96942E-07 3.51646E-05 3.43534E-06 4.67878E-07
 -1      1969 1.23564E-05-1.94892E-05 3.97694E-06 2.49322E-05 5.15182E-07 1.42759E-06
 -1      1970 4.92574E-02-1.55938E-02-1.89366E-02-1.01150E-03 2.08334E-05-9.20911E-05
 -1      1971 4.81750E-02-1.45500E-02-1.88797E-02-1.66175E-03 8.35313E-05-1.61288E-04
 -1      1972 4.92837E-02-1.55946E-02-1.89574E-02-1.84251E-03-2.13216E-05-3.25296E-05
 -1      1973 4.92799E-02-1.56467E-02-1.89406E-02-2.69085E-03 6.72130E-05-4.91173E-05
 -1      1974 5.42282E-02-2.09475E-02-1.87186E-02-5.71270E-03-2.70083E-05 2.83080E-05
 -1      1975 5.39392E-02-2.04523E-02-1.87923E-02-4.09560E-03 2.96754E-05-1.21091E-05
 -1      1976 5.50159E-02-2.12478E-02-1.89498E-02-3.08173E-03-3.12745E-07-1.20898E-05
 -1      1977 5.74464E-05 5.10324E-05-5.98198E-05-5.11262E-05-1.25284E-05 6.55138E-06
 -1      1978 4.53351E-02-1.25260E-02-1.84315E-02-7.21907E-04-1.16754E-05-1.45561E-04
 -1      1979 4.67250E-02-1.35631E-02-1.85896E-02-1.13430E-03 4.87759E-05-1.63267E-04
 -1      1980 4.45163E-02-1.24443E-02-1.80597E-02 5.99818E-04 9.01534E-05-1.58933E-04
 -1      1981 7.07653E-05 1.29406E-05-4.75599E-05 1.25623E-05-1.91582E-05 4.35136E-07
 -1      1982 5.72706E-02-2.32258E-02-1.92627E-02-4.60662E-03 1.83158E-05 1.44596E-04
 -1      1983 4.16698E-02-1.13566E-02-1.71424E-02-4.14730E-04-1.63567E-05-8.08301E-05
 -1      1984 4.12755E-02-1.12008E-02-1.70645E-02 8.11654E-04-2.67576E-04 1.45276E-04
 -1      1985 4.24209E-02-1.24041E-02-1.68182E-02-1.16804E-03 1.84800E-05-1.30286E-04
 -1      1986 4.38624E-02-1.27231E-02-1.75327E-02-1.25816E-03-3.43528E-05-2.28971E-04
 -1      1987 4.20822E-02-1.05092E-02-1.79379E-02-1.01619E-04-3.48494E-04-8.30949E-06
 -1      1988 4.24850E-02-1.21965E-02-1.70300E-02 1.08639E-03 1.49814E-04-7.69381E-05
 -1      1989 4.37181E-02-1.26522E-02-1.74110E-02 1.44490E-03 1.55278E-04-4.98191E-05
 -1      1990 5.42429E-02-2.05554E-02-1.89841E-02 1.02078E-03 1.22637E-05 1.10935E-07
 -1      1991 5.56997E-02-2.17324E-02-1.90954E-02 1.57147E-06-1.81168E-05-3.52359E-05
 -1      1992 5.61141E-02-2.21437E-02-1.90843E-02-1.21590E-03 1.08096E-05-6.53927E-05
 -1      1993 5.68292E-02-2.28567E-02-1.91492E-02-2.20715E-03-1.76661E-05-9.98869E-05
 -1      1994 5.88926E-02-2.44516E-02-1.93823E-02-2.26055E-03 9.03506E-06 2.25977E-04
 -1      1995 5.42956E-02-2.05986E-02-1.89464E-02-1.00981E-03 2.77798E-05-2.18383E-05
 -1      1996 6.08364E-02-2.56539E-02-1.98923E-02 6.55191E-05 1.57751E-05 1.99085E-04
 -1      1997 4.52783E-02-1.35787E-02-1.79224E-02-1.36962E-03 7.00911E-05-1.85010E-04
 -1      1998 4.61971E-02-1.45937E-02-1.79479E-02 1.13772E-03-1.31994E-04-7.57207E-04
 -1      1999 4.66662E-02-1.42683E-02-1.82099E-02 6.25683E-04-8.47096E-06-2.55585E-04
 -1      2000 4.52696E-02-1.36488E-02-1.76888E-02 1.36077E-03 1.92164E-05-2.76073E-04
 -1      2001 4.17961E-02-9.03771E-03-1.84728E-02 5.03417E-03-8.27441E-04 1.95969E-04
 -1      2002 4.77721E-02-1.47740E-02-1.84543E-02 3.93431E-05-2.75538E-06-1.70154E-04
 -1      2003 4.70487E-02-1.39829E-02-1.84722E-02-1.80298E-04-9.08037E-06-1.95191E-04
 -1      2004 4.24311E-03-2.69158E-03-8.76210E-04-3.78456E-04-5.14569E-05 2.96741E-05
 -1      2005 4.96546E-03-3.27805E-03-9.33858E-04-2.06890E-04-8.46636E-05-3.50897E-05
 -1      2006 4.60251E-03-2.55121E-03-1.20038E-03 1.09979E-03-6.83508E-05 8.01435E-06
 -1      2007 4.56270E-03-2.17380E-03-1.34867E-03 1.79384E-03-4.65160E-05-3.56023E-05
 -1      2008 3.84887E-03-2.46079E-03-7.62305E-04-1.15657E-03-7.75678E-05 3.26923E-05
 -1      2009 8.41140E-03-2.30359E-03-3.31349E-03-7.81760E-03-1.97728E-04 8.21356E-05
 -1      2010 9.50268E-03-1.11680E-03-4.86352E-03-9.57817E-03-5.14046E-04-2.92439E-04
 -1      2011 9.49328E-03-4.27982E-03-2.89591E-03-6.86487E-03 5.71486E-06 3.71490E-04
 -1      2012 4.41189E-05 4.51934E-04-2.82124E-04-1.01226E-03-1.14233E-05-3.23861E-06
 -1      2013 2.48407E-05 4.72210E-04-2.83608E-04-1.17109E-03-2.47443E-06-9.07617E-06
 -1      2014 4.79758E-04 1.75951E-04-3.69393E-04-1.11656E-03-3.86473E-06-1.63521E-06
 -1      2015 7.22005E-04 3.16845E-05-4.30859E-04-1.12812E-03-1.09793E-06 5.98991E-07
 -1      2016-1.61724E-04 6.05826E-04-2.44735E-04-9.01257E-04-1.54440E-05-1.09339E-05
 -1      2017-1.65726E-04 6.00212E-04-2.32865E-04 8.98863E-04 1.31634E-05-7.94577E-06
 -1      2018 5.35069E-02-1.97939E-02-1.89613E-02 2.24294E-03 1.22381E-05 1.15048E-05
 -1      2019 4.90021E-03-2.20438E-03-1.49648E-03 2.45590E-03 9.52168E-06-5.92447E-06
 -1      2020 6.46091E-03-4.16820E-03-1.27594E-03 1.47137E-03-1.51992E-04 1.35469E-04
 -1      2021 7.68159E-03-4.28607E-03-1.99005E-03-3.90196E-03 1.57145E-04 1.43284E-04
 -1      2022-3.08440E-04 5.63934E-04-1.46564E-04 2.41663E-04 4.40937E-07-3.50839E-06
 -1      2023-3.17088E-04 5.72354E-04-1.43264E-04-2.46067E-04 1.45552E-06-4.26926E-06
 -1      2024 8.67558E-04-6.82929E-05-4.44102E-04-1.22379E-03-1.17052E-05-3.15250E-06
 -1      2025 3.65578E-04 2.36982E-04-3.34978E-04-1.48620E-03-2.69856E-05-9.44344E-06
 -1      2026 4.17829E-02-8.81676E-03-1.87100E-02 3.00067E-03-8.27194E-04 4.85188E-04
 -1      2027 2.59260E-03-1.48247E-03-6.22177E-04-1.55747E-03-3.25126E-05-3.51759E-05
 -1      2028 4.20591E-02-9.60704E-03-1.82684E-02 2.53254E-03-6.70588E-04-1.88040E-04
 -1      2029 5.35863E-02-1.98246E-02-1.89712E-02 1.62958E-03 5.66809E-06 2.95354E-05
 -1      2030 5.27373E-02-1.91385E-02-1.89123E-02 1.79760E-03 9.22292E-06 1.37243E-05
 -1      2031 5.23146E-02-1.86317E-02-1.89399E-02 2.34347E-03 5.32850E-06 3.39028E-05
 -1      2032 5.20443E-02-1.84833E-02-1.88824E-02 2.56699E-03 2.48426E-05 4.32376E-05
 -1      2033 5.13016E-02-1.75265E-02-1.90241E-02 3.15822E-03-2.16355E-05-9.08035E-05
 -1      2034 5.19166E-02-1.81886E-02-1.89663E-02 2.86075E-03 4.43841E-05-2.78261E-06
 -1      2035 5.04431E-02-1.65468E-02-1.89822E-02 3.20222E-03 1.54700E-06-1.72889E-04
 -1      2036 2.90176E-02 7.53426E-03-1.77391E-02-3.75361E-02 3.42609E-03-4.69943E-03
 -1      2037 6.55365E-02-1.42036E-02-2.20425E-02-3.41784E-02-1.00305E-03 2.69698E-03
 -1      2038 2.95202E-02 7.18282E-03-1.74653E-02-3.66846E-02-3.87298E-03 4.91120E-03
 -1      2039 6.59082E-02-1.45204E-02-2.21161E-02-3.94860E-02 6.66990E-04-1.46230E-03
 -1      2040 5.05992E-02-5.87161E-03-1.78587E-02-3.55113E-02 1.40734E-03-7.23952E-04
 -1      2041 5.21757E-02-7.48056E-03-1.76856E-02-3.69926E-02 1.56319E-04 9.53298E-05
 -1      2042 5.15730E-02-7.49170E-03-1.77816E-02-3.51445E-02-1.51563E-03 1.47790E-03
 -1      2043 3.39582E-02 4.49742E-03-1.78284E-02 3.61569E-02-2.87815E-03-4.15408E-03
 -1      2044 7.06283E-02-1.69873E-02-2.22893E-02 3.56304E-02 1.90555E-03 2.80080E-03
 -1      2045 6.99922E-02-1.73746E-02-2.24492E-02 3.22125E-02-1.23821E-03-2.59721E-03
 -1      2046 4.99734E-02-5.02419E-03-1.79354E-02 3.49697E-02 1.22649E-03 9.24683E-04
 -1      2047 5.15139E-02-8.41441E-03-1.80612E-02 3.58238E-02 1.23529E-04-4.77909E-04
 -1      2048 2.58080E-02 8.35655E-03-1.71867E-02 3.76360E-02 4.20868E-03 4.15287E-03
 -1      2049 5.43032E-02-1.00787E-02-1.77303E-02 3.35409E-02-1.38900E-03-1.79885E-03
 -1      2050 4.86836E-02-1.51702E-02-1.88452E-02-5.31321E-05 1.07919E-05 5.38907E-05
 -1      2051 4.44580E-02-1.38434E-02-1.72285E-02 2.30566E-03-3.59660E-05 3.00153E-04
 -1      2052 4.45192E-02-1.37462E-02-1.72734E-02-2.25923E-03-4.74710E-05 2.12999E-04
 -1      2053 5.40362E-02-2.02874E-02-1.89645E-02-4.34276E-05-1.21478E-05-1.19112E-05
 -1      2054 3.73355E-02-1.29341E-02-1.38791E-02-3.37668E-03 4.33519E-04 2.90556E-04
 -1      2055 3.79428E-02-1.36593E-02-1.36357E-02 3.18657E-03-1.19074E-04-5.28932E-05
 -1      2056-5.50430E-04 1.03801E-03-2.67459E-04-3.61886E-07-1.11225E-05 1.48137E-05
 -1      2057 6.56773E-02-2.90585E-02-2.08305E-02-2.41098E-05-8.42456E-05-5.10970E-04
 -1      2058 1.11918E-04-5.09068E-05-3.43880E-05 2.59713E-06-3.92448E-07-2.63800E-06
 -1      2059 4.15175E-02-1.01190E-02-1.76346E-02-1.02289E-03-3.60883E-04-2.85507E-04
 -1      2060 4.80608E-02-1.44170E-02-1.88980E-02-2.68835E-03-1.22102E-04 1.56070E-04
 -1      2061 4.16575E-02-1.00433E-02-1.78069E-02 1.10807E-03 1.42711E-04-8.01364E-05
 -1      2062 4.77690E-02-1.40610E-02-1.89431E-02 2.35512E-03 2.88164E-05 6.79121E-05
 -1      2063 4.78606E-02-1.60760E-02-1.78437E-02 1.46669E-05-2.83652E-05 3.96671E-04
 -1      2064 5.08570E-02-1.70731E-02-1.89929E-02 9.14854E-04 6.80704E-06 5.82099E-06
 -1      2065 3.23867E-05-3.62984E-05 2.50560E-06-1.19381E-05 2.65752E-07 3.35422E-07
 -1      2066 4.81454E-02-1.39573E-02-1.92709E-02 6.05915E-03 2.63756E-04 3.64327E-04
 -1      2067 4.86361E-02-1.44546E-02-1.92603E-02-5.89519E-03-1.80370E-04 2.83545E-04
 -1      2068 5.16601E-02-1.79786E-02-1.89430E-02-1.95169E-03 1.22475E-05 2.01593E-05
 -1      2069 1.54116E-02-2.94097E-03-7.94390E-03-1.01532E-02 7.91985E-04 6.09263E-04
 -1      2070 1.55519E-02-2.99233E-03-7.75165E-03 1.03971E-02-7.33644E-04 2.84705E-04
 -1      2071 5.52648E-02-2.16365E-02-1.88882E-02 4.11738E-03-1.78010E-05-1.35241E-05
 -1      2072 5.56281E-02-2.18294E-02-1.90601E-02-4.15025E-03 5.33290E-06 4.05712E-05
 -1      2073 3.89076E-02-1.30378E-02-1.46519E-02 8.85282E-03-4.68433E-04-9.76589E-04
 -1      2074 3.89504E-02-1.32331E-02-1.47018E-02-8.44686E-03 3.71467E-04-3.38927E-04
 -1      2075-2.29317E-03 3.54411E-03-7.03455E-04 3.04041E-03 6.84775E-05-2.53187E-05
 -1      2076-3.17930E-03 4.32995E-03-6.07333E-04-2.84345E-03 4.12121E-06-1.38661E-04
 -1      2077 4.79830E-02-1.52505E-02-2.04711E-02-1.32088E-03-4.18687E-04 5.68525E-04
 -1      2078 4.90389E-02-1.52236E-02-2.15842E-02 1.23595E-03 3.47692E-04-3.30569E-05
 -1      2079-2.51257E-04 4.96067E-04-1.37959E-04 1.51378E-04-8.66299E-07 4.35157E-06
 -1      2080-2.54780E-04 4.94295E-04-1.34755E-04-1.47023E-04 3.44088E-06-3.27429E-07
 -1      2081 4.90440E-04 1.57195E-04-3.62989E-04 1.25691E-03 2.35426E-06-1.20706E-06
 -1      2082 4.87034E-04 1.74786E-04-3.73246E-04-1.26289E-03 7.65677E-06 8.49922E-06
 -1      2083 5.15873E-03-2.97438E-03-1.23812E-03-1.44763E-03-1.13474E-05-3.10961E-05
 -1      2084 5.17193E-03-2.97900E-03-1.23583E-03 1.40447E-03 6.07031E-05-2.14882E-05
 -1      2085 5.27577E-02-1.91688E-02-1.88931E-02 2.40378E-03 8.67649E-06-9.70448E-06
 -1      2086 3.40193E-03-1.88764E-03-8.48846E-04-6.35106E-04 3.93970E-05 5.69639E-06
 -1      2087 3.43360E-03-1.90486E-03-8.59614E-04 5.91609E-04-2.04808E-05-3.50172E-06
 -1      2088 2.14215E-05 4.60260E-04-2.71395E-04-8.12199E-04 3.26468E-06 5.66489E-06
 -1      2089 2.11949E-05 4.61073E-04-2.71226E-04 8.08771E-04-2.36729E-06 8.49993E-06
 -1      2090-2.16794E-04 4.35735E-04-1.23375E-04-4.39610E-05 3.58789E-07 1.25137E-06
 -1      2091 6.20411E-03-2.01274E-03-2.39774E-03 6.05561E-03-1.80942E-04-5.94028E-05
 -1      2092 6.01535E-03-1.82813E-03-2.38401E-03-6.07754E-03 1.47044E-04-1.22287E-04
 -1      2093 6.29450E-02-2.84091E-02-2.00890E-02 1.45539E-02-3.05789E-04-1.60449E-03
 -1      2094 6.23727E-02-2.64027E-02-2.02224E-02-1.24745E-02 4.11385E-04-9.13347E-04
 -1      2095 7.87805E-05 8.40764E-05-9.17737E-05-6.94743E-05 2.23247E-05-3.92238E-06
 -1      2096 1.04285E-04 6.33848E-05-8.93442E-05 9.77135E-05-6.81803E-06-3.29270E-05
 -1      2097-2.15977E-04 4.31804E-04-1.20669E-04 4.14363E-05-2.32476E-07 2.86951E-06
 -1      2098-2.06165E-04 5.41500E-04-1.88704E-04-4.10935E-04 1.63078E-06-6.40099E-07
 -1      2099-2.09045E-04 5.45343E-04-1.88896E-04 4.07917E-04-9.30062E-07 4.44244E-06
 -1      2100 1.71707E-03-6.96753E-04-5.73782E-04-1.35512E-03 1.50899E-05 9.85153E-06
 -1      2101 1.72524E-03-6.99814E-04-5.77970E-04 1.33253E-03-5.27782E-06 1.31194E-06
 -1      2102 1.11623E-02 7.04277E-04-6.88053E-03-1.25694E-02 8.44193E-04 5.44699E-04
 -1      2103 1.12173E-02 1.16834E-03-7.05850E-03 1.35275E-02-4.90478E-04 2.19145E-04
 -1      2104 4.75950E-02-1.49579E-02-1.83814E-02-6.77002E-04 4.74347E-06 3.70421E-04
 -1      2105 4.75379E-02-1.49514E-02-1.82899E-02 5.35486E-04 1.32415E-05 3.00609E-04
 -1      2106 2.70988E-05-3.38302E-05 2.07534E-06 5.89787E-05-1.06183E-06 2.28325E-07
 -1      2107 2.03161E-06-6.73647E-06 2.48055E-06 1.04957E-05-5.14028E-07 5.69077E-07
 -1      2108 5.17225E-02-1.80199E-02-1.89441E-02 2.47694E-03 7.72228E-06 2.08183E-05
 -1      2109 3.97451E-02-7.11879E-03-1.84576E-02-4.61001E-03-1.32544E-03 2.15977E-04
 -1      2110 4.05817E-02-7.73807E-03-1.84826E-02 4.76807E-03 1.15568E-03-7.15559E-04
 -1      2111 5.02611E-02-1.65134E-02-1.89700E-02-1.13180E-03-1.15361E-05 2.02226E-05
 -1      2112 5.26717E-02-1.92694E-02-1.87881E-02-2.76193E-03 1.83171E-06-3.38679E-05
 -1      2113 2.64796E-05-3.46169E-05 3.71275E-06-6.00695E-05-1.15619E-06-1.00500E-06
 -1      2114 4.23099E-02-1.41692E-02-1.86233E-02 1.92072E-04 7.81161E-04 4.49238E-04
 -1      2115 4.23267E-02-1.38043E-02-1.84658E-02-2.48080E-06-6.26896E-04-2.12861E-04
 -1      2116 2.08426E-04 1.99851E-04-2.28279E-04-5.88525E-04 2.63892E-05-7.43157E-06
 -1      2117 1.95557E-04 3.77224E-04-3.28001E-04 9.32583E-04-3.56933E-05 8.07185E-07
 -1      2118 4.48771E-02-1.16489E-02-1.87015E-02-2.42463E-03-4.71944E-05 8.52045E-05
 -1      2119 4.46728E-02-1.15270E-02-1.86728E-02 1.82685E-03 4.61186E-05 1.22902E-04
 -1      2120 7.76373E-02-3.57826E-02-2.48346E-02-9.96169E-05-4.00025E-04-1.87038E-03
 -1      2121 5.14570E-02-1.77522E-02-1.89041E-02-3.63809E-03 2.72946E-05 1.00877E-05
 -1      2122 7.14474E-05-5.36833E-05-8.96345E-06 7.78012E-05 2.76504E-06 6.69362E-06
 -1      2123 1.85409E-06-6.31411E-06 2.46634E-06-9.66305E-06 7.41183E-07 2.63673E-07
 -1      2124 4.94902E-02-1.57619E-02-1.89537E-02 1.00640E-03 2.12407E-05 3.30868E-05
 -1      2125 5.22480E-02-1.98306E-02-1.82744E-02-7.61427E-03 4.03063E-05-3.21343E-05
 -1      2126 5.35641E-02-2.06771E-02-1.85368E-02 8.52683E-03-1.01353E-04-1.45748E-04
 -1      2127 4.18248E-02-1.31076E-02-1.62083E-02-1.35633E-03 5.77151E-05 2.51817E-04
 -1      2128 4.16617E-02-1.30990E-02-1.60898E-02 1.34344E-03 2.13250E-05 1.51548E-04
 -1      2129 5.79467E-02-2.35268E-02-1.94087E-02 4.11761E-05 1.93412E-05 1.07935E-04
 -1      2130 4.69216E-02-1.57220E-02-1.76343E-02-1.83497E-03-1.87747E-04 9.73907E-04
 -1      2131 4.67741E-02-1.57579E-02-1.74287E-02 1.69269E-03 5.67544E-05 7.50044E-04
 -1      2132 4.61521E-04 2.80498E-03-1.71433E-03 8.58492E-03 1.39301E-06-2.84720E-04
 -1      2133 2.49981E-04 3.08113E-03-1.67404E-03-9.34231E-03-1.93958E-05-3.23575E-04
 -1      2134 5.06430E-02-1.43627E-02-2.05203E-02-8.83154E-03-5.26422E-04 8.71986E-04
 -1      2135 4.95920E-02-1.33219E-02-2.03450E-02 8.72506E-03 3.04272E-04 1.16742E-03
 -1      2136 4.38652E-02-1.36202E-02-1.70504E-02 1.18828E-02-8.83147E-04 1.30292E-04
 -1      2137 4.37138E-02-1.30829E-02-1.72540E-02-1.19505E-02 7.10191E-04-1.14347E-05
 -1      2138 3.06595E-02-9.78251E-03-1.22554E-02 5.67955E-03-5.51787E-04-1.89365E-04
 -1      2139 3.09334E-02-9.93442E-03-1.32531E-02-5.16151E-03 7.23899E-04 3.03403E-04
 -1      2140 4.82473E-02-1.47468E-02-1.88264E-02-7.40411E-04-2.78291E-05 1.21188E-04
 -1      2141 4.80700E-02-1.65360E-02-1.80516E-02 1.53656E-04-8.62232E-05 1.70380E-03
 -1      2142 9.15934E-05-5.75805E-05-1.69297E-05-7.49087E-05-7.01599E-07 4.80531E-06
 -1      2143 4.33345E-02-1.51472E-02-1.58756E-02-2.27633E-03-2.89417E-04 6.08755E-04
 -1      2144 4.32765E-02-1.50736E-02-1.59169E-02 2.01623E-03 4.10844E-04 8.13648E-04
 -1      2145 5.07041E-02-1.67831E-02-1.90752E-02 4.22515E-03 3.23164E-05 1.23899E-04
 -1      2146 4.07911E-03-2.05173E-03-1.13331E-03 7.75316E-04 1.30482E-05-2.11427E-05
 -1      2147 4.07209E-03-2.02590E-03-1.14621E-03-7.71975E-04-3.30477E-05-2.52931E-05
 -1      2148 4.82365E-02-1.52946E-02-1.84882E-02-1.29866E-05 2.59800E-06 1.42260E-04
 -1      2149 4.81553E-02-1.47243E-02-1.87932E-02 3.31895E-04 3.74600E-05 1.16050E-04
 -1      2150 4.42895E-03 1.46031E-03-3.27033E-03-7.89602E-03 3.95921E-04 2.15697E-04
 -1      2151 4.47655E-03 1.36245E-03-3.26012E-03 7.78862E-03-3.18089E-04 2.06739E-04
 -1      2152 4.68225E-04 1.85045E-04-3.65565E-04-9.82460E-04 2.93607E-06 2.60561E-06
 -1      2153 4.69443E-04 1.80358E-04-3.63402E-04 9.83811E-04-6.89655E-06-2.40817E-07
 -1      2154 5.24701E-02-1.92162E-02-1.87144E-02 3.60290E-03 4.63729E-05-2.82256E-05
 -1      2155-2.11432E-04 4.70473E-04-1.45236E-04-1.30333E-04 3.37496E-07 2.54196E-06
 -1      2156 4.33961E-03-1.45922E-03-1.62577E-03 3.55836E-03-2.33425E-05-6.84466E-05
 -1      2157 4.26121E-03-1.43003E-03-1.59494E-03-3.38336E-03-8.43512E-07 4.63168E-06
 -1      2158-2.11834E-04 4.74221E-04-1.47697E-04 1.35583E-04 2.89353E-07 1.14757E-06
 -1      2159 3.73708E-02-8.21356E-03-1.77238E-02 1.60587E-02-1.05028E-03-1.90823E-03
 -1      2160 3.77129E-02-9.25156E-03-1.68772E-02-1.46355E-02 1.53989E-03-2.29276E-03
 -1      2161-1.87369E-04 5.03292E-04-1.76996E-04 3.04221E-04-1.93255E-06 3.16597E-06
 -1      2162-1.90035E-04 5.05988E-04-1.76887E-04-3.03242E-04 6.95189E-07 3.44097E-06
 -1      2163 1.25804E-03-3.31651E-04-5.19610E-04 1.17005E-03-1.43518E-05 6.32341E-06
 -1      2164 1.26300E-03-3.40539E-04-5.15778E-04-1.17414E-03 7.71655E-06 1.57896E-06
 -1      2165 1.01176E-04 8.12594E-05-1.01338E-04 1.02460E-05-5.43945E-06 4.11115E-06
 -1      2166 7.71680E-05-6.35756E-05-9.02922E-06 5.88864E-06-2.20098E-06-9.25601E-07
 -1      2167-5.38852E-03 6.62221E-03-7.12348E-04 1.57894E-04 1.44323E-05-1.84860E-04
 -1      2168-6.25623E-08-9.70610E-06 4.49200E-06-3.27747E-05-6.56587E-07-1.39089E-06
 -1      2169 4.05903E-02-1.25865E-02-1.56388E-02 9.46068E-04 3.22113E-04-1.68160E-04
 -1      2170 4.03984E-02-1.22825E-02-1.57375E-02-9.90123E-04 1.79769E-05-2.28316E-04
 -1      2171 5.21701E-02-1.84159E-02-1.89862E-02-4.59064E-04 7.13840E-06-9.45812E-06
 -1      2172-2.11364E-04 4.47620E-04-1.31736E-04 1.80143E-06-1.97046E-07 1.67519E-06
 -1      2173-2.13603E-05 4.64309E-04-2.48085E-04-6.20169E-04 2.38564E-06 2.12488E-06
 -1      2174-2.15297E-05 4.61856E-04-2.45707E-04 6.17405E-04-1.37629E-06 9.75655E-07
 -1      2175 2.66355E-03-1.28209E-03-7.72155E-04-8.43628E-04 1.29997E-05 1.59777E-06
 -1      2176 2.65033E-03-1.26876E-03-7.73910E-04 8.45405E-04-2.96040E-05 3.10987E-07
 -1      2177 1.70152E-02-1.10313E-03-8.48740E-03 1.73552E-02-1.12944E-03 1.76119E-04
 -1      2178 2.80739E-02-8.86170E-03-1.07972E-02 1.11930E-02-5.20456E-04 3.79915E-04
 -1      2179 1.81290E-02-1.75713E-03-9.03679E-03-1.75486E-02 1.66073E-03 8.21964E-05
 -1      2180 2.73750E-02-8.73881E-03-1.03066E-02-1.07062E-02 1.06516E-03 1.28778E-05
 -1      2181 1.07806E-05-1.51127E-05 2.52410E-06-5.98768E-07-4.74908E-08 2.10388E-07
 -1      2182 5.21207E-02-1.91194E-02-1.85812E-02-3.97249E-03-8.54405E-05 8.98579E-06
 -1      2183 5.21068E-02-1.86701E-02-1.87844E-02-2.57512E-03-4.69040E-06-1.34411E-05
 -1      2184 1.30837E-02-5.61547E-03-4.91691E-03-7.52585E-03 4.59639E-05-3.17742E-04
 -1      2185 1.30765E-02-5.75001E-03-4.46545E-03 7.45875E-03-3.67315E-06-2.49721E-04
 -1      2186 4.26540E-02-9.28957E-03-1.88560E-02-4.23422E-03-4.94174E-04 2.91725E-04
 -1      2187 4.32723E-02-9.81674E-03-1.87980E-02 4.08822E-03 4.86489E-04 2.84563E-04
 -1      2188 5.27044E-02-1.89968E-02-1.89523E-02 1.26492E-03-9.70978E-06-5.56839E-06
 -1      2189 5.43228E-02-2.06166E-02-1.89415E-02 2.18012E-03-3.81928E-06 7.50035E-06
 -1      2190 1.04330E-03 3.21260E-04-7.02551E-04 2.50726E-03-1.24926E-04-1.85383E-05
 -1      2191 8.07950E-04 6.13890E-04-7.73915E-04-2.97371E-03 9.74136E-05-7.19133E-05
 -1      2192 4.38732E-03-3.24402E-03-6.15400E-04-1.72303E-03 1.06672E-04-1.42065E-05
 -1      2193 4.43653E-03-3.29749E-03-6.13075E-04 1.77709E-03-1.26204E-04-2.33410E-05
 -1      2194-3.99331E-04 7.67905E-04-2.02373E-04-1.01945E-03 3.05215E-05 2.49302E-05
 -1      2195-4.05457E-04 7.73978E-04-2.06528E-04 1.01351E-03-1.61338E-05 1.37923E-05
 -1      2196-2.26825E-04 3.78019E-04-8.39446E-05 3.16375E-05 1.34378E-06 1.35461E-05
 -1      2197-2.52555E-07-1.10481E-05 5.50163E-06 3.12934E-05-1.19307E-06 1.90514E-06
 -1      2198 8.10141E-03-5.64272E-03-1.48127E-03-1.79434E-03-1.64704E-04-1.11431E-04
 -1      2199 8.03338E-03-5.54844E-03-1.47049E-03 1.76166E-03 8.93612E-05 1.22418E-05
 -1      2200-2.31463E-04 3.97020E-04-9.02705E-05 5.18120E-06-8.60086E-07 1.21876E-05
 -1      2201-3.52009E-04 5.44621E-04-1.05446E-04 7.48789E-05-5.38991E-06 1.53457E-05
 -1      2202-3.87031E-04 5.74943E-04-1.03719E-04-7.13952E-05 6.60936E-06 1.78712E-05
 -1      2203 2.39707E-04 2.95940E-04-2.96004E-04 1.79442E-03-3.64303E-05 2.40246E-05
 -1      2204 2.34769E-04 2.93685E-04-2.88018E-04-1.77543E-03 5.01985E-05 1.68245E-05
 -1      2205-2.12429E-03 2.97336E-03-4.77055E-04 3.73519E-04-4.06002E-05-5.50058E-05
 -1      2206-1.67972E-04 3.16323E-04-8.26206E-05 3.90570E-06 2.82830E-07 1.17827E-05
 -1      2207-4.94276E-04 7.50169E-04-1.39746E-04-3.88102E-04 1.13590E-05 1.92628E-05
 -1      2208-4.83532E-04 7.37919E-04-1.39763E-04 3.72774E-04-1.23214E-05 1.47879E-05
 -1      2209 1.62228E-03-8.52291E-04-4.22469E-04-2.23621E-03 6.29571E-05 1.47993E-05
 -1      2210 1.62527E-03-8.72374E-04-4.07346E-04 2.29890E-03-7.21310E-05 2.10074E-05
 -1      2211 5.44260E-02-2.07611E-02-1.89130E-02-2.09709E-03-8.79575E-06-4.30079E-06
 -1      2212-1.61857E-06 9.06569E-08 6.37474E-07-1.32091E-06 3.14844E-08 3.67587E-07
 -1      2213-2.01567E-09-5.51051E-08 4.35229E-08-1.99362E-08-1.29441E-08 3.26517E-10
 -1      2214-3.43512E-08 4.66073E-08-5.98146E-09 1.77578E-08 7.56065E-10-7.48003E-10
 -1      2215-3.07687E-08 3.76640E-08-3.53475E-09 5.44668E-09 1.52705E-09 1.55982E-10
 -1      2216-2.30848E-08 3.18504E-08-4.69215E-09 2.28483E-09-4.15392E-10-7.44425E-11
 -1      2217-4.17249E-08 3.65748E-08 4.74365E-09-6.40282E-10-4.86080E-10-1.01821E-09
 -1      2218-1.11605E-08-7.48016E-08 5.39195E-08 8.84440E-08 6.53338E-09 1.03312E-08
 -1      2219-1.05725E-07-1.85890E-08 7.35754E-08-9.06868E-08 2.61488E-08 3.18886E-08
 -1      2220 3.91430E-08-7.03401E-08 2.75326E-08 3.96043E-08 1.28374E-08-1.49263E-08
 -1      2221 1.22215E-08-2.32661E-08 1.04584E-08 7.47936E-08 1.11354E-09-2.48246E-09
 -1      2222-4.06933E-08 1.97879E-08 1.40233E-08-3.15053E-08-1.07239E-09-1.04853E-09
 -1      2223-1.26062E-08 2.45769E-08-5.86525E-09 7.09944E-08-9.21789E-10-3.08945E-09
 -1      2224-1.56138E-06-2.32099E-08 6.74193E-07 1.13413E-06 5.09328E-08 4.87956E-07
 -1      2225 2.26781E-09-2.06628E-08 1.25062E-08-5.44576E-08-6.59199E-09-1.19966E-09
 -1      2226 4.96713E-02-1.59106E-02-1.89892E-02-3.00266E-05-7.31019E-06 2.75248E-06
 -1      2227 3.94444E-02-1.40335E-02-1.43277E-02-1.12435E-04 5.00483E-04 4.30757E-04
 -1      2228 3.98013E-02-1.39499E-02-1.46700E-02-8.84634E-05-4.81473E-04 4.37678E-04
 -1      2229 1.01610E-02-2.63350E-03-4.10765E-03 1.43048E-02 8.93952E-04-1.89214E-04
 -1      2230 9.99156E-03-3.16716E-03-3.46354E-03-1.48611E-02-1.01167E-03-5.84083E-04
 -1      2231 4.59121E-02-1.34140E-02-1.82749E-02 5.96790E-04-5.60847E-05 2.24126E-04
 -1      2232 4.59256E-02-1.34370E-02-1.82518E-02-5.83971E-04 5.47667E-05 2.87607E-04
 -1      2233 4.75215E-02-1.70183E-02-1.70737E-02 1.12318E-02-1.92328E-04-1.94281E-05
 -1      2234 4.74227E-02-1.75270E-02-1.68143E-02-1.01727E-02 1.32568E-05 1.86712E-05
 -1      2235 5.95822E-02-2.51114E-02-1.93208E-02 5.23295E-03-7.75454E-05-3.50314E-04
 -1      2236 5.94981E-02-2.49455E-02-1.94545E-02-5.23019E-03-4.86450E-06-3.02610E-04
 -1      2237 5.03056E-02-1.65334E-02-1.89874E-02-2.50325E-03-3.64087E-05 7.49145E-05
 -1      2238 5.20344E-02-1.85031E-02-1.87704E-02 3.08537E-03-4.24870E-05-5.10797E-05
 -1      2239 5.21821E-02-1.87116E-02-1.88246E-02 2.58909E-03-6.02841E-06-3.13507E-05
 -1      2240-6.60434E-03 8.02085E-03-6.92535E-04 4.07957E-03-1.36808E-05-3.83307E-04
 -1      2241-6.82607E-03 8.11269E-03-5.54541E-04-4.00661E-03 5.75819E-05-3.52463E-04
 -1      2242 4.07863E-03-1.51304E-03-1.45550E-03 2.09721E-03-3.47555E-06-4.31605E-07
 -1      2243 3.99840E-03-1.41294E-03-1.47004E-03-2.15053E-03-1.81564E-05 3.90486E-05
 -1      2244 4.02979E-03 3.11606E-03-3.82606E-03 9.02781E-03-2.33109E-04 6.52005E-04
 -1      2245 4.17341E-03 3.41241E-03-4.17978E-03-8.95329E-03 3.27715E-04 6.35488E-04
 -1      2246 9.64225E-04-1.08040E-04-4.84239E-04-1.01438E-03 5.57393E-06 6.02674E-06
 -1      2247 9.62422E-04-1.10881E-04-4.80469E-04 1.00999E-03 2.01536E-06 4.58672E-06
 -1      2248-1.75053E-04 4.83210E-04-1.72828E-04-2.30953E-04 4.94837E-07-1.25748E-07
 -1      2249-1.77515E-04 4.85075E-04-1.72377E-04 2.32688E-04 2.58286E-07 3.67855E-08
 -1      2250 5.01567E-02-1.63596E-02-1.89838E-02 2.35959E-03 4.09136E-05 5.19102E-05
 -1      2251 5.18857E-02-1.91244E-02-1.85153E-02 5.34702E-03 1.94910E-05 8.73264E-06
 -1      2252 2.41819E-05-2.88437E-05 2.72431E-06 1.70910E-05-6.13229E-07-3.59088E-08
 -1      2253 4.30607E-02-1.16861E-02-1.75884E-02 7.40022E-04-2.64691E-04 5.52986E-05
 -1      2254 4.30304E-02-1.13858E-02-1.77814E-02-6.05901E-04 1.35594E-04 5.93238E-05
 -1      2255 5.29021E-02-1.92769E-02-1.89173E-02-1.71880E-03-3.27697E-06-1.71964E-05
 -1      2256-1.08409E-03 1.95943E-03-4.98438E-04-1.28899E-03 1.08677E-05-1.89291E-05
 -1      2257 5.16164E-05-1.09012E-05-2.07917E-05 2.38189E-06 2.40613E-06-3.21274E-06
 -1      2258 9.91493E-05-4.49501E-05-1.15189E-05 1.50769E-06-1.33557E-05-2.69989E-05
 -1      2259 6.33972E-03 3.52051E-03-4.99615E-03-1.10222E-02 8.60730E-04-5.90744E-05
 -1      2260 1.15777E-02 4.95596E-03-9.14000E-03-1.77803E-02 2.33413E-03-5.28591E-04
 -1      2261 1.91941E-02 2.95487E-03-1.42004E-02-1.97721E-02 3.84103E-03-3.15286E-03
 -1      2262 3.95039E-02-6.06836E-03-1.81932E-02-2.40637E-02 1.78533E-03-5.02370E-03
 -1      2263 2.68028E-02-5.81383E-03-1.26088E-02-1.75899E-02 1.25889E-03-1.03047E-03
 -1      2264 1.15710E-02 5.49618E-03-9.49144E-03 1.79394E-02-1.87234E-03-4.82149E-04
 -1      2265 5.66837E-03 3.89153E-03-4.49648E-03 1.08312E-02-1.62657E-04 4.09635E-04
 -1      2266 4.06206E-02-5.29501E-03-1.98353E-02 2.43863E-02-9.05258E-04-4.06697E-03
 -1      2267 1.84406E-02 3.11513E-03-1.45586E-02 2.04508E-02-3.84636E-03-3.13752E-03
 -1      2268 2.76537E-02-7.05487E-03-1.24919E-02 1.71711E-02-2.97844E-04-1.18288E-03
 -1      2269 4.35033E-02-8.91350E-03-1.91054E-02-1.71938E-02-6.70766E-04-3.34557E-03
 -1      2270 5.00784E-02-1.25293E-02-2.09847E-02-1.07909E-02-1.43022E-03 1.08601E-03
 -1      2271 5.52271E-02-1.64166E-02-2.19630E-02-1.03105E-02-5.53573E-04 1.24442E-03
 -1      2272 5.12447E-02-1.71102E-02-1.93856E-02-5.02883E-03-3.83545E-04 1.20481E-03
 -1      2273 4.57808E-02-9.98796E-03-2.01450E-02-8.06140E-03-4.56257E-04 6.61323E-04
 -1      2274 4.92260E-02-1.24699E-02-2.00789E-02 1.18739E-02 1.62101E-03 5.99963E-04
 -1      2275 4.45023E-02-8.23634E-03-1.96892E-02 1.70473E-02 4.00766E-04-3.01445E-03
 -1      2276 5.14234E-02-1.68973E-02-1.95758E-02 5.03598E-03 1.74621E-04 1.23569E-03
 -1      2277 5.44012E-02-1.60108E-02-2.17681E-02 1.10535E-02 5.99013E-04 1.24114E-03
 -1      2278 4.48223E-02-9.37974E-03-1.96265E-02 8.02577E-03 8.02264E-04 7.14216E-04
 -1      2279-2.53104E-06 1.12173E-06 7.34423E-07-3.08371E-07-9.83192E-08 1.51721E-07
 -1      2280-4.23983E-07-2.35881E-07 2.74050E-07-8.54316E-07 8.09220E-08 1.83738E-07
 -1      2281-1.43044E-05 2.30120E-07 7.85318E-06 2.23281E-05-2.15442E-07 2.58008E-06
 -1      2282-9.29150E-06-1.54855E-06 4.37904E-06 1.38108E-05-2.90928E-07 7.55185E-07
 -1      2283 8.19976E-07-7.49302E-06 4.19236E-06 1.89764E-05 3.08035E-08-3.34301E-07
 -1      2284-3.12808E-06-1.14451E-06 2.12550E-06 6.61238E-06-5.15236E-08 8.99167E-07
 -1      2285-1.64958E-06-2.59288E-06 1.43099E-06 4.48564E-06-3.16178E-07 8.90761E-07
 -1      2286-8.38784E-06-9.84100E-07 2.98416E-06-1.51779E-05-1.63498E-07-1.10159E-06
 -1      2287-1.98471E-05 1.63085E-06 8.42715E-06-2.19063E-05-7.86579E-07-1.95281E-07
 -1      2288-3.04439E-07-3.55554E-07 2.77137E-07 9.39043E-07-1.35834E-07 1.72423E-07
 -1      2289-2.36588E-06 1.11174E-06 5.04131E-07 3.62201E-07 6.25888E-08 4.41970E-07
 -1      2290-3.15025E-06-8.97075E-07 2.21649E-06-6.26820E-06 3.49307E-07 1.01634E-06
 -1      2291 3.29751E-06-7.75233E-06 2.58738E-06-2.04884E-05 3.39926E-07-1.55513E-06
 -1      2292-1.15822E-06-2.42205E-06 1.48600E-06-4.38343E-06 3.61111E-07 6.10654E-07
 -1      2293-8.36635E-03 9.94065E-03-6.02185E-04-2.18285E-03 1.48010E-04-2.16947E-04
 -1      2294-9.33303E-03 9.67312E-03-3.55685E-04-6.97197E-03 5.44518E-04-6.42382E-04
 -1      2295-9.08689E-03 9.50266E-03-2.65399E-04 7.26676E-03-3.72955E-04-8.38150E-04
 -1      2296-8.20955E-03 9.83843E-03-7.44716E-04 2.17543E-03-1.70243E-04-2.13557E-04
 -1      2297-6.09178E-03 7.36564E-03-6.93199E-04 2.03395E-03 4.07046E-05-3.27407E-04
 -1      2298-7.37466E-03 8.56458E-03-7.42892E-04 1.45329E-04-3.71949E-06-1.68878E-04
 -1      2299-6.16320E-03 7.41243E-03-6.21564E-04-1.79071E-03-3.13893E-05-3.60299E-04
 -1      2300 4.71628E-02-1.00122E-02-1.58132E-02-9.16546E-06-8.70536E-04-1.13164E-02
 -1      2301 4.66352E-02-1.19240E-02-1.70559E-02-3.47613E-03-2.52860E-03-1.02082E-02
 -1      2302 4.67992E-02-1.26449E-02-1.59089E-02 3.90861E-03 2.01102E-03-1.04914E-02
 -1      2303 4.69901E-02-9.76644E-03-1.71151E-02-1.09413E-04 1.19710E-03-1.04205E-02
 -1      2304 4.69158E-02-1.57792E-02-1.80019E-02-1.12782E-03-3.99062E-04 1.80979E-03
 -1      2305 4.67012E-02-1.09518E-02-1.87761E-02-9.72228E-05-1.01658E-04-5.92272E-03
 -1      2306 4.69697E-02-1.53895E-02-1.82778E-02 9.50687E-04 4.54367E-04 1.14862E-03
 -1      2307-1.81610E-08 3.18822E-08-6.71024E-09 4.38143E-09-1.31391E-09 2.54506E-09
 -1      2308-3.64386E-08 7.05519E-08-1.90565E-08 7.74611E-10-1.35020E-09 6.22607E-10
 -1      2309-3.65665E-09-1.26022E-08 8.46118E-09 7.95018E-09 1.64820E-09 2.74746E-10
 -1      2310-3.28731E-08 6.96572E-08-2.09957E-08 4.48369E-09-1.25611E-09 1.77305E-09
 -1      2311-4.70266E-10-1.40842E-08 8.21741E-09 1.67016E-09 1.60468E-09 2.74162E-10
 -1      2312-1.14679E-08-1.75678E-08 1.63110E-08 2.71502E-08 3.71896E-09-2.35614E-10
 -1      2313-7.20921E-09-1.05693E-08 1.03207E-08-1.59000E-08-2.13717E-09-5.75854E-10
 -1      2314 1.86452E-03 3.09254E-03-2.66079E-03-5.89954E-03-6.08385E-05 2.18193E-04
 -1      2315 2.21787E-03 3.75326E-03-3.11724E-03-6.68871E-03-1.86495E-04 4.80710E-04
 -1      2316 3.78828E-03 3.51951E-03-4.28186E-03-8.84255E-03-1.41315E-04-2.85847E-04
 -1      2317 1.38789E-02 3.99176E-04-8.24399E-03-1.47899E-02 1.40584E-03 2.36309E-04
 -1      2318 7.28381E-03 2.16427E-03-5.41106E-03-1.04999E-02 5.30706E-04 3.56030E-04
 -1      2319 2.53782E-03 1.27182E-03-2.21417E-03-5.27275E-03 1.06034E-04-4.50311E-05
 -1      2320 1.98796E-03 2.25897E-03-2.39417E-03-5.55513E-03 2.35641E-04-7.38136E-05
 -1      2321 4.26822E-03 2.62335E-03-3.84557E-03-8.57554E-03 3.56226E-04 3.55630E-04
 -1      2322 3.76782E-03-7.36064E-04-1.69000E-03-3.11832E-03-9.34206E-06-2.70042E-05
 -1      2323 3.17394E-03 2.49807E-05-1.79865E-03-3.59521E-03-2.18487E-05 4.53280E-05
 -1      2324 3.47768E-03 5.56831E-05-1.98065E-03-4.72178E-03 1.51447E-04-1.37528E-04
 -1      2325 5.44356E-03-1.37493E-04-2.99669E-03-7.05211E-03 4.09590E-04 1.00430E-04
 -1      2326 4.99571E-03-1.76116E-03-1.90079E-03-4.57747E-03-2.60942E-05-9.47720E-05
 -1      2327 3.82348E-03-1.19610E-03-1.48458E-03-1.92439E-03-2.20611E-05 1.39344E-05
 -1      2328 3.66055E-03-8.48858E-04-1.60239E-03-2.48833E-03-3.49658E-05 6.56396E-05
 -1      2329 4.15604E-03-1.46571E-03-1.54241E-03-2.68189E-03-2.31265E-05 4.01643E-05
 -1      2330 3.72288E-03-1.55695E-03-1.23656E-03-7.55958E-04-1.71355E-05-4.39611E-06
 -1      2331 3.87297E-03-1.48161E-03-1.34186E-03-1.30831E-03-1.69817E-05-2.76984E-05
 -1      2332 4.09362E-03-1.73035E-03-1.31053E-03-1.47327E-03-1.69875E-05 1.12129E-06
 -1      2333 2.79246E-03-1.17503E-03-8.98284E-04 3.98404E-04-2.23947E-05-3.59926E-06
 -1      2334 3.11836E-03-1.28655E-03-1.01936E-03 2.56360E-05-1.85796E-05 2.17623E-05
 -1      2335 3.43147E-03-1.53482E-03-1.06504E-03-1.33436E-04-7.34288E-06-1.90231E-05
 -1      2336 3.78243E-03-1.95997E-03-1.00913E-03-4.63368E-05-2.63056E-05 1.37511E-05
 -1      2337 3.02626E-03-1.61264E-03-8.20987E-04 7.43061E-04-2.80670E-05 2.86091E-06
 -1      2338 2.41712E-03-9.86139E-04-8.09298E-04 6.66277E-04-1.08825E-05 2.73628E-07
 -1      2339 1.42257E-03-3.80370E-04-5.78081E-04 9.35033E-04-1.03673E-05-2.82763E-06
 -1      2340 1.77035E-03-5.77457E-04-6.65322E-04 8.43231E-04-7.41274E-06 1.60260E-05
 -1      2341 1.97417E-03-7.35376E-04-6.96246E-04 8.89900E-04-5.28924E-06-3.80941E-06
 -1      2342 2.16823E-03-9.46624E-04-6.82941E-04 1.11464E-03-1.78181E-05 8.17949E-06
 -1      2343 1.47658E-03-5.22294E-04-5.49686E-04 1.26423E-03-1.32542E-05 8.07631E-06
 -1      2344 9.91787E-04-1.14279E-04-4.87919E-04 8.90479E-04 7.66974E-07 3.75368E-06
 -1      2345 1.28001E-03-2.80473E-04-5.60577E-04 8.76707E-04-2.06723E-06 6.03715E-06
 -1      2346 1.09469E-03-2.07055E-04-5.07495E-04 1.09075E-03-8.41798E-06 1.00094E-05
 -1      2347 5.38725E-04 1.51297E-04-3.90189E-04 8.47180E-04-5.65073E-06-3.08226E-06
 -1      2348 7.53061E-04 1.63618E-05-4.31817E-04 8.84499E-04-4.42037E-06 4.90515E-06
 -1      2349 7.08886E-04 3.70651E-05-4.18965E-04 1.00095E-03 2.17097E-06-2.61922E-06
 -1      2350 1.38772E-04 3.66669E-04-2.81645E-04 6.17272E-04-1.52332E-06 5.95175E-07
 -1      2351 2.82452E-04 2.99150E-04-3.24678E-04 6.92525E-04 1.18743E-06 4.09137E-06
 -1      2352-1.09100E-05 4.61941E-04-2.59254E-04 7.12653E-04-1.26512E-06 7.52280E-06
 -1      2353 3.11826E-04 2.83662E-04-3.35439E-04 7.70702E-04-4.58265E-06 2.58676E-06
 -1      2354 2.29929E-04 3.36419E-04-3.18424E-04 8.94170E-04-3.39873E-06 2.52316E-06
 -1      2355 3.18697E-05 4.22930E-04-2.57061E-04 5.42130E-04-4.91116E-06-9.81146E-07
 -1      2356-1.15873E-04 4.72254E-04-1.97676E-04 3.26461E-04-2.67256E-06 2.19737E-06
 -1      2357-5.74598E-05 4.53736E-04-2.20628E-04 3.99459E-04 1.25687E-06 6.92248E-06
 -1      2358-6.02472E-05 4.62763E-04-2.27223E-04 4.43113E-04-1.50033E-06 1.37852E-06
 -1      2359-1.21176E-04 5.09944E-04-2.17404E-04 5.04950E-04-2.23253E-06 1.94835E-06
 -1      2360-2.00527E-04 5.22569E-04-1.83745E-04 3.53824E-04-1.69166E-06 6.29076E-06
 -1      2361-1.48483E-04 4.75305E-04-1.83731E-04 2.24587E-04 5.44621E-07-6.39893E-07
 -1      2362-1.16444E-04 4.65213E-04-1.94979E-04 2.88406E-04 1.19559E-06 3.21864E-06
 -1      2363-1.85568E-04 4.93283E-04-1.72837E-04 2.65713E-04-1.81429E-06 2.58629E-07
 -1      2364-1.86806E-04 4.75527E-04-1.63002E-04 1.21166E-04-8.71220E-07 1.45581E-07
 -1      2365-1.70224E-04 4.71211E-04-1.68916E-04 1.76065E-04 9.28418E-07 1.91036E-06
 -1      2366-1.94878E-04 4.78738E-04-1.59842E-04 1.82024E-04-6.29457E-07-2.71371E-07
 -1      2367-1.94154E-04 4.64048E-04-1.49756E-04 7.16235E-07-2.33651E-07 1.75019E-06
 -1      2368-1.90780E-04 4.67534E-04-1.55221E-04 4.99116E-05 3.28004E-07 7.66565E-07
 -1      2369-2.13578E-04 4.39889E-04-1.28381E-04 2.26585E-05 1.42365E-06 2.12142E-06
 -1      2370-1.91806E-04 4.56161E-04-1.48510E-04 7.31384E-05-1.00860E-06 2.62778E-06
 -1      2371-2.12028E-04 4.49734E-04-1.33498E-04 8.63111E-05-7.83470E-08 1.50117E-06
 -1      2372-1.90721E-04 4.66043E-04-1.54178E-04-4.94956E-05-2.93300E-06 2.33971E-06
 -1      2373-1.72877E-04 4.72565E-04-1.68336E-04-1.75283E-04-1.39074E-06 3.07304E-06
 -1      2374-1.86184E-04 4.76089E-04-1.62595E-04-1.19156E-04 1.32104E-06 1.98225E-06
 -1      2375-1.91811E-04 4.57311E-04-1.49670E-04-7.41094E-05 3.57264E-07 1.37644E-06
 -1      2376-2.12122E-04 4.38258E-04-1.27732E-04-2.08297E-05-6.27695E-07 1.82387E-06
 -1      2377-2.15273E-04 4.51772E-04-1.33567E-04-8.41987E-05 5.53738E-07 1.50310E-06
 -1      2378-1.14567E-04 4.66889E-04-1.97749E-04-2.88692E-04-3.98866E-08 7.16598E-07
 -1      2379-1.49630E-04 4.74944E-04-1.81075E-04-2.23734E-04 1.38121E-06-1.93369E-07
 -1      2380-1.92878E-04 4.77053E-04-1.58992E-04-1.80937E-04 3.83243E-08 6.11617E-07
 -1      2381-5.98739E-05 4.54577E-04-2.19965E-04-3.98982E-04-2.20617E-06 4.24005E-06
 -1      2382-1.17981E-04 4.72129E-04-1.96345E-04-3.23968E-04 2.05017E-06 1.52925E-06
 -1      2383-1.84586E-04 4.95331E-04-1.76174E-04-2.62415E-04 3.02427E-07 2.37040E-06
 -1      2384 1.39921E-04 3.68456E-04-2.82580E-04-6.20318E-04 2.27736E-06 1.95697E-06
 -1      2385 3.21056E-05 4.24752E-04-2.58601E-04-5.42848E-04 3.34023E-06 1.10371E-06
 -1      2386-1.20622E-04 5.09341E-04-2.19240E-04-5.05936E-04 8.27085E-07-8.12919E-07
 -1      2387-5.91902E-05 4.59896E-04-2.25810E-04-4.44890E-04 2.11407E-06 4.72277E-08
 -1      2388-2.02774E-04 5.22777E-04-1.83398E-04-3.55695E-04 1.70538E-06 2.83740E-06
 -1      2389 2.83180E-04 2.99189E-04-3.25687E-04-6.93570E-04-1.84279E-06 4.10400E-06
 -1      2390 7.51701E-04 2.05704E-05-4.34729E-04-8.85630E-04 4.25487E-06 9.24156E-06
 -1      2391 5.38949E-04 1.53134E-04-3.91225E-04-8.48803E-04 5.58665E-06-1.69250E-06
 -1      2392 3.12563E-04 2.82468E-04-3.34891E-04-7.73244E-04 5.06212E-06 1.96828E-06
 -1      2393-1.17595E-05 4.61712E-04-2.59245E-04-7.15596E-04 3.00598E-06 6.65812E-06
 -1      2394 2.29337E-04 3.35674E-04-3.19035E-04-8.96500E-04 2.07097E-06 6.76010E-07
 -1      2395 1.27811E-03-2.80757E-04-5.61268E-04-8.71593E-04 2.87675E-06 7.99074E-06
 -1      2396 9.94960E-04-1.08374E-04-4.93967E-04-8.92733E-04 2.70505E-06 2.75844E-06
 -1      2397 7.09727E-04 4.31052E-05-4.21953E-04-1.00085E-03-1.43678E-07-2.18139E-07
 -1      2398 1.77741E-03-5.72090E-04-6.72256E-04-8.47031E-04 1.96369E-06 4.81312E-06
 -1      2399 1.42281E-03-3.83075E-04-5.78263E-04-9.34108E-04 3.23220E-06-3.96827E-06
 -1      2400 1.09358E-03-2.13358E-04-5.01026E-04-1.09413E-03 9.91822E-06 7.15812E-06
 -1      2401 2.78752E-03-1.17048E-03-9.06391E-04-3.95811E-04 4.68307E-06 1.59066E-06
 -1      2402 2.42138E-03-9.92251E-04-8.08695E-04-6.62751E-04 6.35587E-06-3.71535E-06
 -1      2403 2.16971E-03-9.60436E-04-6.72205E-04-1.12069E-03 1.16529E-05 4.37445E-06
 -1      2404 1.97010E-03-7.27425E-04-6.99610E-04-9.02055E-04 6.04879E-06-1.88317E-06
 -1      2405 1.47525E-03-5.26176E-04-5.46800E-04-1.27679E-03 1.63885E-05 1.05281E-05
 -1      2406 3.14556E-03-1.28999E-03-1.03823E-03-3.34107E-05 7.13502E-06 8.67947E-06
 -1      2407 3.84910E-03-1.49046E-03-1.33172E-03 1.31538E-03-1.06207E-05-1.32115E-05
 -1      2408 3.73483E-03-1.57955E-03-1.22350E-03 7.55813E-04 2.49265E-07-2.27719E-05
 -1      2409 3.78037E-03-1.97497E-03-1.00080E-03 1.77118E-05 2.38092E-05-2.17563E-06
 -1      2410 3.42618E-03-1.52548E-03-1.07098E-03 1.03075E-04 1.42065E-05-6.02855E-06
 -1      2411 3.02558E-03-1.60891E-03-8.11336E-04-7.58279E-04 3.76968E-05 3.94480E-06
 -1      2412 3.71837E-03-8.67433E-04-1.62095E-03 2.48296E-03 1.89704E-05 1.10885E-05
 -1      2413 3.83924E-03-1.21809E-03-1.48503E-03 1.90213E-03-9.34984E-06 3.76161E-07
 -1      2414 4.09497E-03-1.78025E-03-1.28147E-03 1.43986E-03 3.85517E-06-9.45050E-06
 -1      2415 3.14724E-03 5.94225E-05-1.74350E-03 3.60558E-03 4.31255E-05-1.06581E-05
 -1      2416 3.73390E-03-7.57143E-04-1.67714E-03 3.18308E-03-4.72042E-05-9.99191E-05
 -1      2417 4.25091E-03-1.59106E-03-1.59834E-03 2.68570E-03-7.76653E-05-1.64407E-05
 -1      2418 2.07745E-03 2.09734E-03-2.35759E-03 5.48738E-03-2.07061E-04-5.50009E-06
 -1      2419 2.56907E-03 1.31840E-03-2.20378E-03 5.30187E-03-1.09015E-04-2.61294E-05
 -1      2420 5.46838E-03-2.09736E-04-2.89537E-03 6.94773E-03-2.95409E-04 8.42851E-05
 -1      2421 3.47543E-03 7.87416E-05-2.06466E-03 4.62807E-03-8.44101E-05-1.44246E-04
 -1      2422 4.99514E-03-1.77450E-03-1.92615E-03 4.77446E-03-4.27228E-05-9.02835E-05
 -1      2423 1.98903E-03 3.63140E-03-2.93641E-03 6.38093E-03 2.83832E-04 6.83624E-04
 -1      2424 2.03553E-03 2.93282E-03-2.76271E-03 6.12117E-03-1.31935E-05 1.59519E-04
 -1      2425 4.42073E-03 2.48588E-03-3.85587E-03 8.44968E-03-3.93355E-04 3.95970E-04
 -1      2426 1.36249E-02 8.19447E-04-8.08470E-03 1.52674E-02-1.25963E-03 4.11118E-04
 -1      2427 3.84317E-03 3.99429E-03-4.65700E-03 8.65465E-03 2.40279E-04-2.86101E-04
 -1      2428 6.87794E-03 2.40172E-03-5.29708E-03 1.10700E-02-1.88451E-04 1.56710E-04
 -1      2429 4.72301E-08 1.19104E-08-3.09087E-08-9.01194E-08-3.64395E-10-4.87083E-09
 -1      2430 3.68215E-09 4.40069E-08-2.37952E-08-7.70325E-08-2.40754E-09 1.83771E-09
 -1      2431-1.02808E-08 5.63190E-08-2.52301E-08-6.20013E-08-1.92247E-09 3.20494E-09
 -1      2432-2.62807E-08 6.26743E-08-1.86297E-08-3.76957E-08-2.06331E-10-9.92761E-11
 -1      2433-5.32158E-08 6.09304E-09 2.63780E-08 4.13780E-08 4.25301E-09-5.40569E-09
 -1      2434-2.62836E-08 2.71338E-08-2.40607E-09-2.27821E-08 3.72179E-09-5.79161E-09
 -1      2435-6.13242E-08-2.43124E-09 3.60259E-08 3.74415E-08 9.27382E-10-6.36989E-09
 -1      2436 1.23048E-07-4.88443E-08-3.94691E-08-7.78705E-08-1.80015E-09 1.90271E-09
 -1      2437 7.80085E-08-1.34289E-08-3.70264E-08-9.11692E-08-1.68658E-09 4.94007E-10
 -1      2438-3.07844E-08 2.70415E-09 1.63699E-08-4.20732E-08-2.45452E-09 2.08020E-09
 -1      2439 1.84037E-07-9.02376E-08-5.46374E-08-3.74644E-08-8.02342E-10 7.66648E-10
 -1      2440 1.76531E-07-8.35226E-08-4.52380E-08 5.35168E-08-8.11468E-09-1.16317E-08
 -1      2441 2.03996E-07-1.02926E-07-4.77055E-08-3.07129E-09-5.13560E-09-6.00358E-09
 -1      2442 2.96921E-08-3.88042E-08 8.33371E-09-2.27041E-08 6.05745E-09 4.28862E-09
 -1      2443-1.64965E-07 3.20097E-08 7.68599E-08-2.16422E-08-1.08762E-08-7.99169E-09
 -1      2444-1.57809E-07 4.55476E-08 6.49392E-08-2.58071E-08-5.06851E-09-8.77733E-09
 -1      2445 7.29936E-08-1.18478E-08-4.47123E-08 5.06861E-08 8.45954E-09 1.09470E-08
 -1      2446 1.57893E-07-5.33742E-08-6.01540E-08 5.69981E-08 9.46808E-09 1.55025E-08
 -1      2447-5.50429E-08-3.34626E-08 5.08446E-08-3.55363E-08 5.87117E-09 2.99277E-08
 -1      2448 2.49552E-08-6.16880E-09-8.40199E-09-6.96155E-08-1.25783E-08 4.14508E-08
 -1      2449-3.75097E-07 8.53552E-09 2.27387E-07-4.29716E-07 2.94745E-08 4.29407E-08
 -1      2450-8.97785E-07 1.88638E-07 3.55297E-07-1.31217E-06 1.07161E-07 3.85390E-07
 -1      2451-4.07754E-07 2.50525E-08 2.46771E-07-3.61534E-07 1.14142E-07 1.13270E-07
 -1      2452-3.87694E-03 3.74490E-03 5.32906E-04-1.35895E-02-3.37671E-04-4.08583E-04
 -1      2453 9.03532E-03-4.72545E-03-3.25096E-03-2.11767E-02-1.60336E-03 2.84287E-03
 -1      2454-5.62742E-03 7.29404E-03-6.01111E-04-1.01926E-02 2.76466E-04-7.38751E-04
 -1      2455 3.58282E-03 7.25484E-04-2.70130E-03-1.27880E-02-1.97829E-04-1.15389E-04
 -1      2456-3.62765E-03 6.09771E-03-1.32206E-03-6.96770E-03 1.20580E-05-3.74078E-04
 -1      2457 4.07437E-02-1.32947E-02-1.46548E-02-1.71113E-02 1.04626E-03 4.40678E-03
 -1      2458 6.10329E-02-1.97357E-02-2.25877E-02-1.15031E-02 2.59581E-03-1.44088E-04
 -1      2459 2.89936E-02-9.69309E-03-1.05704E-02-8.50855E-03-7.22505E-04 2.19799E-03
 -1      2460 2.43214E-02-1.08774E-02-7.49042E-03-1.02658E-02-2.31530E-04 1.92847E-03
 -1      2461 3.46579E-02-1.16389E-02-1.33914E-02-4.59935E-03 6.17717E-04-1.38303E-03
 -1      2462 2.32417E-02-8.51485E-03-8.00105E-03-6.00968E-03-8.00402E-04-1.05907E-03
 -1      2463 7.64537E-02-3.09784E-02-2.62394E-02-3.69662E-03 4.33747E-04-1.74087E-03
 -1      2464 7.55140E-02-2.90523E-02-2.70570E-02 3.33884E-03-1.94617E-03-8.90410E-04
 -1      2465 6.64987E-02-2.67827E-02-2.25973E-02-1.32818E-02 1.52726E-03-1.80671E-03
 -1      2466 7.00044E-02-3.07503E-02-2.25346E-02-7.50457E-03-2.49635E-05-1.71920E-03
 -1      2467 5.34807E-02-1.95685E-02-1.88817E-02-1.43957E-02-4.74693E-05-1.04637E-04
 -1      2468 6.05745E-02-2.01588E-02-2.20330E-02 1.19015E-02-1.34958E-03-7.36960E-04
 -1      2469 3.95565E-02-1.45359E-02-1.48951E-02 1.86005E-02-2.16530E-05 3.68360E-03
 -1      2470 7.11022E-02-3.26884E-02-2.23345E-02 8.55984E-03 5.16530E-05-2.39059E-03
 -1      2471 6.66760E-02-2.60015E-02-2.44639E-02 1.32608E-02-8.16292E-04-2.02608E-03
 -1      2472 5.37010E-02-1.96890E-02-1.81962E-02 1.34203E-02-1.63428E-04-9.10217E-06
 -1      2473 8.98823E-03-3.80275E-03-3.63151E-03 2.16563E-02 1.28472E-03 4.51460E-03
 -1      2474-3.88233E-03 4.19690E-03-3.07533E-05 1.36140E-02 4.73440E-04-3.94856E-04
 -1      2475 2.59640E-02-1.19997E-02-8.77179E-03 1.14277E-02-1.58601E-04 1.30098E-03
 -1      2476 2.89779E-02-1.01313E-02-9.51567E-03 8.28870E-03 1.60551E-03 1.33105E-03
 -1      2477 3.38828E-02-1.05313E-02-1.38937E-02 4.25743E-03-9.85011E-04-8.37720E-04
 -1      2478 2.41518E-02-9.28414E-03-7.96749E-03 6.54726E-03 7.87879E-04-8.88072E-04
 -1      2479 3.80994E-03 9.25263E-04-2.91484E-03 1.25370E-02 1.32010E-04-3.52553E-04
 -1      2480-5.19626E-03 7.49766E-03-1.12478E-03 1.01217E-02-2.10839E-04-7.65950E-04
 -1      2481-3.11312E-03 5.71591E-03-1.31772E-03 6.45188E-03 6.52851E-05-1.98983E-04
 -1      2482 4.36969E-02-1.17610E-02-1.29315E-02-4.56700E-03-1.55349E-03-1.00970E-02
 -1      2483 4.01520E-02-1.54257E-02-1.27730E-02-4.76867E-03-1.24168E-03-5.10155E-03
 -1      2484 4.61723E-02-1.42379E-02-2.11537E-02 6.97009E-04 1.87599E-04 1.14625E-03
 -1      2485 2.53606E-02-1.34940E-02-4.88288E-03-6.88181E-03-2.22178E-03-3.42348E-03
 -1      2486 1.77854E-02-1.19266E-02-3.21363E-03-3.07892E-03-1.26785E-03-1.47202E-03
 -1      2487 3.33505E-02-1.36396E-02-8.87569E-03-6.30781E-03-1.15696E-03-4.51320E-03
 -1      2488 2.31958E-02-6.68140E-03-1.12154E-02-8.11440E-03 8.07335E-04 2.76330E-04
 -1      2489 2.50805E-02-1.10111E-02-5.92325E-03-7.40559E-03-1.88908E-03-2.51037E-03
 -1      2490 1.38535E-02-3.21911E-03-7.36392E-03-8.84752E-03 5.74129E-04 4.01158E-04
 -1      2491 3.55785E-02-1.18606E-02-1.55132E-02-3.28166E-03 5.47085E-04 6.57058E-04
 -1      2492 1.43621E-02-1.07623E-02-1.25047E-03-3.17080E-04-1.24141E-03-9.88620E-04
 -1      2493 9.18908E-03-7.41784E-03-8.48424E-04 1.69287E-03-5.52613E-04-2.03133E-04
 -1      2494 1.02920E-02-5.77482E-03-3.06807E-03-4.35620E-03-2.72530E-04-4.21118E-05
 -1      2495 6.40979E-03-4.75235E-03-7.53171E-04 2.29941E-03-2.50181E-04-2.29208E-04
 -1      2496 3.91718E-03-3.26625E-03-2.65561E-04 3.56288E-03-1.97941E-04 3.65768E-05
 -1      2497 2.42731E-03-1.47736E-03-3.81959E-04 3.06382E-03-2.23232E-04-4.26591E-05
 -1      2498 6.23542E-03-4.73603E-03-9.12464E-04 4.90127E-04-1.16500E-04-2.51147E-04
 -1      2499 8.75987E-04-4.00872E-04-1.84368E-04 3.06776E-03-1.11603E-04 4.61008E-05
 -1      2500 2.34413E-04 3.53086E-04-2.40481E-04 2.32362E-03-1.67403E-04 1.95605E-05
 -1      2501 2.85489E-03-2.01986E-03-5.25100E-04 2.21450E-03-7.89020E-05-9.29314E-05
 -1      2502-4.63981E-04 8.33117E-04-1.42556E-04 1.99261E-03-8.47687E-05 5.94151E-05
 -1      2503-5.98692E-04 1.02712E-03-1.80466E-04 1.33553E-03-8.37654E-05 3.67513E-05
 -1      2504 8.40620E-04-2.58727E-04-3.64629E-04 2.06986E-03-5.90526E-05-9.49846E-06
 -1      2505-8.89722E-04 1.13795E-03-9.67012E-05 9.19483E-04-3.57877E-05 3.82491E-05
 -1      2506-7.42401E-04 1.02617E-03-1.11268E-04 5.05103E-04-5.34438E-05 2.94166E-05
 -1      2507-1.68636E-04 5.88651E-04-2.61134E-04 1.39116E-03-2.75155E-05-1.17092E-05
 -1      2508-7.30965E-04 9.09947E-04-7.00860E-05 1.78742E-04-2.12522E-05 3.72511E-05
 -1      2509-5.07341E-04 7.03943E-04-7.52633E-05 1.36923E-05-3.46948E-05 3.83462E-05
 -1      2510-4.90171E-04 7.83845E-04-1.83085E-04 6.61489E-04-2.50773E-05-3.32362E-06
 -1      2511-4.18633E-04 5.54216E-04-5.40288E-05-1.16362E-04-1.17496E-05 3.54030E-05
 -1      2512-2.33348E-04 3.86188E-04-6.43577E-05-1.10860E-04-1.49899E-05 3.29720E-05
 -1      2513-4.33524E-04 6.41752E-04-1.27833E-04 2.02395E-04-1.64406E-05 1.18553E-05
 -1      2514-1.07429E-04 2.33713E-04-5.78487E-05-1.01644E-04-4.59843E-06 3.37673E-05
 -1      2515-7.11409E-05 1.67517E-04-4.08424E-05 2.02526E-06-1.96943E-06 2.76896E-05
 -1      2516-2.93493E-04 4.66232E-04-1.05745E-04 2.59775E-05-1.09684E-05 1.12782E-05
 -1      2517-1.76564E-04 2.84106E-04-4.48155E-05-1.16586E-04-4.02488E-06 2.52114E-05
 -1      2518-1.89992E-04 3.42085E-04-8.89366E-05 1.60914E-06 2.48147E-06 1.55708E-05
 -1      2519-7.25375E-05 2.02401E-04-5.57454E-05 4.40445E-05 7.35640E-06 3.58434E-05
 -1      2520-1.71462E-04 2.71800E-04-4.16050E-05 1.42335E-04 5.72233E-06 3.12997E-05
 -1      2521-1.86230E-04 3.23231E-04-8.24736E-05 2.50239E-05 5.55727E-06 1.17724E-05
 -1      2522-2.43097E-04 3.94365E-04-6.38839E-05 1.20288E-04 2.01949E-05 3.84531E-05
 -1      2523-4.41947E-04 5.70447E-04-5.09512E-05 1.19332E-04 1.69621E-05 3.68569E-05
 -1      2524-3.05715E-04 4.63906E-04-9.35623E-05-7.25598E-07 8.46185E-06 1.36763E-05
 -1      2525-5.01941E-04 7.07346E-04-8.81183E-05-1.91333E-05 3.46388E-05 4.07819E-05
 -1      2526-7.35838E-04 9.18762E-04-7.35900E-05-1.87689E-04 2.97928E-05 4.33046E-05
 -1      2527-4.60220E-04 6.63309E-04-1.24554E-04-2.09871E-04 1.48533E-05 1.42447E-05
 -1      2528-7.39147E-04 1.02714E-03-1.16879E-04-5.07003E-04 7.40679E-05 4.21175E-05
 -1      2529-8.90489E-04 1.14304E-03-1.02496E-04-9.26458E-04 6.48134E-05 4.83854E-05
 -1      2530-5.00801E-04 7.87226E-04-1.77951E-04-6.71720E-04 2.72599E-05 1.31407E-05
 -1      2531-6.28489E-04 1.02754E-03-1.46482E-04-1.35682E-03 1.11678E-04 3.63812E-05
 -1      2532-4.67291E-04 8.36031E-04-1.42122E-04-1.99325E-03 9.01093E-05 4.89164E-05
 -1      2533-1.55158E-04 5.78983E-04-2.53658E-04-1.39625E-03 5.10872E-05 1.09109E-05
 -1      2534 2.32971E-04 3.60540E-04-2.19348E-04-2.33944E-03 1.27360E-04 1.46915E-05
 -1      2535 8.76664E-04-3.69501E-04-1.97340E-04-3.04772E-03 1.09733E-04 4.85243E-05
 -1      2536 8.42388E-04-2.36120E-04-3.85536E-04-2.05247E-03 5.63917E-05-2.11881E-05
 -1      2537 2.38955E-03-1.53869E-03-2.80409E-04-3.11570E-03 1.83777E-04-5.32057E-05
 -1      2538 3.95772E-03-3.24612E-03-2.89143E-04-3.53579E-03 1.79400E-04 2.45558E-05
 -1      2539 2.83602E-03-1.96147E-03-5.48261E-04-2.18034E-03 8.17346E-05-6.71051E-05
 -1      2540 6.36318E-03-4.80830E-03-6.29698E-04-2.22533E-03 1.17250E-04-2.21936E-04
 -1      2541 9.27215E-03-7.50679E-03-7.49061E-04-1.62422E-03 3.94619E-04-2.22616E-04
 -1      2542 6.12685E-03-4.63669E-03-9.18481E-04-4.82705E-04 9.27215E-05-1.92286E-04
 -1      2543 1.43108E-02-1.07592E-02-1.12857E-03 3.32796E-04 1.09090E-03-1.18007E-03
 -1      2544 1.76804E-02-1.19749E-02-2.58461E-03 3.19986E-03 1.27271E-03-1.57234E-03
 -1      2545 2.49779E-02-1.36201E-02-3.98418E-03 6.80827E-03 2.17563E-03-3.88826E-03
 -1      2546 1.02261E-02-5.78955E-03-2.96292E-03 4.48104E-03 3.10625E-04 1.59872E-04
 -1      2547 3.99546E-02-1.51262E-02-1.23359E-02 4.89233E-03 9.41083E-04-5.44431E-03
 -1      2548 4.33843E-02-1.15837E-02-1.22088E-02 4.81557E-03 1.71778E-03-1.03770E-02
 -1      2549 3.31469E-02-1.31978E-02-7.93931E-03 6.55703E-03 1.35186E-03-4.96235E-03
 -1      2550 3.54109E-02-1.16574E-02-1.56557E-02 3.47912E-03-7.01959E-04-2.12831E-04
 -1      2551 2.52094E-02-1.10395E-02-5.72781E-03 7.37368E-03 2.16760E-03-2.78042E-03
 -1      2552 2.32935E-02-6.82110E-03-9.92901E-03 8.23990E-03-3.42458E-04-3.77095E-04
 -1      2553 1.42516E-02-3.39748E-03-7.01354E-03 8.83043E-03-6.63623E-04 1.53046E-04
 -1      2554 4.64102E-02-1.44321E-02-2.04423E-02-5.79435E-04-1.50802E-04 4.02901E-04
 -1      2555 3.97976E-02-8.56494E-03-1.71625E-02-9.15909E-03-1.77128E-04-1.04401E-03
 -1      2556 3.94796E-02-7.93903E-03-1.80645E-02 9.96054E-03-2.30055E-04-1.38521E-03
 -1      2557 5.17813E-02-1.82923E-02-1.86736E-02-3.56914E-03 7.48891E-05-2.76103E-05
 -1      2558 5.18679E-02-1.83478E-02-1.88044E-02-3.05491E-03 2.15744E-05-1.74830E-05
 -1      2559 5.09629E-02-1.74779E-02-1.89762E-02-4.64909E-03-1.07489E-04 1.45561E-04
 -1      2560 5.01860E-02-1.63651E-02-1.90335E-02-4.69955E-03-2.25587E-04 1.62149E-04
 -1      2561 4.91702E-02-1.48239E-02-1.95362E-02-7.22702E-03-2.74618E-04 6.39254E-04
 -1      2562 5.18929E-02-1.86140E-02-1.86874E-02-2.58532E-03 2.60066E-07-5.67752E-05
 -1      2563 5.18829E-02-1.86197E-02-1.87082E-02-2.66123E-03 1.58766E-05-1.11027E-05
 -1      2564 5.18186E-02-1.82716E-02-1.88611E-02-2.96740E-03-4.83201E-06 4.16191E-06
 -1      2565 5.17369E-02-1.87506E-02-1.86027E-02-3.20233E-03-4.24408E-05 6.69736E-08
 -1      2566 5.09245E-02-1.84481E-02-1.82663E-02-3.54031E-03-8.51251E-05 7.24100E-05
 -1      2567 5.20577E-02-1.88161E-02-1.87001E-02-2.77132E-03 4.29923E-05-4.71391E-05
 -1      2568 5.25055E-02-1.92156E-02-1.87123E-02-3.33834E-03-2.52471E-05-2.95496E-06
 -1      2569 5.23574E-02-1.89618E-02-1.87916E-02-2.63925E-03-5.96840E-06-3.29453E-05
 -1      2570 5.07305E-02-1.86566E-02-1.81457E-02-5.15962E-03-2.34468E-05 3.70085E-05
 -1      2571 4.84058E-02-1.78193E-02-1.73141E-02-5.88237E-03 7.72929E-05 9.33225E-07
 -1      2572 5.23562E-02-1.94479E-02-1.84932E-02-5.58819E-03 1.03128E-04 5.44569E-05
 -1      2573 4.62142E-02-1.68302E-02-1.64579E-02-6.63831E-03-3.60422E-05 2.33481E-04
 -1      2574 4.08117E-02-1.48015E-02-1.46568E-02-6.61796E-03 1.19487E-04 1.32011E-04
 -1      2575 5.04814E-02-1.87316E-02-1.77471E-02-9.15027E-03 4.76962E-05-2.25138E-06
 -1      2576 3.84990E-02-1.27085E-02-1.44562E-02-8.01449E-03-1.27309E-05 1.35531E-04
 -1      2577 4.52430E-02-1.56357E-02-1.66203E-02-1.23607E-02 1.69266E-04 1.95076E-04
 -1      2578 1.45182E-02-4.27154E-03-5.81551E-03-8.28011E-03-4.49180E-04 2.59716E-04
 -1      2579 8.36316E-03-1.75381E-03-3.57165E-03-6.61017E-03-1.64917E-04-2.31981E-04
 -1      2580 3.46697E-03 1.44387E-04-1.96296E-03-5.06997E-03 5.53538E-05-1.90375E-04
 -1      2581 2.84809E-03-5.88721E-04-1.18948E-03-1.99839E-03-8.29132E-06-1.83694E-04
 -1      2582 1.09158E-03-7.16067E-05-5.36194E-04-1.43707E-03 1.39767E-04-9.33113E-05
 -1      2583 8.57677E-04 1.46433E-03-1.29415E-03-5.72619E-03 3.23056E-05-1.34853E-04
 -1      2584 6.29102E-04-6.62746E-05-3.00301E-04-4.36926E-04 5.85504E-05 2.48547E-06
 -1      2585 6.15945E-05 3.40210E-05-2.62707E-05-2.11898E-04-1.98807E-05 5.11679E-06
 -1      2586 3.39102E-04 4.21792E-04-4.67201E-04-1.64813E-03 2.32820E-05-2.22140E-05
 -1      2587-2.59020E-05 2.61270E-05 8.03165E-06 2.78339E-05 7.06440E-06-1.88645E-05
 -1      2588-6.59730E-05 1.94742E-05 3.36487E-05 3.63510E-05-1.10588E-05 3.68905E-06
 -1      2589 1.17506E-04 7.13912E-05-1.16675E-04-2.46101E-04 5.14328E-06-1.21333E-05
 -1      2590-5.06386E-05 4.71745E-06 2.42922E-05 7.88554E-05-5.60650E-06 2.01752E-06
 -1      2591-1.55102E-05-1.08102E-05 1.45758E-05 6.53883E-05-1.72232E-06 9.43725E-06
 -1      2592 6.26898E-05-3.65513E-05-1.57999E-05 5.58111E-05 1.26846E-05 6.86024E-06
 -1      2593-3.73832E-05 7.81425E-06 1.54916E-05 3.53661E-05-2.38777E-06-5.50420E-07
 -1      2594 4.06083E-05-3.98068E-05-1.66319E-07 7.28336E-05 3.10315E-06 4.89299E-06
 -1      2595-3.20512E-05-3.15108E-06 1.90255E-05 5.28729E-05-6.24307E-07 9.26895E-07
 -1      2596 1.10904E-05-2.35747E-05 3.42262E-06 4.45993E-05-3.01725E-06 1.28275E-07
 -1      2597 5.20057E-02-1.86120E-02-1.87237E-02 2.77811E-03 2.34812E-05-4.37893E-05
 -1      2598 5.19669E-02-1.87013E-02-1.86323E-02 3.13627E-03-3.94920E-05-4.30452E-05
 -1      2599 5.08960E-02-1.73008E-02-1.91187E-02 4.78291E-03 1.89268E-04 2.21927E-04
 -1      2600 4.85280E-02-1.38425E-02-1.96437E-02 7.53066E-03 2.07729E-04 8.51635E-04
 -1      2601 5.20325E-02-1.81261E-02-1.89282E-02 4.03225E-03-1.46495E-04-1.20424E-04
 -1      2602 4.96081E-02-1.56417E-02-1.91725E-02 5.11418E-03 3.16251E-04 2.09746E-04
 -1      2603 5.15963E-02-1.77080E-02-1.89146E-02 3.78981E-03-6.83260E-05-1.55504E-05
 -1      2604 5.19823E-02-1.86478E-02-1.87456E-02 2.66963E-03 2.02348E-05-2.15792E-05
 -1      2605 5.19483E-02-1.86166E-02-1.87519E-02 2.61901E-03-5.65327E-06-3.62981E-05
 -1      2606 5.21668E-02-1.86208E-02-1.88364E-02 2.76605E-03-2.09228E-05-3.54918E-05
 -1      2607 5.13974E-02-1.86534E-02-1.84778E-02 3.47764E-03 7.29008E-05 2.30643E-05
 -1      2608 5.19697E-02-1.87849E-02-1.87182E-02 3.14196E-03-3.99221E-05 3.33055E-05
 -1      2609 5.27849E-02-1.92473E-02-1.88133E-02 2.95991E-03 2.89116E-05-3.30949E-05
 -1      2610 5.22135E-02-1.89122E-02-1.87532E-02 2.65292E-03 3.14079E-05-6.05253E-06
 -1      2611 5.24390E-02-1.89243E-02-1.88466E-02 2.54017E-03-3.19585E-06-1.96620E-05
 -1      2612 4.90425E-02-1.77223E-02-1.76256E-02 4.82858E-03-1.37275E-04 1.56756E-04
 -1      2613 5.10621E-02-1.85137E-02-1.83609E-02 4.21957E-03-6.58902E-05 1.97785E-05
 -1      2614 5.23780E-02-1.91131E-02-1.85990E-02 4.45867E-03-1.26639E-06-1.25809E-04
 -1      2615 4.09745E-02-1.44423E-02-1.48050E-02 7.00166E-03-1.58860E-04 9.06739E-05
 -1      2616 4.57490E-02-1.67659E-02-1.63538E-02 7.04519E-03 3.43454E-04 2.13351E-04
 -1      2617 5.12428E-02-1.91020E-02-1.79196E-02 1.01090E-02-1.34333E-04-2.99323E-05
 -1      2618 4.93069E-02-1.80545E-02-1.75769E-02 6.59728E-03-9.97380E-05-1.16157E-04
 -1      2619 5.24983E-02-1.99039E-02-1.84664E-02 6.86408E-03 8.86430E-05-2.05087E-04
 -1      2620 3.92919E-02-1.29743E-02-1.48086E-02 7.43368E-03-4.82517E-04 5.87956E-04
 -1      2621 4.57183E-02-1.53595E-02-1.73867E-02 1.20412E-02-6.18112E-04 3.51218E-04
 -1      2622 1.32689E-02-3.85011E-03-5.44137E-03 8.14019E-03 4.56595E-04 5.36034E-04
 -1      2623 3.31247E-03 2.10310E-04-1.79400E-03 4.99023E-03-1.46469E-05-1.40546E-04
 -1      2624 8.22863E-03-1.35794E-03-3.73804E-03 6.90155E-03 2.31509E-04-1.09430E-04
 -1      2625 1.04660E-03-1.51766E-04-3.95201E-04 1.22037E-03 2.19394E-05-1.47461E-05
 -1      2626 3.03250E-03-7.89880E-04-1.18319E-03 1.77224E-03-3.51317E-05-5.22313E-05
 -1      2627 1.00704E-03 1.16552E-03-1.04535E-03 5.45535E-03 1.74912E-04 5.60981E-05
 -1      2628 1.88150E-04 8.38211E-05-1.02668E-04 3.42569E-04 7.14047E-06-2.04808E-05
 -1      2629 4.76737E-04 7.40294E-05-2.75612E-04 6.50072E-04-3.73192E-05 1.10451E-05
 -1      2630 4.41795E-04 3.41158E-04-4.70491E-04 1.58396E-03-5.93759E-05-2.22068E-05
 -1      2631-4.39533E-05 1.71238E-05 2.15399E-05-5.29400E-05 2.87329E-06-1.85891E-05
 -1      2632-1.40220E-05-3.94174E-06 2.85082E-05-4.24412E-05 1.36169E-05-4.50526E-05
 -1      2633 1.53357E-04 1.27960E-04-1.74100E-04 3.66978E-04-2.92682E-05-2.37450E-05
 -1      2634-1.82480E-05-1.42120E-05 1.48066E-05-6.67718E-05-2.44480E-06 9.65544E-06
 -1      2635-3.64303E-05 5.11198E-06 1.64905E-05-8.92890E-05 9.39679E-06 1.36776E-05
 -1      2636 8.66314E-05-5.63005E-05-1.23655E-05-4.69837E-05 4.35469E-06 7.71140E-06
 -1      2637-9.87407E-06-8.40831E-06 7.42284E-06-3.73040E-05-9.28535E-07 2.91164E-06
 -1      2638-3.47310E-05-2.12197E-06 1.76841E-05-5.45566E-05 2.75816E-06-1.83525E-06
 -1      2639 4.96027E-05-4.24865E-05-1.68550E-06-7.48989E-05-2.44099E-06 3.90021E-06
 -1      2640 9.49045E-06-1.68026E-05 5.71741E-06-4.38114E-05-1.00422E-06 6.64835E-08
 -1      2641 1.29185E-07-6.02706E-08-3.99360E-08-4.34719E-08-5.06589E-09 1.74179E-08
 -1      2642 2.43542E-08-9.90481E-08 7.11484E-08 2.94324E-08 1.26938E-08 4.91172E-08
 -1      2643-2.72971E-07-3.41108E-10 1.08400E-07 3.81608E-07-9.58313E-08 9.13711E-08
 -1      2644-3.43178E-07-1.66524E-08 2.13032E-07 4.41329E-07-1.06222E-07 1.00009E-07
 -1      2645-7.80168E-07-4.22931E-08 3.87313E-07 1.10964E-06-1.10312E-07 4.68889E-07
 -1      2646 2.02157E-07-8.81850E-08-6.58172E-08-5.20183E-08-3.49651E-09 5.22328E-09
 -1      2647 2.26758E-07-1.08346E-07-6.43634E-08 2.56814E-08 3.96033E-09-1.15341E-08
 -1      2648 2.14665E-07-1.03749E-07-5.49236E-08-3.90955E-08 1.11057E-08-1.37386E-08
 -1      2649 9.35427E-09-6.44421E-08 2.54804E-08 5.15256E-08 3.50518E-10 2.21362E-09
 -1      2650 1.26524E-07-4.39443E-08-4.51807E-08 8.57871E-08-3.28055E-11-9.93588E-10
 -1      2651 1.79214E-07-8.11363E-08-5.33626E-08 5.92744E-08-4.47378E-10 1.37582E-09
 -1      2652-1.11088E-07 7.03252E-09 6.85786E-08 5.60832E-08 4.75302E-09-1.85859E-08
 -1      2653 5.85249E-08-4.62254E-08-4.99235E-09 5.01005E-08-6.42942E-11-4.09257E-09
 -1      2654-1.27320E-07 2.77669E-08 5.78348E-08 6.20292E-08 3.52611E-09-1.20609E-08
 -1      2655 5.73983E-08 1.64806E-08-3.93186E-08 1.08702E-07-1.32122E-09-3.92693E-09
 -1      2656 1.04376E-07-1.86430E-08-4.89425E-08 9.90422E-08-2.19597E-09-5.58243E-09
 -1      2657-1.35489E-08 6.92545E-09 1.48571E-09 7.29895E-08 1.63306E-09 1.38857E-09
 -1      2658 1.83327E-08 4.94152E-08-3.89429E-08 1.00411E-07 1.13416E-09-5.85451E-10
 -1      2659-2.14595E-08 6.85661E-08-2.55609E-08 4.81043E-08-5.44135E-10-8.12655E-10
 -1      2660-5.61367E-09 6.06939E-08-3.05170E-08 6.84739E-08 1.22895E-09 1.21488E-09
 -1      2661-2.29438E-08 3.67554E-08-7.07277E-09 3.31076E-08-2.62275E-09-6.06732E-09
 -1      2662-4.46198E-08 1.69301E-08 1.57571E-08-2.08352E-08-3.78491E-09-5.17524E-09
 -1      2663-5.07250E-08 1.07859E-08 2.05708E-08-8.09464E-09-5.51362E-09-5.18494E-09
 -1      2664-2.99424E-08 7.24416E-08-2.38760E-08 3.02337E-08 5.10435E-10-6.38590E-10
 -1      2665-2.91922E-08 6.64949E-08-2.01680E-08 1.89794E-08-1.97226E-09-6.36832E-10
 -1      2666-2.82158E-08 3.50864E-08-4.60156E-09 6.71651E-09 6.43900E-10-1.16178E-10
 -1      2667-3.25194E-08 6.90331E-08-1.96502E-08-1.34738E-08 1.39276E-09-6.43612E-10
 -1      2668-2.55991E-08 6.75876E-08-2.38594E-08-3.08667E-08 1.37547E-09 1.56536E-10
 -1      2669-3.81076E-08 3.56156E-08 5.90119E-10 6.32446E-09 9.14556E-10-2.08331E-09
 -1      2670-1.74244E-08-1.59514E-08 2.07819E-08 2.74835E-08 2.00102E-09-1.21149E-09
 -1      2671-1.19105E-07 3.04374E-08 5.13210E-08 4.70439E-08-3.77761E-09-4.54872E-09
 -1      2672-1.19583E-07 1.78034E-08 6.01645E-08 2.64919E-08-3.37442E-09-7.14946E-09
 -1      2673-2.46626E-07 3.42063E-08 1.32501E-07-1.27536E-07-1.56014E-08 2.88723E-08
 -1      2674-3.11643E-07 1.03621E-08 1.64765E-07-2.06504E-07 3.82202E-08 5.56214E-08
 -1      2675-1.02200E-06-3.77971E-07 8.12099E-07-3.79278E-08-1.44820E-07 1.68193E-07
 -1      2676 1.39024E-06-3.78078E-06 1.36668E-06 4.80378E-06-1.15685E-07-3.21938E-07
 -1      2677 3.57663E-06-8.30005E-06 2.55728E-06 4.17557E-06-2.56822E-07 7.92892E-08
 -1      2678 3.48113E-06-7.98444E-06 2.62906E-06-4.00832E-06 3.40551E-07-1.56464E-07
 -1      2679 1.59255E-06-3.42893E-06 1.25043E-06-4.29809E-06 3.20370E-07-1.53079E-07
 -1      2680 5.95244E-06-1.20608E-05 3.39982E-06-3.07108E-07-1.42875E-07 9.95025E-09
 -1      2681 6.36578E-06-1.11211E-05 2.51874E-06-5.64138E-06 3.73497E-07 4.60984E-07
 -1      2682 6.89813E-06-1.18950E-05 2.89471E-06 5.75260E-06-3.40012E-07 5.02474E-07
 -1      2683-1.05657E-06-2.67723E-07 6.75274E-07 1.66464E-07-2.59240E-08 9.74015E-08
 -1      2684-1.84582E-07-7.00089E-09 1.16931E-07 1.50219E-07 2.22460E-08-1.12801E-08
 -1      2685-2.06353E-07 1.36644E-08 1.14317E-07 1.31751E-07 1.39388E-08-1.12876E-08
 -1      2686-8.86505E-08 2.00617E-08 4.73368E-08 4.80537E-09-5.34217E-09-3.04154E-09
 -1      2687-9.45505E-08 3.27624E-08 3.68993E-08-1.34378E-08-7.17888E-09-8.57071E-09
 -1      2688-1.62409E-08-1.04307E-09 1.17127E-08-1.23745E-08-5.14013E-10-5.38342E-11
 -1      2689 2.61559E-05 4.76671E-04-2.82413E-04-1.17125E-03 3.66561E-06 1.74038E-05
 -1      2690 3.97386E-05 4.54180E-04-2.79800E-04-1.00972E-03 1.25117E-05 5.02788E-06
 -1      2691 4.80102E-04 1.77437E-04-3.71749E-04-1.11778E-03 6.07392E-06 4.04100E-06
 -1      2692 7.23303E-04 3.26921E-05-4.32713E-04-1.13062E-03 2.34499E-06 1.90892E-06
 -1      2693 8.68975E-04-6.75550E-05-4.45240E-04-1.22324E-03 1.19415E-05 3.02058E-06
 -1      2694 7.82407E-04-5.91801E-05-4.03029E-04-1.46451E-03 1.91733E-05 6.21477E-07
 -1      2695 3.71827E-04 2.37277E-04-3.41063E-04-1.48609E-03 3.53749E-05 1.00930E-05
 -1      2696-2.51179E-04 4.43950E-04-1.10437E-04-5.37058E-05-9.22264E-07 6.48393E-06
 -1      2697-2.27211E-04 4.27597E-04-1.12602E-04-5.45614E-05-5.15815E-07 5.71581E-06
 -1      2698-2.32345E-04 4.82766E-04-1.40986E-04-1.39485E-04 2.38122E-06 6.07518E-07
 -1      2699-2.13796E-04 4.86358E-04-1.54739E-04-1.89731E-04 4.39332E-07-1.81926E-06
 -1      2700-2.22994E-04 5.04029E-04-1.59070E-04-2.21803E-04 1.79865E-06 1.96438E-06
 -1      2701-2.86594E-04 5.37639E-04-1.40670E-04-1.98128E-04-5.69573E-07 8.67674E-06
 -1      2702-3.07902E-04 5.19434E-04-1.15464E-04-1.14945E-04 5.90871E-06 5.28251E-06
 -1      2703 1.86853E-05-2.55747E-05 3.56070E-06-2.42981E-05 9.31776E-07-1.13050E-06
 -1      2704 1.49962E-05-1.93865E-05 2.51182E-06-1.05629E-05 1.32316E-06 5.18544E-07
 -1      2705 1.97087E-05-2.28733E-05 1.80130E-06-5.40671E-06-3.55859E-07-2.12761E-07
 -1      2706 2.78054E-05-3.17634E-05 2.45475E-06 4.11082E-06-6.05373E-07 5.53313E-07
 -1      2707 4.85203E-05-4.67423E-05-3.15463E-06 1.16452E-05-1.94365E-06-8.25650E-07
 -1      2708 5.27669E-05-4.99585E-05-1.66755E-06-4.07560E-06 7.43227E-08-1.68071E-06
 -1      2709 1.83956E-05-2.14440E-05 2.85649E-06 7.86695E-06-1.90152E-07 1.70904E-08
 -1      2710 6.01447E-05-5.15194E-05-4.79242E-06-2.59137E-05-2.48430E-06-3.48202E-06
 -1      2711 3.23386E-05-3.84149E-05 4.22521E-06-3.22514E-05-3.32271E-07-2.08075E-06
 -1      2712-2.91518E-04 8.67854E-04-3.12330E-04 5.79765E-04-1.50677E-05 1.11735E-05
 -1      2713 9.40742E-05 2.58794E-04-2.18712E-04 4.13935E-04-2.59404E-05-5.48395E-05
 -1      2714-1.67961E-04 4.65298E-04-1.61925E-04 1.22524E-04-1.44559E-05-4.02972E-06
 -1      2715-1.21641E-03 1.94291E-03-3.78665E-04 1.73299E-04-5.76871E-05-7.18731E-06
 -1      2716-9.94569E-04 1.66153E-03-4.04014E-04 8.79090E-04 1.09444E-05-9.08559E-05
 -1      2717 9.89225E-05 1.05429E-04-1.03714E-04 6.23301E-05-7.90469E-06-9.22506E-06
 -1      2718-1.68106E-04 4.90047E-04-1.84452E-04 1.23320E-05-6.90880E-06 1.06968E-05
 -1      2719-1.63018E-04 4.99576E-04-1.85000E-04-1.29038E-04 2.21840E-05-2.64100E-05
 -1      2720 9.51095E-05 1.68893E-04-1.70239E-04-3.23225E-04 2.98958E-05-6.01962E-06
 -1      2721-2.67542E-04 7.62975E-04-2.59051E-04-4.29319E-04 1.41179E-05-2.48973E-06
 -1      2722 9.89730E-05 9.19725E-05-9.27067E-05-2.59310E-05 1.06062E-05 5.54328E-06
 -1      2723-3.71988E-04 9.61332E-04-3.57377E-04-9.45625E-04 4.11338E-06 7.20602E-06
 -1      2724-9.24277E-04 1.46654E-03-3.58111E-04-6.00702E-04 3.79583E-06-1.63646E-05
 -1      2725-1.71395E-03 2.57842E-03-4.90047E-04-5.30285E-04-3.03176E-05-3.86929E-05
 -1      2726 4.63363E-02-1.26503E-02-1.88489E-02 2.18014E-03 5.01144E-05 9.55202E-05
 -1      2727 4.59490E-02-1.23509E-02-1.89241E-02 3.99427E-03 9.51759E-05 2.64834E-04
 -1      2728 4.79349E-02-1.39422E-02-1.90780E-02 4.04442E-03 1.15023E-04 1.99930E-04
 -1      2729 4.67061E-02-1.35350E-02-1.86851E-02 8.81279E-04 2.06485E-06 1.00193E-04
 -1      2730 4.53367E-02-1.25527E-02-1.84393E-02 4.87281E-04 6.14307E-06 2.08794E-04
 -1      2731 4.38449E-02-1.07255E-02-1.87030E-02 2.82826E-03 1.91280E-04 9.84764E-05
 -1      2732 4.56978E-02-1.15890E-02-1.90893E-02 5.39777E-03 2.18087E-04 4.01390E-04
 -1      2733 4.45258E-02-1.24458E-02-1.79975E-02-7.22196E-04 9.20689E-05 1.88118E-04
 -1      2734 4.39141E-02-1.13644E-02-1.82345E-02 6.20762E-04 2.23220E-05 8.42713E-05
 -1      2735 4.29877E-02-1.04414E-02-1.82900E-02 1.50769E-03 1.90556E-04 1.40498E-05
 -1      2736-2.92947E-04 5.12855E-04-1.23386E-04 1.17537E-04-5.34167E-06 7.58458E-06
 -1      2737-2.72742E-04 5.23372E-04-1.40756E-04 1.96327E-04-2.30045E-06 3.24878E-06
 -1      2738-2.20307E-04 5.03473E-04-1.58303E-04 2.25319E-04-2.40585E-06 2.31183E-06
 -1      2739-2.13365E-04 4.87481E-04-1.55681E-04 1.91086E-04-8.41896E-07 7.72023E-07
 -1      2740-2.30147E-04 4.81809E-04-1.43731E-04 1.43395E-04 1.76238E-07 2.41337E-06
 -1      2741-2.27773E-04 4.41732E-04-1.20304E-04 7.11549E-05 1.16052E-06 4.82119E-06
 -1      2742-2.50934E-04 4.56294E-04-1.15320E-04 7.19646E-05 2.40320E-06 7.11848E-06
 -1      2743 4.32167E-02-1.51906E-02-1.57628E-02-1.15378E-03-1.76250E-04 8.65612E-04
 -1      2744 4.51551E-02-1.53872E-02-1.68144E-02-2.07564E-03-2.40752E-04 8.25559E-04
 -1      2745 4.48346E-02-1.53258E-02-1.68902E-02-1.38914E-03-1.53918E-04 9.51950E-04
 -1      2746 4.07861E-02-1.49920E-02-1.47566E-02-7.65962E-04-8.03550E-04 2.79645E-04
 -1      2747 4.26362E-02-1.42453E-02-1.59642E-02-1.80440E-03-7.92890E-05 3.63818E-04
 -1      2748 4.13931E-02-1.44463E-02-1.52313E-02-1.26979E-03-3.94583E-04 4.68854E-04
 -1      2749 4.08835E-02-1.36639E-02-1.53963E-02-7.21270E-04-1.68658E-04 3.48172E-04
 -1      2750 4.38681E-02-1.44025E-02-1.66017E-02-2.35952E-03-1.47779E-04 3.18507E-04
 -1      2751 4.31447E-02-1.33956E-02-1.67426E-02-2.01393E-03-6.66938E-05 9.49571E-05
 -1      2752 4.57573E-02-1.48961E-02-1.73936E-02-1.99723E-03-8.79584E-05 4.45340E-04
 -1      2753 3.86345E-02-1.37302E-02-1.41041E-02 3.64534E-04-6.79524E-04 1.41486E-04
 -1      2754 4.74950E-02-1.64603E-02-1.74865E-02-9.78818E-04 1.04738E-04 7.56024E-04
 -1      2755 4.82841E-02-1.49732E-02-1.86699E-02-1.36745E-04-3.36809E-07 4.10248E-05
 -1      2756 4.84877E-02-1.51771E-02-1.86979E-02-1.21251E-05 5.27610E-06 6.62071E-05
 -1      2757 4.85529E-02-1.50311E-02-1.88273E-02-3.39355E-04 2.42544E-06 6.78829E-05
 -1      2758 4.82810E-02-1.49702E-02-1.86809E-02-7.26532E-06 3.46440E-05 6.26718E-05
 -1      2759 4.84634E-02-1.50032E-02-1.88143E-02 1.25667E-04 2.27927E-05 8.90583E-05
 -1      2760 4.91761E-02-1.55132E-02-1.89352E-02-4.27344E-05 6.58479E-06 1.92356E-05
 -1      2761 4.90541E-02-1.53785E-02-1.89453E-02-4.46969E-04-1.64824E-05 4.81891E-05
 -1      2762 4.87973E-02-1.52137E-02-1.88747E-02 7.08661E-04 3.49944E-05 6.17463E-05
 -1      2763 4.91269E-02-1.54209E-02-1.89316E-02 4.02031E-04 8.58734E-06 3.34315E-05
 -1      2764 4.96029E-02-1.58518E-02-1.89779E-02 4.66786E-04-6.47587E-06 2.12179E-05
 -1      2765 4.38216E-02-1.14684E-02-1.81825E-02-7.80956E-04-1.02994E-04 1.41772E-05
 -1      2766 4.43443E-02-1.25027E-02-1.78518E-02 7.01283E-04-1.94436E-04 1.46442E-04
 -1      2767 4.54479E-02-1.25151E-02-1.85111E-02-8.00511E-04-4.50081E-05 1.28670E-04
 -1      2768 4.52449E-02-1.36167E-02-1.76977E-02 1.46640E-03-1.10440E-04 2.77169E-04
 -1      2769 4.37532E-02-1.27545E-02-1.73291E-02 1.49099E-03-2.13325E-04 1.69838E-04
 -1      2770 4.38571E-02-1.07271E-02-1.87238E-02-3.30356E-03-3.25963E-04 1.81898E-04
 -1      2771 4.25788E-02-1.04463E-02-1.81717E-02-1.44705E-03-5.19960E-04 5.08930E-05
 -1      2772 4.24142E-02-1.23181E-02-1.68488E-02 1.24342E-03-1.85992E-04 9.84070E-05
 -1      2773 4.29544E-02-1.34007E-02-1.66718E-02 1.91939E-03 5.55273E-05 1.92241E-04
 -1      2774 4.14354E-02-1.14905E-02-1.68769E-02 3.57513E-04-3.45522E-04-5.92830E-05
 -1      2775 4.24053E-02-1.08943E-02-1.76835E-02-4.08469E-05-3.44851E-04-2.14445E-04
 -1      2776 4.19400E-02-9.77520E-03-1.80684E-02-2.29864E-03-3.61947E-04-1.56367E-04
 -1      2777 5.15440E-02-1.77548E-02-1.90072E-02 2.16324E-04 7.23997E-06-1.18040E-05
 -1      2778 5.12351E-02-1.74664E-02-1.89891E-02-7.97761E-04-1.04013E-05 9.18133E-06
 -1      2779 5.05854E-02-1.67911E-02-1.89979E-02-1.11339E-04 4.62082E-06 1.06956E-05
 -1      2780 4.99745E-02-1.61895E-02-1.89869E-02-5.74110E-04-3.64529E-06 6.70026E-06
 -1      2781 5.02511E-02-1.64725E-02-1.89862E-02 4.26976E-04-8.36316E-07 1.65743E-06
 -1      2782 5.18421E-02-1.80407E-02-1.90039E-02 1.10750E-03-1.34768E-05-4.05936E-06
 -1      2783 5.24847E-02-1.87563E-02-1.89707E-02 4.14533E-04-2.29191E-07-1.06148E-05
 -1      2784 5.01778E-02-1.64062E-02-1.89714E-02 9.84853E-04 4.54218E-06 2.83687E-05
 -1      2785 4.97878E-02-1.60078E-02-1.89659E-02 1.69313E-03 3.82980E-05 5.67621E-05
 -1      2786 5.04847E-02-1.67310E-02-1.89783E-02 1.63434E-03 1.12196E-05 2.21419E-05
 -1      2787 5.12734E-02-1.75271E-02-1.89770E-02 1.73591E-03-2.35174E-06 2.71885E-05
 -1      2788 5.22135E-02-1.84625E-02-1.89832E-02 1.86942E-03-1.36769E-05 5.51131E-06
 -1      2789 5.10052E-02-1.72661E-02-1.89482E-02 2.42039E-03 3.10541E-05 1.59480E-05
 -1      2790 4.58047E-03-2.55774E-03-1.14769E-03-1.09434E-03-3.36739E-05-2.93257E-05
 -1      2791 4.27315E-03-2.72594E-03-8.76727E-04 3.97529E-04-5.31674E-05 8.62071E-06
 -1      2792 4.92106E-03-3.33424E-03-9.44870E-04 2.61288E-04-5.23567E-05 3.12102E-05
 -1      2793 4.53466E-03-2.14506E-03-1.35549E-03-1.86261E-03-1.86335E-05 2.78372E-05
 -1      2794 6.43632E-03-4.22698E-03-1.19909E-03-1.55482E-03-6.19382E-05-1.67564E-04
 -1      2795 5.96232E-03-3.45465E-03-1.38353E-03-2.75785E-03-2.37725E-05-4.68255E-05
 -1      2796 4.80923E-03-2.17322E-03-1.44729E-03-2.46574E-03-1.13980E-05 6.57735E-05
 -1      2797-3.27661E-04 6.35355E-04-1.69939E-04 3.96081E-04-9.74699E-06 9.49691E-06
 -1      2798-2.50192E-04 5.91614E-04-1.92637E-04 5.07428E-04-3.99931E-06 2.95200E-06
 -1      2799-3.07709E-04 5.65170E-04-1.42472E-04 2.41466E-04 1.03889E-06 5.48148E-06
 -1      2800 9.53759E-03-4.35494E-03-2.88669E-03-6.87400E-03 1.83625E-05-3.67771E-04
 -1      2801 8.43512E-03-2.25032E-03-3.40002E-03-7.87501E-03 2.26849E-04-1.22853E-04
 -1      2802 7.62123E-03-4.34057E-03-1.92519E-03-3.88499E-03-9.59028E-05-1.30258E-04
 -1      2803 4.91176E-02-1.54643E-02-1.89961E-02 3.28561E-03 1.12903E-04 9.48492E-05
 -1      2804 5.03951E-02-1.64931E-02-1.90430E-02 3.19642E-03 4.39333E-05 9.46561E-05
 -1      2805 4.90663E-02-1.52527E-02-1.89713E-02 2.45828E-03 1.44228E-05 5.66172E-05
 -1      2806 4.87393E-02-1.49747E-02-1.89559E-02 1.63159E-03-5.51926E-06 2.15004E-05
 -1      2807 4.79198E-02-1.42872E-02-1.88890E-02 1.22763E-03-2.40007E-06 9.26833E-05
 -1      2808 4.71036E-02-1.39974E-02-1.86478E-02-2.29805E-05-4.33413E-05 1.73544E-04
 -1      2809 4.10894E-02-1.13764E-02-1.66820E-02 6.36471E-04-2.41970E-05-6.01178E-05
 -1      2810 4.10704E-02-1.05781E-02-1.71659E-02 2.21316E-03 2.03538E-04-5.38390E-04
 -1      2811 4.12302E-02-8.69762E-03-1.82432E-02 2.52442E-03 5.01424E-04-1.52426E-04
 -1      2812 4.17265E-02-8.44553E-03-1.87846E-02 4.67164E-03 8.75982E-04 2.90991E-04
 -1      2813 4.23877E-02-9.66875E-03-1.83643E-02 2.53523E-03 3.72222E-04 2.84272E-05
 -1      2814 4.15507E-02-1.16770E-02-1.68837E-02-4.71326E-04 6.95529E-05-2.16716E-05
 -1      2815 4.11964E-02-1.28594E-02-1.59478E-02-3.89395E-04 2.82268E-04 9.20985E-05
 -1      2816 4.22493E-02-1.07443E-02-1.77732E-02 2.35877E-04 2.03845E-04-1.18815E-04
 -1      2817 4.25023E-02-1.21737E-02-1.70115E-02-1.25660E-03 8.94107E-05-3.46000E-05
 -1      2818 4.57230E-02-1.11692E-02-1.93972E-02 6.76281E-03 5.80816E-04 9.87310E-04
 -1      2819 3.99628E-02-1.27603E-02-1.53410E-02-3.92906E-03 2.05422E-04-1.37983E-04
 -1      2820 4.02067E-02-9.98353E-03-1.67325E-02-2.57878E-03-4.85070E-04-1.08044E-04
 -1      2821 4.02745E-02-1.06506E-02-1.65641E-02-5.24841E-03-4.76597E-04-8.66629E-04
 -1      2822 3.90317E-02-1.23721E-02-1.55962E-02-1.27607E-02 1.67535E-03-1.63468E-03
 -1      2823 3.89237E-02-1.27854E-02-1.47373E-02-2.00474E-03 1.71732E-04 1.17665E-05
 -1      2824 3.80484E-02-1.31592E-02-1.39644E-02-6.02786E-03 2.89378E-04 1.19699E-04
 -1      2825 3.25961E-02-1.07506E-02-1.20891E-02-1.01134E-02 1.27009E-04-1.90026E-04
 -1      2826 3.24965E-02-1.12632E-02-1.20439E-02-7.47847E-03 7.10324E-04 1.15455E-06
 -1      2827 2.86650E-02-7.10048E-03-1.20812E-02-1.39614E-02 5.72041E-04 1.56162E-04
 -1      2828 2.41673E-02-5.60243E-03-1.00112E-02-1.34038E-02 1.53236E-03-3.91116E-04
 -1      2829 5.36886E-02-2.04769E-02-1.87258E-02 4.82959E-03-1.75548E-05 4.46871E-05
 -1      2830 5.48738E-02-2.13514E-02-1.87528E-02 6.11022E-03-1.02326E-04-4.87178E-05
 -1      2831 5.66822E-02-2.30710E-02-1.88735E-02 6.99418E-03-1.74449E-04-1.80425E-04
 -1      2832 5.72378E-02-2.33694E-02-1.91106E-02 4.72921E-03-1.16117E-05-1.38613E-04
 -1      2833 5.67187E-02-2.27665E-02-1.91786E-02 2.30941E-03 3.94890E-05 5.57850E-05
 -1      2834 5.60829E-02-2.20217E-02-1.91544E-02 1.24742E-03 4.27997E-05 8.81829E-05
 -1      2835 5.48143E-02-2.10653E-02-1.89090E-02 3.09154E-03 8.49563E-06 4.75746E-06
 -1      2836 5.89116E-02-2.43016E-02-1.93928E-02 2.37639E-03 8.77322E-06-1.64470E-04
 -1      2837 5.38614E-02-2.04051E-02-1.87972E-02 3.84693E-03-8.16142E-06-1.30130E-05
 -1      2838 5.35296E-02-2.00406E-02-1.88615E-02 2.95734E-03 5.65088E-05-4.44805E-05
 -1      2839 3.94781E-02-1.09169E-02-1.67774E-02 1.30027E-02-1.02947E-03-1.49179E-03
 -1      2840 4.13189E-02-1.15903E-02-1.69442E-02 5.13774E-03-5.25546E-05-1.00951E-03
 -1      2841 3.96788E-02-1.29877E-02-1.48784E-02 4.06007E-03 2.09363E-04-5.55374E-04
 -1      2842 3.26545E-02-1.06870E-02-1.25293E-02 1.03363E-02-3.16659E-04-2.26745E-04
 -1      2843 2.40950E-02-5.54020E-03-9.94013E-03 1.35390E-02-1.26433E-03-1.31892E-04
 -1      2844 2.81344E-02-7.30358E-03-1.14553E-02 1.37606E-02-8.53394E-04-9.19362E-04
 -1      2845 3.30869E-02-1.15566E-02-1.22589E-02 7.31238E-03-3.43363E-04 2.89707E-04
 -1      2846 3.81345E-02-1.34887E-02-1.37745E-02 5.69286E-03-2.75373E-04-6.91823E-04
 -1      2847 3.94688E-02-1.31557E-02-1.47110E-02 2.01025E-03 2.56454E-04-1.64805E-04
 -1      2848 5.46780E-02-2.16961E-02-1.85821E-02-1.20915E-02 1.23538E-04-9.34986E-05
 -1      2849 5.66868E-02-2.30936E-02-1.90679E-02-9.67486E-03 2.29796E-04-1.50719E-04
 -1      2850 4.79676E-04 1.66717E-04-3.63806E-04 1.11848E-03-3.06803E-06 1.42506E-07
 -1      2851 4.05662E-05 4.57219E-04-2.86466E-04 1.01092E-03-1.12972E-05 5.20588E-06
 -1      2852 1.19155E-05 4.74645E-04-2.84898E-04 1.17178E-03 5.85102E-06 1.18076E-05
 -1      2853 7.25553E-04 2.30478E-05-4.25521E-04 1.12598E-03 6.08251E-06-4.34480E-06
 -1      2854 3.71507E-04 2.17541E-04-3.23161E-04 1.48739E-03-1.90169E-05 2.02140E-06
 -1      2855 7.80198E-04-4.95949E-05-4.08193E-04 1.47848E-03-1.66217E-05 1.16509E-05
 -1      2856 8.72587E-04-6.75379E-05-4.52213E-04 1.21871E-03-6.49947E-06 4.87394E-06
 -1      2857 5.71550E-02-2.36265E-02-1.89488E-02 1.00236E-02 2.76733E-04-3.57220E-04
 -1      2858 5.49456E-02-2.14450E-02-1.85488E-02 1.25854E-02 1.02666E-04-2.23435E-04
 -1      2859-1.94233E-04 3.81420E-04-1.05056E-04 3.26008E-06-1.50094E-06 3.87557E-06
 -1      2860-1.96920E-04 3.81606E-04-1.02103E-04 1.32123E-05 5.24410E-07 3.09426E-06
 -1      2861-2.20671E-04 4.10579E-04-1.05777E-04 2.83781E-05-3.18828E-06 5.86730E-06
 -1      2862 2.89442E-02-9.75744E-03-1.09704E-02-8.57351E-03 1.44446E-03 7.64317E-04
 -1      2863 2.09298E-02-5.86149E-03-8.73780E-03-1.10940E-02 1.03370E-03 6.50692E-04
 -1      2864 9.45466E-03-1.01330E-03-4.97259E-03-9.63299E-03 4.36659E-04 3.21779E-04
 -1      2865 9.49485E-03-1.58611E-04-5.40898E-03-1.02135E-02 5.53898E-04 4.47318E-04
 -1      2866 1.92428E-02-3.59016E-03-9.07377E-03-1.25495E-02 1.27381E-03 1.20443E-03
 -1      2867 1.42301E-02-1.88912E-03-6.88661E-03-1.16263E-02 1.01246E-03 5.93734E-04
 -1      2868 4.65810E-02-1.28892E-02-1.88722E-02-2.65054E-03-1.05137E-04-5.33682E-06
 -1      2869 4.67703E-02-1.36523E-02-1.85863E-02-1.08705E-03-9.04460E-05 1.46810E-04
 -1      2870 4.67314E-02-1.42129E-02-1.82777E-02 5.94328E-04-2.46789E-05 3.06764E-04
 -1      2871 4.64379E-02-1.46577E-02-1.77795E-02 1.24301E-03-9.21701E-05 4.56434E-04
 -1      2872 4.72006E-02-1.52333E-02-1.78483E-02 1.11904E-03 2.84795E-05 4.55849E-04
 -1      2873 4.78364E-02-1.47593E-02-1.85934E-02-3.78389E-05-2.83806E-05 1.18860E-04
 -1      2874 4.71535E-02-1.39827E-02-1.85908E-02-2.06923E-04-4.68874E-05 1.42212E-04
 -1      2875 4.57174E-02-1.49915E-02-1.73016E-02 2.11265E-03 5.99717E-06 5.01936E-04
 -1      2876 4.81035E-02-1.44899E-02-1.88806E-02-1.62072E-03-5.01418E-05 1.69117E-04
 -1      2877 5.18502E-02-1.83570E-02-1.88466E-02-2.26319E-03 6.14429E-07 2.89125E-06
 -1      2878 5.14924E-02-1.77329E-02-1.89227E-02-2.77884E-03 5.42231E-05 3.41560E-05
 -1      2879 5.07556E-02-1.69752E-02-1.89525E-02-3.13225E-03 2.36245E-06 4.28454E-05
 -1      2880 5.10090E-02-1.72561E-02-1.89615E-02-2.22807E-03-1.81886E-05 3.91189E-05
 -1      2881 5.09687E-02-1.72351E-02-1.89774E-02-1.59253E-03-3.56142E-06 2.08477E-05
 -1      2882 5.19204E-02-1.81685E-02-1.89776E-02-1.21974E-03 6.50166E-06 5.21530E-06
 -1      2883 5.02796E-02-1.65055E-02-1.89695E-02-1.80194E-03-2.86797E-05 5.25859E-05
 -1      2884 5.25515E-02-1.88712E-02-1.89531E-02-1.07332E-03 6.46554E-06-1.27515E-05
 -1      2885 5.22850E-02-1.86105E-02-1.89303E-02-1.80561E-03 1.05998E-05-8.47220E-06
 -1      2886 5.24537E-02-1.88752E-02-1.88635E-02-2.23397E-03 1.47667E-05-2.28065E-05
 -1      2887 8.41926E-05 2.33848E-05-3.60360E-05 5.99177E-05 2.38478E-06-1.07882E-05
 -1      2888 7.08584E-05 7.69270E-06-5.19363E-05 1.01391E-05-4.22627E-06-1.90652E-05
 -1      2889-8.50593E-04 1.98745E-03-6.91386E-04 2.95490E-03-3.62668E-05 1.16177E-04
 -1      2890-7.24780E-04 1.78912E-03-5.51197E-04 1.97519E-03 9.70835E-05 1.04062E-04
 -1      2891-2.28351E-03 3.29121E-03-6.17068E-04 1.60242E-03 8.16548E-05-9.65492E-05
 -1      2892 4.82928E-02-1.43402E-02-1.90809E-02-4.19674E-03-7.51866E-05 2.15855E-04
 -1      2893 4.64939E-02-1.27819E-02-1.90020E-02-4.27976E-03-5.50769E-05 1.79494E-04
 -1      2894 4.60642E-02-1.15335E-02-1.92718E-02-5.64693E-03-2.13311E-04 3.46460E-04
 -1      2895 6.53160E-02-2.89847E-02-2.06031E-02 6.44588E-03-3.45188E-04-9.85933E-04
 -1      2896 6.96540E-02-3.20327E-02-2.17338E-02-7.20754E-04 6.22316E-05-1.34344E-03
 -1      2897 6.51224E-02-2.82546E-02-2.04767E-02-5.82695E-03 3.17293E-04-7.73707E-04
 -1      2898 4.96995E-02-1.61370E-02-1.89251E-02-3.29104E-03-1.04791E-04 1.11651E-04
 -1      2899 4.93448E-02-1.56358E-02-1.89973E-02-2.69376E-03-4.29361E-05 1.05908E-04
 -1      2900 5.56794E-02-2.24573E-02-1.87346E-02-6.72598E-03 1.23396E-05-1.43976E-04
 -1      2901 6.12542E-02-2.60787E-02-1.96748E-02-8.23717E-03 4.13479E-04-4.39182E-04
 -1      2902 5.43064E-02-2.09855E-02-1.87347E-02-5.83866E-03 5.45245E-05-1.41768E-05
 -1      2903 5.39971E-02-2.04824E-02-1.88166E-02-4.14738E-03-5.74900E-05 1.20818E-05
 -1      2904 5.73513E-02-2.33159E-02-1.92736E-02-4.67666E-03-2.73451E-05-1.11084E-04
 -1      2905 6.05747E-02-2.58661E-02-1.95717E-02 8.77284E-03 1.05732E-04-6.18565E-04
 -1      2906 6.29923E-02-2.72810E-02-2.01865E-02 3.02436E-03-1.49974E-05-5.48305E-04
 -1      2907 1.98178E-02-4.04636E-03-8.80089E-03 1.31014E-02-6.97995E-04 4.44220E-04
 -1      2908 1.38331E-02-1.22068E-03-6.89567E-03 1.23121E-02-1.29574E-04 3.06561E-04
 -1      2909 2.06845E-02-5.90342E-03-8.39666E-03 1.12498E-02-3.99009E-04 2.00508E-04
 -1      2910 9.31731E-03-9.23971E-05-5.46262E-03 1.00935E-02-5.51280E-04 4.58167E-04
 -1      2911 4.07381E-02-8.45803E-03-1.80616E-02-2.92432E-03-5.26176E-04 1.83081E-04
 -1      2912 4.09624E-02-1.12580E-02-1.66228E-02-9.73838E-04-2.12751E-04-2.89635E-04
 -1      2913 4.09433E-02-8.00006E-03-1.87500E-02-4.94953E-03-1.33682E-04 4.89404E-04
 -1      2914 4.61632E-02-1.11719E-02-1.97233E-02-6.90052E-03-4.18613E-04 3.83064E-04
 -1      2915 4.92608E-02-1.56371E-02-1.89168E-02-1.01660E-03-1.94403E-05 6.78692E-05
 -1      2916 4.92957E-02-1.55567E-02-1.89732E-02-1.86890E-03-2.46851E-05 5.62447E-05
 -1      2917 3.81711E-02-1.37562E-02-1.39202E-02-5.86887E-04 5.57260E-04 3.38639E-04
 -1      2918 3.47154E-02-1.24466E-02-1.28205E-02-3.31219E-03 5.42217E-04 1.18717E-03
 -1      2919 4.36803E-02-1.51488E-02-1.61197E-02 1.04648E-03 1.91921E-04 8.31524E-04
 -1      2920 4.04297E-02-1.50246E-02-1.47069E-02 5.64143E-04 8.04642E-04 6.33891E-04
 -1      2921 4.12816E-02-1.45643E-02-1.50598E-02 1.17822E-03 3.62111E-04 6.70488E-04
 -1      2922 4.78512E-02-1.55468E-02-1.80548E-02 3.96790E-04 1.05712E-05 2.92849E-04
 -1      2923 4.72895E-02-1.58581E-02-1.76942E-02 7.71573E-04 8.63258E-05 5.62803E-04
 -1      2924 4.79771E-02-1.51805E-02-1.84017E-02 3.02540E-04 3.62070E-05 1.89925E-04
 -1      2925 4.80355E-02-1.56791E-02-1.81138E-02-1.09398E-05-5.40963E-06 2.71553E-04
 -1      2926-2.64209E-04 6.27050E-04-2.04344E-04-6.12668E-04 1.51376E-06 1.07282E-05
 -1      2927-2.58321E-04 5.97648E-04-1.88237E-04-5.11204E-04 4.11850E-06 6.06496E-06
 -1      2928-1.64063E-04 6.07016E-04-2.43423E-04-8.98348E-04 1.72708E-05 1.02833E-05
 -1      2929-2.66398E-04 6.23001E-04-2.03038E-04 6.07514E-04 3.53660E-06 7.23369E-06
 -1      2930-1.58719E-04 6.06079E-04-2.46570E-04 8.97614E-04-1.35197E-05 1.18522E-05
 -1      2931-1.93934E-04 3.75304E-04-1.01990E-04-1.25190E-05-2.35972E-06 6.05388E-06
 -1      2932-2.16701E-04 4.01223E-04-1.00953E-04-1.91260E-05 1.59972E-06 4.49317E-06
 -1      2933 3.88189E-03-2.49241E-03-7.43536E-04 1.09583E-03-4.44456E-05-3.14506E-05
 -1      2934 2.17244E-03-1.10237E-03-5.99426E-04 1.54794E-03-2.59404E-05 2.65264E-05
 -1      2935 2.58093E-03-1.49954E-03-6.48914E-04 1.57816E-03-2.40002E-05 4.13250E-05
 -1      2936 2.18279E-03-1.12403E-03-5.94066E-04-1.52235E-03 2.66150E-05 3.69981E-06
 -1      2937 1.69528E-03-7.60398E-04-5.13169E-04-1.76664E-03 4.25412E-05 8.20462E-06
 -1      2938 9.89660E-04-2.29367E-04-4.25819E-04-1.63110E-03 9.75888E-06 8.78529E-06
 -1      2939-3.31632E-04 6.33546E-04-1.60784E-04-4.01271E-04 6.63184E-06 3.91350E-06
 -1      2940-3.16984E-04 5.76318E-04-1.50304E-04-2.47819E-04 1.77433E-06 7.92854E-06
 -1      2941 9.21469E-05 6.15911E-06-5.11751E-05-3.42660E-05-2.73892E-06-6.07968E-06
 -1      2942 6.27326E-02-2.71841E-02-2.01263E-02-2.87670E-03-5.16437E-05-5.25287E-04
 -1      2943 3.97164E-02-1.33525E-02-1.48882E-02-6.88843E-04 2.35087E-04 1.24732E-04
 -1      2944 4.12166E-02-1.27302E-02-1.59282E-02 3.14520E-04 8.47116E-06-3.36729E-04
 -1      2945 2.93333E-02-9.78314E-03-1.09070E-02 8.41465E-03-5.14663E-04 5.43066E-04
 -1      2946 3.38691E-02-1.24440E-02-1.20505E-02 4.88555E-03-2.63520E-04 3.11827E-04
 -1      2947 4.00945E-02-1.34835E-02-1.50167E-02 7.37215E-04 8.82812E-05 2.69180E-04
 -1      2948 3.89437E-02-1.38788E-02-1.41193E-02 1.50694E-03-1.94996E-04 2.30717E-04
 -1      2949 4.38758E-02-1.25896E-02-1.75331E-02-1.44346E-03 7.28459E-05 1.62810E-04
 -1      2950 4.25431E-02-1.41307E-02-1.60128E-02 1.64327E-03 2.28875E-04 5.02016E-04
 -1      2951 4.37772E-02-1.43967E-02-1.65774E-02 2.34674E-03 2.14851E-04 4.73121E-04
 -1      2952 3.85044E-02-1.35698E-02-1.39785E-02-1.49179E-03 4.55181E-04 1.42930E-04
 -1      2953 4.07104E-02-1.37780E-02-1.51291E-02 7.58908E-04 1.40929E-04 2.26133E-04
 -1      2954 5.11422E-02-1.74676E-02-1.89286E-02 3.18312E-03 6.85943E-06 9.68260E-05
 -1      2955 5.18922E-02-1.81847E-02-1.88747E-02 2.88483E-03-5.37572E-05 2.97723E-05
 -1      2956 5.20273E-02-1.84621E-02-1.88934E-02 2.60512E-03-9.07479E-06-5.24962E-06
 -1      2957 6.10714E-02-2.58015E-02-1.99906E-02 1.17207E-04-1.96365E-05-2.29274E-04
 -1      2958 5.90098E-02-2.44823E-02-1.94428E-02-2.21788E-03 7.21574E-06-1.99002E-04
 -1      2959 5.51035E-02-2.13332E-02-1.89913E-02-3.06821E-03 4.03619E-05 4.03326E-05
 -1      2960 5.62472E-02-2.21567E-02-1.91424E-02-1.18148E-03 2.65896E-05 7.94392E-05
 -1      2961 5.69078E-02-2.28544E-02-1.92210E-02-2.16002E-03 3.38383E-05 1.17110E-04
 -1      2962 5.42925E-02-2.05839E-02-1.89292E-02 1.08691E-03-3.75449E-05-1.96256E-05
 -1      2963 5.57153E-02-2.17999E-02-1.91084E-02-6.55149E-06 1.24679E-05 8.09723E-05
 -1      2964 5.42551E-02-2.05614E-02-1.89282E-02-9.99378E-04-1.68536E-05 4.23444E-06
 -1      2965 4.76622E-02-1.65656E-02-1.75566E-02 8.14828E-05-9.38890E-06 3.45921E-04
 -1      2966 4.73748E-02-1.59303E-02-1.77340E-02-9.13449E-04-6.81617E-05 5.93809E-04
 -1      2967 4.53384E-02-1.35639E-02-1.77775E-02-1.44442E-03 3.18628E-05 2.36625E-04
 -1      2968 4.63532E-02-1.46302E-02-1.78290E-02-1.32011E-03-3.94086E-05 5.64341E-04
 -1      2969 4.72147E-02-1.53679E-02-1.79174E-02-1.24992E-03-2.01250E-05 6.22350E-04
 -1      2970 4.78656E-02-1.55704E-02-1.80803E-02-4.78239E-04 1.32854E-05 2.75096E-04
 -1      2971 4.67129E-02-1.41935E-02-1.82895E-02-6.10475E-04 2.92522E-05 4.37072E-04
 -1      2972 4.70921E-02-1.61621E-02-1.74955E-02 1.03466E-03-1.54429E-04 6.25214E-04
 -1      2973 4.51126E-02-1.57466E-02-1.65752E-02 1.48817E-03 1.37377E-04 4.85920E-04
 -1      2974 4.49066E-02-1.53708E-02-1.65923E-02 2.03307E-03 2.45903E-04 7.41084E-04
 -1      2975-1.51902E-03 3.39511E-03-9.67379E-04 5.41138E-03 8.97313E-05-3.58296E-05
 -1      2976-4.27751E-03 5.76863E-03-6.79679E-04 3.69195E-03 5.54108E-05-2.11374E-04
 -1      2977 3.52580E-02-1.24485E-02-1.30481E-02 3.24322E-03-5.22588E-04 5.97542E-04
 -1      2978 4.24424E-03-2.68472E-03-8.87136E-04-3.65430E-04 4.75221E-05-2.95957E-05
 -1      2979 3.84967E-03-2.45745E-03-7.57319E-04-1.13991E-03 8.03555E-05-2.23307E-05
 -1      2980 4.92916E-03-3.26463E-03-9.44932E-04-1.93318E-04 6.26537E-05 1.45098E-06
 -1      2981 4.57192E-03-2.53698E-03-1.18296E-03 1.09265E-03 5.73702E-05-5.63402E-06
 -1      2982 4.52970E-03-2.16133E-03-1.33576E-03 1.78372E-03 4.29098E-05 2.97555E-05
 -1      2983 4.80212E-02-1.52455E-02-1.84107E-02-3.93309E-04-1.72033E-05 2.09340E-04
 -1      2984 4.77696E-02-1.48040E-02-1.86432E-02-2.31119E-04 1.92253E-05 1.65096E-04
 -1      2985 3.34581E-02-1.18431E-02-1.27499E-02-4.83401E-03 7.60975E-04 1.02370E-03
 -1      2986 5.34765E-02-1.97962E-02-1.89488E-02 2.26212E-03 2.17215E-05 2.42472E-05
 -1      2987 5.26979E-02-1.91027E-02-1.89202E-02 1.79757E-03 9.67465E-06-7.16458E-06
 -1      2988 5.23145E-02-1.86310E-02-1.89333E-02 2.39544E-03 7.71635E-06-2.38332E-07
 -1      2989 5.35526E-02-1.98581E-02-1.89406E-02 1.66487E-03-2.02573E-05 3.19438E-05
 -1      2990 2.58320E-03-1.47923E-03-6.26964E-04-1.55036E-03 2.38734E-05 1.97382E-05
 -1      2991 1.12454E-04 7.96321E-06-6.85755E-05-1.26695E-06-5.22802E-06-4.08373E-06
 -1      2992 9.08407E-05-4.83145E-05-1.96623E-05 3.30627E-05 2.25231E-06 3.45884E-07
 -1      2993 1.07963E-04-8.34696E-06-5.87609E-05 2.22401E-05-2.62901E-06 3.59245E-08
 -1      2994 7.41000E-05-6.05635E-05-5.40007E-06 3.85649E-05 7.92653E-08 1.11818E-06
 -1      2995 9.45626E-05-5.97104E-05-2.20387E-05 2.31260E-06-2.31604E-06-2.32523E-06
 -1      2996 9.89198E-05-5.22685E-05-2.16907E-05-2.84586E-05-1.17009E-06 9.95489E-07
 -1      2997 8.55986E-05-6.09556E-05-1.66393E-05-3.24421E-05-1.80620E-06-3.15363E-06
 -1      2998 5.35595E-02-1.99884E-02-1.88504E-02-2.48655E-03-1.87959E-05-4.87869E-05
 -1      2999 5.35018E-02-2.01266E-02-1.87823E-02-3.24708E-03-7.23461E-05-1.72242E-05
 -1      3000 5.27874E-02-1.93464E-02-1.88424E-02-2.25900E-03 1.80467E-05-3.34877E-05
 -1      3001 5.35786E-02-1.99910E-02-1.88971E-02-1.90544E-03-2.77695E-05-3.85341E-05
 -1      3002 6.40644E-05 1.50910E-05-4.72092E-05 1.35493E-05 1.76691E-05 2.62034E-06
 -1      3003 4.81380E-05 5.71599E-05-5.58530E-05-4.33679E-05 1.03413E-05-8.96500E-07
 -1      3004-1.97092E-03 3.13489E-03-6.21294E-04-2.04729E-03 3.03656E-05-8.65089E-05
 -1      3005-2.67792E-04 1.48539E-03-6.49279E-04-2.18349E-03 3.47343E-05 4.13782E-05
 -1      3006-1.39209E-03 2.49470E-03-7.06309E-04-3.07809E-03 5.51044E-05-2.62549E-05
 -1      3007-2.77993E-03 3.74512E-03-5.83929E-04-1.10393E-03-1.81142E-05-5.91433E-05
 -1      3008-2.02901E-03 4.09465E-03-1.02002E-03-5.67679E-03 9.89242E-05-1.26575E-04
 -1      3009-4.74743E-03 6.14643E-03-5.82429E-04-3.31319E-03 6.45442E-05-2.63171E-04
 -1      3010-4.39687E-03 5.50084E-03-6.86620E-04-1.56480E-03-3.75530E-05-1.34197E-04
 -1      3011-3.69289E-03 4.87649E-03-6.14033E-04 3.41915E-04 3.04674E-05-3.10234E-05
 -1      3012 8.48396E-03-2.25353E-03-3.42275E-03 7.70606E-03-1.01512E-04-2.82147E-05
 -1      3013 9.67295E-03-9.37405E-04-5.17588E-03 9.74293E-03-7.02593E-04 3.90793E-04
 -1      3014 5.31054E-02-1.93495E-02-1.89795E-02-2.60456E-04 5.33400E-06-2.40282E-05
 -1      3015 5.34047E-02-1.96641E-02-1.89475E-02 6.40464E-04-8.91013E-06-1.68758E-05
 -1      3016 5.35259E-02-1.97674E-02-1.89649E-02-9.28242E-04-4.75685E-06-7.28893E-06
 -1      3017 1.69736E-03-7.67241E-04-4.95766E-04 1.74461E-03-2.18169E-05-2.15990E-06
 -1      3018 5.89345E-05-5.37201E-05-3.65000E-06 3.28924E-05-1.70577E-06-1.22115E-06
 -1      3019 1.12675E-05-1.71452E-05 3.14329E-06 1.38447E-05-4.25435E-07-7.42004E-08
 -1      3020 1.19379E-05-1.99243E-05 4.67620E-06 2.55996E-05-5.06284E-07-1.31639E-06
 -1      3021 3.05399E-05-3.37512E-05 1.68461E-06 3.41597E-05-1.94615E-06-1.27669E-06
 -1      3022 4.88172E-03-2.19719E-03-1.49410E-03 2.45487E-03 1.14576E-05 1.29095E-05
 -1      3023 5.99270E-03-3.43767E-03-1.44735E-03 2.63363E-03 1.34168E-04-5.56959E-05
 -1      3024 6.39852E-03-4.16522E-03-1.21931E-03 1.42406E-03 1.33284E-04-9.27858E-05
 -1      3025-4.04258E-03 5.09472E-03-6.68112E-04 1.85812E-03 1.18835E-04-9.05201E-05
 -1      3026 9.45776E-03-4.29446E-03-2.84665E-03 6.78892E-03-7.88850E-05-2.37420E-04
 -1      3027 7.77548E-03-4.31369E-03-1.96353E-03 3.95765E-03 8.61327E-05-6.94210E-05
 -1      3028 9.90853E-04-2.35718E-04-4.45878E-04 1.64080E-03-9.78606E-06 1.83915E-05
 -1      3029 5.26436E-02-1.89866E-02-1.93824E-02-2.88947E-03 4.04494E-05 3.52971E-05
 -1      3030-4.00012E-05 1.12504E-05 1.85704E-05 1.19591E-05 8.93335E-07 2.81331E-07
 -1      3031 3.34310E-02-1.29831E-02-1.05364E-02 2.90532E-03-2.20214E-04-1.07084E-03
 -1      3032 1.54520E-03-5.78705E-04-7.70974E-04-7.24167E-05-5.55566E-05-3.71814E-05
 -1      3033-3.21931E-04 6.56611E-05 1.20225E-04 1.57792E-04 5.57262E-06 6.02280E-06
 -1      3034 4.86965E-02-1.76409E-02-1.72045E-02-2.91415E-03 2.55370E-05-1.61052E-05
 -1      3035 5.15830E-02-1.85368E-02-1.85477E-02-2.62906E-03-9.45465E-06-6.96259E-06
 -1      3036 1.82644E-02-7.43522E-03-5.20518E-03-4.85954E-03-2.33252E-04-1.23410E-04
 -1      3037 3.55712E-02-1.22705E-02-1.37379E-02-2.20643E-03 1.87996E-04-1.01251E-04
 -1      3038-1.42641E-04 3.42848E-05 6.40483E-05 5.02720E-05 2.92313E-07 1.06080E-05
 -1      3039 3.87904E-05-8.75981E-05-9.14711E-05 1.04383E-04-3.00632E-05-4.02462E-06
 -1      3040 5.14132E-02-1.84826E-02-1.83643E-02-2.68154E-03 1.20041E-05-6.55490E-05
 -1      3041 5.93906E-03-2.09006E-03-2.34665E-03-1.10391E-03 1.70256E-04-4.11329E-04
 -1      3042 4.29075E-02-1.51932E-02-1.55612E-02-3.16049E-03-3.72876E-05 4.07780E-04
 -1      3043 4.26674E-02-1.50312E-02-1.54971E-02-3.14463E-03 2.85360E-05-4.87238E-04
 -1      3044 6.17090E-03-2.17951E-03-2.43660E-03-1.30597E-03-1.57688E-04 6.03334E-04
 -1      3045 5.14235E-02-1.84475E-02-1.84220E-02-2.78491E-03-3.51197E-05 6.99248E-05
 -1      3046-1.87603E-04 1.95687E-05 3.99170E-05 4.95525E-05 2.35609E-05-1.82079E-05
 -1      3047 5.14631E-02-1.84880E-02-1.87211E-02-2.54069E-03 5.45546E-05 9.75411E-05
 -1      3048 5.15224E-02-1.85002E-02-1.87430E-02-2.63488E-03-4.07396E-05-1.22530E-04
 -1      3049-1.99706E-04 5.69108E-05 7.90947E-05 6.63002E-05 8.94274E-06-3.46831E-05
 -1      3050 3.12124E-02-1.30012E-02-8.58048E-03 7.63235E-04-5.14306E-05 1.35138E-03
 -1      3051 2.98853E-02-9.58723E-03-1.11048E-02 3.91853E-03-3.19111E-04 4.41497E-04
 -1      3052 3.08495E-02-9.59316E-03-1.18053E-02 3.11096E-03 3.61549E-04-9.62685E-04
 -1      3053 3.37825E-02-1.46762E-02-8.77058E-03-3.78054E-04-1.86809E-05-8.63480E-04
 -1      3054-2.07898E-05 7.43033E-06 9.41589E-06 6.26130E-06-2.50921E-07-2.29891E-06
 -1      3055 5.41856E-02-1.96734E-02-2.00938E-02-2.97387E-03-2.55149E-04 1.33270E-03
 -1      3056 5.47284E-02-2.03390E-02-2.00971E-02-2.80751E-03 3.14469E-04-1.09187E-03
 -1      3057-2.04566E-05 7.38869E-06 9.53353E-06 6.14207E-06 6.44441E-07 3.14318E-06
 -1      3058-8.63717E-05 2.99153E-05 3.57236E-05 2.11631E-05 5.07418E-06-1.69713E-05
 -1      3059-6.03095E-05 1.99510E-05 2.63656E-05 1.75969E-05-3.64425E-06 1.40572E-05
 -1      3060-2.49735E-04 8.10955E-05 8.61985E-05 6.07912E-05-1.10599E-05 4.70269E-05
 -1      3061 2.29420E-03-1.10477E-03-8.56624E-04 1.97697E-05-6.15024E-05-2.31698E-04
 -1      3062 1.92290E-03-9.07014E-04-7.48714E-04-2.57028E-04-8.07357E-06 1.71457E-04
 -1      3063-1.99205E-04 1.00925E-05 8.10076E-05 1.11457E-04 1.08328E-05-5.15584E-05
 -1      3064 4.86096E-02-1.73554E-02-1.74368E-02-3.09790E-03 3.86322E-05-3.23320E-04
 -1      3065 4.83920E-02-1.72337E-02-1.73260E-02-2.99493E-03-1.81233E-05 2.99387E-04
 -1      3066-1.18197E-05 2.21369E-06 8.41779E-06 2.97428E-06 7.57213E-08 2.67794E-08
 -1      3067 5.70077E-02-2.07781E-02-2.05402E-02-5.48703E-03-5.66371E-05-2.10415E-04
 -1      3068 5.15238E-02-1.84490E-02-1.85922E-02-2.64889E-03 5.51045E-06 5.58525E-05
 -1      3069 5.15399E-02-1.84729E-02-1.85810E-02-2.61835E-03 3.72682E-09-3.82164E-05
 -1      3070 5.75720E-02-2.08970E-02-2.10727E-02-4.28522E-03 4.22744E-04-1.87746E-03
 -1      3071 5.27938E-02-1.94028E-02-1.92477E-02-2.37144E-03-3.53976E-05-8.02101E-04
 -1      3072 5.97438E-02-2.06600E-02-2.09176E-02-8.46833E-03 1.46227E-04-8.00011E-04
 -1      3073-2.19436E-05 8.30116E-06 9.84910E-06 5.24558E-06 2.13906E-07 5.09172E-06
 -1      3074-1.07990E-05 4.25990E-06 5.09463E-06 1.97610E-06 1.31625E-06 2.93821E-06
 -1      3075-8.48510E-06 3.08816E-06 5.13896E-06 3.15960E-06-2.63054E-07 2.59084E-06
 -1      3076 5.80275E-02-2.07426E-02-2.12970E-02-5.06040E-03 2.65351E-04 1.66881E-03
 -1      3077 5.92941E-02-2.00525E-02-2.09078E-02-8.09245E-03 1.72519E-05 1.08045E-03
 -1      3078 5.28802E-02-1.93590E-02-1.93610E-02-2.36374E-03-9.23648E-05 1.01035E-03
 -1      3079-1.11760E-05 4.67384E-06 4.78512E-06 1.76311E-06-1.11549E-06-2.55019E-06
 -1      3080-2.30447E-05 9.15373E-06 9.50657E-06 5.07236E-06-2.78215E-07-4.41279E-06
 -1      3081-8.61329E-06 3.16423E-06 5.16871E-06 3.01741E-06 3.94528E-07-2.24426E-06
 -1      3082 5.13386E-02-1.85514E-02-1.86451E-02-2.68433E-03-3.32203E-05-2.39560E-04
 -1      3083 5.14510E-02-1.84983E-02-1.85865E-02-2.57360E-03-5.46645E-05-1.16205E-05
 -1      3084 5.17876E-02-1.85826E-02-1.92405E-02-2.60598E-03 8.80107E-05-6.20195E-04
 -1      3085 5.15158E-02-1.85156E-02-1.85827E-02-2.60530E-03 4.36805E-06 5.55511E-05
 -1      3086 5.15594E-02-1.84249E-02-1.86126E-02-2.68708E-03-5.64259E-06 5.60097E-05
 -1      3087 5.14497E-02-1.84090E-02-1.86332E-02-2.63863E-03 1.14207E-05-1.91170E-05
 -1      3088 5.16014E-02-1.84860E-02-1.85213E-02-2.70012E-03 4.80686E-05-1.64361E-05
 -1      3089 5.11046E-02-1.83133E-02-1.82727E-02-2.76477E-03-5.24076E-05-2.03032E-04
 -1      3090 5.16472E-02-1.84924E-02-1.85325E-02-2.67607E-03-2.48373E-06 1.31833E-05
 -1      3091 4.95330E-02-1.76741E-02-1.78928E-02-2.87623E-03 1.57415E-04-3.30698E-04
 -1      3092 4.71194E-02-1.66264E-02-1.69572E-02-2.97376E-03-5.57891E-05-6.11479E-04
 -1      3093 5.03887E-02-1.81338E-02-1.79403E-02-2.92109E-03 1.60269E-05-2.54539E-04
 -1      3094 4.41786E-02-1.58153E-02-1.59269E-02-2.90903E-03 3.13437E-04-8.18363E-04
 -1      3095 3.90386E-02-1.38318E-02-1.41829E-02-2.46272E-03 1.67902E-04-6.32524E-04
 -1      3096 4.60538E-02-1.61209E-02-1.66023E-02-3.10966E-03-1.49505E-04-5.65267E-04
 -1      3097 3.18191E-02-1.12195E-02-1.19689E-02-1.50255E-03 2.50416E-04 3.47810E-04
 -1      3098 2.85160E-02-9.02080E-03-1.11641E-02 3.14828E-03-5.76024E-05 1.43824E-03
 -1      3099 3.49104E-02-1.22958E-02-1.31537E-02-2.26141E-03 2.77427E-05-2.69503E-04
 -1      3100 3.30121E-02-1.14502E-02-1.22780E-02-1.18985E-03 1.46527E-04 2.53851E-04
 -1      3101 3.93696E-02-1.35346E-02-1.45725E-02-2.63058E-03 4.38356E-05-2.47418E-04
 -1      3102 3.36573E-02-1.40494E-02-1.03214E-02 2.02682E-03 1.43334E-04 1.40311E-03
 -1      3103 3.07522E-02-1.08142E-02-1.06934E-02 3.32641E-03-1.81471E-04 2.06222E-03
 -1      3104 3.11463E-02-1.32391E-02-8.81229E-03 3.24465E-03 8.72592E-05 1.66068E-03
 -1      3105 2.47376E-02-9.41078E-03-8.19577E-03-1.67269E-03-3.34637E-04-9.19082E-05
 -1      3106 1.05213E-02-4.10980E-03-3.83584E-03-1.31489E-03 4.64361E-05-8.90421E-04
 -1      3107 4.61912E-03-1.62961E-03-1.91908E-03-3.40747E-04-5.41622E-05-6.22089E-04
 -1      3108 1.78453E-02-6.72136E-03-5.87851E-03-2.46411E-03 1.81363E-04-6.89237E-04
 -1      3109 1.17106E-02-4.35680E-03-3.78051E-03-2.91438E-03 2.87437E-06-7.77403E-05
 -1      3110 2.38996E-02-1.00126E-02-6.80486E-03-1.16550E-03-7.18159E-04-2.56228E-04
 -1      3111 3.41926E-03-1.42822E-03-1.15368E-03-2.57329E-05-1.12038E-04-6.21353E-04
 -1      3112 8.23032E-04-4.76333E-04-4.42762E-04 7.52278E-05-1.13605E-04-7.94346E-05
 -1      3113 3.84908E-03-1.61656E-03-1.64742E-03-4.16537E-04 2.04888E-04-2.59952E-04
 -1      3114 3.34657E-04-8.42778E-05-2.02075E-04 3.70948E-05-4.98170E-05-4.74346E-05
 -1      3115-2.19088E-04 4.90172E-05 8.22635E-06 6.32871E-05-3.67769E-05 5.40121E-05
 -1      3116 3.86915E-04-3.92220E-04-4.08308E-04 2.04272E-04-1.13828E-04 4.30483E-05
 -1      3117-2.87417E-04 1.08043E-04 7.52775E-05 4.69390E-05-1.04323E-05 6.79447E-05
 -1      3118-2.24162E-04 7.90820E-05 7.35116E-05 5.11622E-05-1.12592E-05 5.21075E-05
 -1      3119-2.86359E-04 1.31701E-04 7.60900E-05 1.03060E-04-6.38160E-06 5.03593E-05
 -1      3120-3.18978E-04 9.63763E-05 1.07277E-04 9.82320E-05-4.93947E-06 2.18491E-05
 -1      3121-3.39356E-04 5.34712E-06 5.01876E-05 1.43924E-04-2.23900E-05 3.38470E-05
 -1      3122-1.65008E-04 5.98629E-05 5.92603E-05 3.35607E-05-1.20771E-05 4.10537E-05
 -1      3123-6.68217E-05 2.42368E-05 2.68020E-05 1.94343E-05-2.14085E-06 1.67496E-05
 -1      3124-4.37731E-05 1.32677E-05 1.69658E-05 7.88326E-06-1.84528E-06 1.25200E-05
 -1      3125-2.03512E-04 5.38340E-05 7.79517E-05 6.04167E-05-1.03965E-05 2.45006E-05
 -1      3126-1.16256E-04 3.74488E-05 4.75404E-05 2.95272E-05-1.31367E-06 2.44375E-05
 -1      3127-1.05068E-04 3.23628E-05 4.05040E-05 3.12984E-05-6.69086E-07 1.03618E-05
 -1      3128-4.10906E-05 1.40975E-05 1.86802E-05 1.17520E-05-2.50918E-06 7.70588E-06
 -1      3129 6.07440E-02-2.00899E-02-2.05980E-02-1.05744E-02-3.26328E-05-2.68041E-04
 -1      3130 6.15757E-02-2.12195E-02-2.05064E-02-1.04252E-02-2.48279E-04-1.07777E-04
 -1      3131 5.58863E-02-2.05995E-02-2.03631E-02-4.31530E-03-6.01241E-06-7.24477E-04
 -1      3132 5.55133E-02-2.02345E-02-2.05127E-02-4.26073E-03-2.22171E-04 4.81703E-04
 -1      3133 5.14473E-02-1.84979E-02-1.86030E-02-2.56156E-03 6.61571E-05-2.90502E-05
 -1      3134 5.12322E-02-1.84160E-02-1.86753E-02-2.64958E-03 1.86482E-05 1.98953E-04
 -1      3135 5.20159E-02-1.84728E-02-1.92199E-02-2.96946E-03 1.38264E-05 6.12462E-04
 -1      3136 5.15835E-02-1.84824E-02-1.86117E-02-2.67543E-03 8.97273E-06-4.93190E-05
 -1      3137 5.15368E-02-1.85294E-02-1.85849E-02-2.58187E-03 2.74439E-06-7.25567E-05
 -1      3138 5.14314E-02-1.84000E-02-1.86462E-02-2.59219E-03 1.40578E-05 8.40471E-06
 -1      3139 5.10447E-02-1.82355E-02-1.82769E-02-2.93004E-03 2.25113E-05 1.61884E-04
 -1      3140 5.15223E-02-1.84935E-02-1.85377E-02-2.72480E-03-3.95973E-05 2.86489E-06
 -1      3141 5.15784E-02-1.84836E-02-1.84994E-02-2.72030E-03-1.60887E-05 1.28407E-05
 -1      3142 4.71032E-02-1.66229E-02-1.69443E-02-2.98134E-03 3.59379E-05 5.46500E-04
 -1      3143 4.96150E-02-1.76006E-02-1.79200E-02-2.99239E-03-1.26916E-04 2.64588E-04
 -1      3144 5.04922E-02-1.80614E-02-1.79725E-02-2.98334E-03-3.44389E-05 3.05203E-04
 -1      3145 3.90735E-02-1.38654E-02-1.41206E-02-3.21998E-03 3.40025E-05 4.07718E-04
 -1      3146 4.41306E-02-1.58545E-02-1.58756E-02-2.99479E-03-2.39757E-04 7.79165E-04
 -1      3147 4.60458E-02-1.61597E-02-1.65418E-02-3.05140E-03 1.40546E-04 4.96498E-04
 -1      3148 2.86640E-02-9.37225E-03-1.10048E-02 2.91491E-03 1.37455E-04-1.28362E-03
 -1      3149 3.12075E-02-1.10875E-02-1.14472E-02-1.77509E-03-1.82877E-04-2.63850E-04
 -1      3150 3.51064E-02-1.25143E-02-1.31579E-02-2.96293E-03 9.70204E-05 6.04218E-05
 -1      3151 3.95476E-02-1.39153E-02-1.46855E-02-2.71733E-03 1.58281E-04 1.32160E-04
 -1      3152 3.19905E-02-1.07568E-02-1.24499E-02-1.60349E-03 2.56081E-04-5.25294E-04
 -1      3153 3.38341E-02-1.40080E-02-1.04373E-02 1.80992E-03-2.71147E-04-9.04288E-04
 -1      3154 3.07707E-02-1.08622E-02-1.09241E-02 2.90736E-03 3.37940E-04-1.69374E-03
 -1      3155 3.13593E-02-1.38227E-02-9.15309E-03 1.89715E-03 4.76949E-04-2.12987E-03
 -1      3156 2.50412E-02-9.44799E-03-8.15003E-03-1.69497E-03 5.28787E-05 2.03527E-04
 -1      3157 5.19164E-03-1.78001E-03-2.10071E-03-6.26937E-04 8.90482E-05 7.93962E-04
 -1      3158 1.07205E-02-4.18902E-03-3.88391E-03-1.29956E-03-7.56451E-05 9.52688E-04
 -1      3159 1.75474E-02-6.92319E-03-5.27419E-03-2.58528E-03-2.22897E-04 7.15122E-04
 -1      3160 2.48760E-02-1.11973E-02-6.97763E-03-3.13128E-03-2.36449E-04 4.37820E-05
 -1      3161 1.20531E-02-4.42324E-03-3.87735E-03-2.84144E-03-1.25523E-04 6.15793E-04
 -1      3162 9.36362E-04-5.58181E-04-3.44703E-04-8.72465E-05 1.10044E-04 1.19629E-04
 -1      3163 2.65778E-03-1.00525E-03-1.10864E-03-3.76407E-04-2.62467E-05 2.90603E-04
 -1      3164 3.67990E-03-1.50149E-03-1.54140E-03-8.10604E-04-3.14267E-04 3.90558E-04
 -1      3165-2.56018E-04 5.48539E-05 8.84191E-05 9.57912E-05 2.07285E-05-2.50880E-05
 -1      3166 9.46475E-05-1.33054E-04-4.22699E-05-3.58822E-05 1.95922E-05 3.25825E-05
 -1      3167 2.47204E-04-2.51312E-04-2.45555E-04 2.87325E-05-2.69070E-05 9.91512E-05
 -1      3168-2.61756E-04 8.24453E-05 8.42210E-05 5.25472E-05 2.00769E-05-6.04900E-05
 -1      3169-2.02833E-04 8.05345E-05 6.72716E-05 9.02588E-05 2.36169E-05-4.77385E-05
 -1      3170-2.18838E-04-2.17115E-06 4.06565E-05 8.79496E-05 1.94570E-06-4.87194E-05
 -1      3171-1.41319E-04 4.56730E-05 5.67968E-05 3.40822E-05 1.03076E-05-3.26531E-05
 -1      3172-2.13920E-04 8.82466E-05 7.38282E-05 4.51061E-05 1.45999E-05-5.17093E-05
 -1      3173-2.88776E-04 6.76194E-05 9.20380E-05 9.37916E-05 9.41903E-06-5.90469E-05
 -1      3174-5.11276E-05 1.54722E-05 2.14119E-05 6.32650E-06 2.88094E-06-1.41028E-05
 -1      3175-8.63056E-05 3.19730E-05 3.20560E-05 2.16380E-05 3.46991E-06-2.00043E-05
 -1      3176-1.44214E-04 4.27703E-05 5.11438E-05 4.06603E-05 2.85809E-06-2.56794E-05
 -1      3177-4.82607E-05 1.68545E-05 2.15686E-05 1.35370E-05 4.88571E-06-7.14392E-06
 -1      3178-6.80607E-06 2.27415E-06 4.79285E-06 2.22074E-06-3.20603E-07 5.33020E-07
 -1      3179-6.81879E-06 2.19119E-06 4.83788E-06 2.07235E-06 3.63697E-07-5.01253E-07
 -1      3180-1.41214E-05 3.21998E-06 9.61390E-06 4.63020E-06-5.40990E-07 1.93418E-06
 -1      3181-1.42883E-05 3.31561E-06 9.79426E-06 4.60327E-06 6.83498E-07-1.79033E-06
 -1      3182-2.12601E-04 1.13070E-05 9.71830E-05 1.14243E-04-5.42971E-06-2.01326E-05
 -1      3183-3.01443E-04 6.98009E-05 1.00209E-04 9.99913E-05-4.19432E-06-1.40885E-05
 -1      3184-3.05500E-04 7.63615E-06 8.85591E-05 1.00606E-04-5.47884E-06-3.92629E-05
 -1      3185 2.74318E-02-8.49317E-03-1.13942E-02 1.49544E-03-9.96593E-05-2.59338E-04
 -1      3186 4.22660E-02-1.50042E-02-1.53224E-02-3.34385E-03-5.07405E-05-5.13200E-06
 -1      3187-2.63314E-04 5.29176E-05 1.02973E-04 9.65382E-05 2.92756E-06 1.12090E-05
 -1      3188 3.24437E-02-1.28542E-02-9.66798E-03 3.59096E-03-2.23579E-03-1.90152E-03
 -1      3189 3.36099E-02-1.04663E-02-1.23261E-02 4.12252E-03 2.19880E-03 1.07012E-03
 -1      3190 3.12476E-02-1.31855E-02-8.48391E-03 9.25288E-04 5.13986E-04-5.78747E-04
 -1      3191 5.15469E-02-1.85079E-02-1.85562E-02-2.62571E-03-1.70969E-07 3.72894E-06
 -1      3192 5.16262E-02-1.85509E-02-1.84725E-02-2.71423E-03-1.84001E-05 2.98083E-06
 -1      3193 5.14008E-02-1.83957E-02-1.86342E-02-2.61012E-03-2.08966E-05 3.15836E-05
 -1      3194 5.05996E-02-1.82429E-02-1.78960E-02-2.83724E-03 2.73398E-06 8.55156E-05
 -1      3195 4.84526E-02-1.74656E-02-1.71392E-02-3.02358E-03 1.27899E-05 1.21117E-04
 -1      3196 4.60480E-02-1.62841E-02-1.64188E-02-3.06825E-03 6.72043E-05 2.06137E-04
 -1      3197 5.13590E-02-1.84370E-02-1.83185E-02-2.74240E-03-1.75995E-05-1.39599E-05
 -1      3198 5.16665E-02-1.85445E-02-1.84734E-02-2.67715E-03 9.48454E-06-3.16861E-05
 -1      3199 5.15520E-02-1.85032E-02-1.85660E-02-2.63939E-03-1.00571E-06 2.11950E-05
 -1      3200 5.14323E-02-1.84023E-02-1.86633E-02-2.64663E-03 2.15064E-05-1.68228E-05
 -1      3201 5.13049E-02-1.82476E-02-1.88574E-02-2.67521E-03 1.26809E-05 2.63771E-05
 -1      3202 5.05221E-02-1.82512E-02-1.78561E-02-2.77550E-03-1.65865E-05-7.26048E-05
 -1      3203 1.91176E-03-7.52879E-04-8.37086E-04-2.56875E-04 9.43624E-06-6.49933E-05
 -1      3204 3.52649E-03-1.42153E-03-1.55944E-03-8.29489E-04 1.98100E-04-8.43321E-05
 -1      3205 2.97904E-04-2.01779E-04-3.67821E-04 9.21562E-05 3.85039E-05-6.31847E-05
 -1      3206 4.59740E-02-1.62014E-02-1.64281E-02-3.12834E-03-6.85442E-05-2.81128E-04
 -1      3207 4.85303E-02-1.74564E-02-1.72287E-02-3.05216E-03 4.75848E-05-7.50452E-05
 -1      3208-1.56947E-04 3.21160E-05 7.39887E-05 6.36066E-05 5.88405E-06 1.46577E-06
 -1      3209-1.29771E-04 3.60418E-05 5.64064E-05 3.68275E-05 2.48061E-06-5.35827E-06
 -1      3210-9.80495E-05 2.75843E-05 4.26027E-05 3.06017E-05 2.66034E-06 7.81213E-07
 -1      3211-6.34889E-05 2.07051E-05 2.85694E-05 1.86188E-05 5.00564E-06-4.87565E-06
 -1      3212-5.40768E-05 1.68259E-05 2.40616E-05 1.65096E-05-2.10406E-06 3.99433E-06
 -1      3213 3.47223E-03-1.51816E-03-1.49976E-03-8.67485E-04-2.38668E-04 3.63923E-05
 -1      3214 1.89212E-03-8.22575E-04-8.38194E-04-2.07085E-04-5.24747E-05 4.24107E-05
 -1      3215 1.77815E-04-1.33784E-04-3.02597E-04 1.08061E-04-9.37858E-06 3.65117E-05
 -1      3216 5.25267E-02-1.86840E-02-1.97845E-02-2.86512E-03 6.42259E-05-4.44151E-04
 -1      3217 5.38686E-02-1.94906E-02-2.00588E-02-3.75549E-03 3.83522E-04-2.70418E-04
 -1      3218 5.33371E-02-1.92253E-02-1.97048E-02-3.43756E-03-2.31675E-04 7.03806E-04
 -1      3219 6.40438E-03-2.31215E-03-2.61190E-03-1.75529E-03 6.56929E-05 1.15877E-04
 -1      3220-2.08623E-05-5.40753E-05-4.32940E-05-8.15122E-06 2.72171E-05-6.42738E-05
 -1      3221 2.98774E-02-1.25505E-02-7.70098E-03-3.02376E-04-5.15016E-04-2.38909E-04
 -1      3222-3.15514E-05 9.84262E-06 1.42350E-05 9.72305E-06-1.79838E-07 6.80646E-07
 -1      3223-3.06656E-05 9.92980E-06 1.39573E-05 9.52930E-06 1.05806E-06 4.19205E-07
 -1      3224-2.32530E-05 4.41076E-06 1.27333E-05 7.60625E-06 1.53251E-07 2.33747E-07
 -1      3225 3.16205E-02-1.48604E-02-9.09914E-03 5.08294E-04-1.15865E-04-3.33018E-04
 -1      3226 5.17320E-02-1.85035E-02-1.90500E-02-2.73167E-03-1.36848E-04 5.59529E-05
 -1      3227 5.18096E-02-1.85872E-02-1.90619E-02-2.73228E-03 1.83233E-04-4.30065E-05
 -1      3228 5.26132E-02-1.87528E-02-1.95033E-02 2.91148E-03-2.52887E-06 5.44984E-06
 -1      3229-4.54321E-05 1.38862E-05 2.33922E-05-7.66773E-06-3.79798E-08 1.10518E-06
 -1      3230 7.99866E-04 2.26507E-05-6.86405E-04-6.04159E-05-1.49824E-06 1.75969E-05
 -1      3231 5.19578E-02-1.87264E-02-1.85613E-02 2.82189E-03 6.82336E-07-4.45116E-06
 -1      3232 2.77419E-02-7.97905E-03-1.22340E-02 3.77425E-03-1.81321E-04-5.50744E-04
 -1      3233 2.24182E-02-8.82634E-03-5.81412E-03 5.27073E-03-1.82041E-04 1.55611E-04
 -1      3234-3.27994E-04 9.65147E-05 1.17652E-04-7.84338E-05 3.09311E-06 6.14971E-06
 -1      3235 4.64634E-02-1.63996E-02-1.67608E-02 3.50052E-03 1.35267E-05-1.01628E-04
 -1      3236-1.59662E-04 5.27049E-05 6.69859E-05-3.46670E-05 6.18958E-07 1.08523E-05
 -1      3237 5.17401E-02-1.85294E-02-1.87213E-02 2.59537E-03 2.64685E-06 2.44757E-05
 -1      3238 8.36652E-03-3.27545E-03-2.88825E-03 1.70618E-03 5.64101E-05 2.33490E-04
 -1      3239 3.42244E-02-1.43593E-02-9.84093E-03-2.90718E-03 1.55253E-03-1.12231E-03
 -1      3240-9.51209E-05-7.74558E-05-3.75454E-05-1.98398E-04-2.63296E-05 1.80296E-05
 -1      3241 3.78227E-02-1.28412E-02-1.44279E-02 4.02628E-03 1.12035E-04-1.77855E-04
 -1      3242 3.92269E-02-1.38372E-02-1.45235E-02 3.55776E-03-1.20625E-04 4.26131E-04
 -1      3243 3.67191E-02-1.60333E-02-1.02970E-02-2.74052E-03-8.27921E-04 1.61538E-03
 -1      3244 9.15584E-03-3.65041E-03-3.10954E-03 1.06971E-03-9.75963E-05-4.20490E-04
 -1      3245 3.26825E-06-1.28644E-04-3.83096E-05-1.46044E-04 2.14305E-05 2.91234E-05
 -1      3246 5.17942E-02-1.85605E-02-1.86543E-02 2.61903E-03 1.78681E-05-8.54239E-05
 -1      3247-2.00090E-04 7.66293E-05 7.36645E-05-4.28747E-05-8.92978E-06-3.85748E-05
 -1      3248 5.04210E-02-1.80616E-02-1.80370E-02 2.87585E-03-1.02626E-04-1.00245E-04
 -1      3249 5.02127E-02-1.79549E-02-1.79661E-02 2.94344E-03 8.39556E-05 7.94260E-05
 -1      3250 5.45445E-02-1.98655E-02-2.00906E-02 3.55609E-03 9.92437E-05 1.06542E-03
 -1      3251-1.71657E-05 5.06878E-06 8.65918E-06-5.34481E-06-9.42571E-08 2.12476E-06
 -1      3252-2.14095E-05 7.35015E-06 1.00865E-05-3.74001E-06 7.91448E-07-3.31779E-06
 -1      3253 5.51647E-02-2.00857E-02-2.03170E-02 4.05637E-03-2.40077E-04-1.11757E-03
 -1      3254-8.10659E-05 2.42225E-05 3.63782E-05-2.19909E-05-3.07992E-07-1.35193E-05
 -1      3255 5.15934E-02-1.84906E-02-1.87928E-02 2.57178E-03-3.67490E-05 1.01482E-04
 -1      3256-5.54997E-05 1.78615E-05 2.37534E-05-1.62789E-05-3.77516E-07 7.80628E-06
 -1      3257 5.15884E-02-1.84768E-02-1.87875E-02 2.62813E-03 4.08125E-05-2.76345E-04
 -1      3258-2.53353E-04 9.29463E-05 8.66369E-05-3.92331E-05 5.79699E-06 4.75099E-05
 -1      3259 5.19250E-02-1.86405E-02-1.86534E-02 2.69366E-03-6.18325E-06 6.02483E-05
 -1      3260 2.61947E-02-1.03690E-02-7.76833E-03 5.20138E-03-9.68516E-05-3.30126E-04
 -1      3261 2.36096E-02-8.81963E-03-7.29226E-03 2.98820E-03-2.29879E-04 7.44023E-04
 -1      3262 1.28503E-03-3.91522E-04-6.57588E-04 2.50256E-04 5.29565E-05 1.11823E-04
 -1      3263 2.84916E-02-9.21897E-03-1.18515E-02 4.43352E-03-4.41067E-05 3.65965E-04
 -1      3264 1.30194E-03-4.24832E-04-6.40001E-04 3.39832E-04-5.00935E-05-1.52101E-04
 -1      3265 3.05565E-02-9.51772E-03-1.25019E-02 1.34292E-03-1.33495E-04-3.02493E-04
 -1      3266-2.99065E-04 4.60875E-05 1.39209E-04-9.91477E-05-2.33803E-05-7.06460E-05
 -1      3267 5.15064E-02-1.84787E-02-1.84786E-02 2.66170E-03 4.34038E-05 7.82592E-05
 -1      3268-1.09462E-05 2.62805E-06 7.16488E-06-2.96763E-06-8.68638E-08 4.06502E-07
 -1      3269 5.86730E-02-2.14173E-02-2.05625E-02 7.77789E-03 2.18884E-04 3.52964E-05
 -1      3270 5.34618E-02-1.94811E-02-1.95050E-02 2.65799E-03 1.30396E-04-9.01029E-04
 -1      3271 5.78199E-02-2.09188E-02-2.12980E-02 4.45906E-03-4.13171E-04-1.98392E-03
 -1      3272 6.00538E-02-2.01183E-02-2.13400E-02 9.32750E-03-3.81437E-04-9.83512E-04
 -1      3273-1.13227E-05 4.16140E-06 5.11568E-06-1.99991E-06-8.58432E-07 1.97099E-06
 -1      3274-2.24298E-05 8.34037E-06 1.07113E-05-4.13255E-06 1.31583E-06 5.30311E-06
 -1      3275-8.42495E-06 2.03157E-06 4.77950E-06-3.47835E-06-4.53036E-07 1.29009E-06
 -1      3276 5.94430E-02-2.04787E-02-2.10694E-02 8.39974E-03-3.52786E-06 7.93922E-04
 -1      3277 5.90035E-02-2.11097E-02-2.13833E-02 5.58522E-03 1.24684E-04 1.87746E-03
 -1      3278 5.30467E-02-1.94360E-02-1.93553E-02 2.47213E-03-7.85107E-05 9.09194E-04
 -1      3279-2.67885E-05 1.11327E-05 1.02368E-05-8.18533E-07 9.71593E-07-6.22229E-06
 -1      3280-1.19520E-05 4.77119E-06 6.05590E-06-4.70958E-07 1.84817E-06-1.27168E-06
 -1      3281-7.22603E-06 1.88183E-06 4.35959E-06-2.86115E-06 3.55495E-07-1.46670E-06
 -1      3282 5.15145E-02-1.84526E-02-1.86708E-02 2.67907E-03 3.92776E-05-3.19919E-05
 -1      3283 5.16695E-02-1.87080E-02-1.87274E-02 2.66955E-03 8.08116E-06-3.27190E-04
 -1      3284 5.23458E-02-1.84773E-02-1.93899E-02 3.10414E-03 1.35467E-05-6.72326E-04
 -1      3285 5.18314E-02-1.86025E-02-1.86502E-02 2.71678E-03-1.26441E-05 4.90941E-05
 -1      3286 5.18165E-02-1.85966E-02-1.86759E-02 2.71862E-03-3.98836E-08 8.16773E-05
 -1      3287 5.18522E-02-1.85394E-02-1.87155E-02 2.68473E-03-1.34536E-06 5.61075E-05
 -1      3288 5.16480E-02-1.84735E-02-1.87118E-02 2.65903E-03 8.68203E-06 6.95254E-05
 -1      3289 5.15414E-02-1.84934E-02-1.87376E-02 2.61214E-03-1.38252E-05-9.42014E-05
 -1      3290 5.16776E-02-1.85262E-02-1.85243E-02 2.79266E-03-1.84064E-05-5.69225E-05
 -1      3291 4.85887E-02-1.71883E-02-1.74423E-02 2.77073E-03-8.90142E-05-5.86225E-04
 -1      3292 5.07154E-02-1.82332E-02-1.81290E-02 2.75617E-03-1.24045E-04-2.43605E-04
 -1      3293 5.15533E-02-1.85520E-02-1.83909E-02 2.89504E-03-2.70237E-05 2.70297E-05
 -1      3294 3.55811E-02-1.21192E-02-1.31994E-02 2.93295E-03 1.03964E-04-9.69635E-04
 -1      3295 4.21124E-02-1.48820E-02-1.53923E-02 3.12172E-03 9.11726E-05-8.22196E-04
 -1      3296 4.60496E-02-1.65672E-02-1.65369E-02 3.10387E-03-8.21592E-05-5.55619E-04
 -1      3297 4.87795E-02-1.72186E-02-1.73450E-02 3.09505E-03-9.43515E-05-5.06434E-05
 -1      3298 4.30031E-02-1.48270E-02-1.56884E-02 3.89267E-03-4.25226E-05-1.10297E-04
 -1      3299 3.05565E-02-8.65242E-03-1.27118E-02-1.01592E-04-5.62990E-04-3.85570E-04
 -1      3300 3.18889E-02-1.09879E-02-1.23140E-02 2.73367E-03-2.02303E-04-1.45835E-03
 -1      3301 3.21201E-02-1.10137E-02-1.29979E-02 4.00893E-03-4.13018E-05 8.55988E-05
 -1      3302 3.56415E-02-1.45160E-02-1.10492E-02-2.68739E-03-1.28707E-03 1.76328E-03
 -1      3303 2.95528E-02-1.01536E-02-1.13892E-02-2.90210E-03 7.31639E-04 1.40584E-03
 -1      3304 3.33339E-02-1.18274E-02-1.12702E-02-1.78056E-04-2.40107E-05 5.99582E-04
 -1      3305 2.02060E-02-7.04706E-03-6.91162E-03 2.29318E-03 1.51300E-04-1.81187E-04
 -1      3306 2.87160E-02-1.06677E-02-1.01094E-02 8.56160E-04-3.28558E-04 3.46774E-04
 -1      3307 3.04991E-02-1.31820E-02-8.77637E-03 9.61949E-04-1.33842E-03 1.16185E-03
 -1      3308 6.00082E-03-2.11239E-03-2.43123E-03 6.25044E-04 3.31212E-04-7.57670E-04
 -1      3309 1.32086E-02-5.14423E-03-4.49874E-03 1.36964E-03-3.12825E-04-6.34657E-04
 -1      3310 1.59219E-02-6.05159E-03-5.15845E-03 1.53931E-03-1.92132E-04 1.98979E-04
 -1      3311 6.74583E-04-2.92910E-04-3.16807E-04 1.07643E-04-2.28095E-05-7.03063E-05
 -1      3312 2.57543E-03-1.07792E-03-1.05754E-03 3.64618E-04-1.63132E-04-4.44534E-04
 -1      3313 3.98914E-03-1.33671E-03-1.60592E-03 9.53324E-04-3.00723E-04-3.22022E-04
 -1      3314-1.15671E-04 1.86346E-05 8.44673E-06-7.01361E-05 7.04235E-05 4.71026E-05
 -1      3315 2.84541E-04-1.00429E-04-1.70715E-04-6.14099E-05 6.02581E-05 6.02304E-05
 -1      3316 4.15837E-04-2.40395E-04-2.75080E-04-3.53595E-05-6.34627E-05 3.19594E-05
 -1      3317-2.26734E-04 8.08408E-05 7.73999E-05-4.94315E-05 8.41727E-06 4.44406E-05
 -1      3318-3.08507E-04 1.07531E-04 8.81198E-05-5.79400E-05-1.17493E-05 5.11415E-05
 -1      3319-3.08652E-04 1.14491E-04 1.10584E-04-4.55713E-05 1.19028E-05 2.97426E-05
 -1      3320-3.69147E-04 1.52750E-04 8.51497E-05-5.34599E-05-2.09499E-06 3.94862E-05
 -1      3321-3.49364E-04 9.23288E-05 5.00741E-05-6.85110E-05 5.10529E-06 1.00768E-05
 -1      3322-1.61479E-04 6.04062E-05 6.04618E-05-4.27348E-05 3.26784E-06 2.63228E-05
 -1      3323-4.44581E-05 1.42678E-05 1.77633E-05-1.17240E-05-1.98117E-06 7.45891E-06
 -1      3324-7.87267E-05 2.42865E-05 3.38314E-05-2.80840E-05 3.80318E-06 9.75303E-06
 -1      3325-1.26574E-04 4.10208E-05 5.23718E-05-3.96063E-05 6.39564E-07 1.58294E-05
 -1      3326-2.11063E-04 6.91999E-05 8.20795E-05-3.47794E-05 3.63301E-06 2.68765E-05
 -1      3327-9.95678E-05 3.71511E-05 4.21116E-05-2.61537E-05 1.62731E-06 1.17800E-05
 -1      3328-3.42645E-05 9.97683E-06 1.55190E-05-8.93938E-06-1.21334E-06 6.17982E-06
 -1      3329 6.15085E-02-2.19557E-02-2.06111E-02 1.32952E-02-4.93382E-04 1.06712E-05
 -1      3330 6.13152E-02-2.28037E-02-2.02715E-02 1.15264E-02 6.97204E-04 4.64791E-04
 -1      3331 5.66143E-02-2.04966E-02-2.05416E-02 6.08115E-03 7.98811E-04-5.59077E-04
 -1      3332 5.62955E-02-2.06740E-02-2.04351E-02 5.48448E-03-5.39803E-04 6.36040E-04
 -1      3333 5.14185E-02-1.83817E-02-1.87534E-02 2.78375E-03-4.21810E-05 1.84887E-04
 -1      3334 5.15311E-02-1.84588E-02-1.86824E-02 2.67061E-03-4.61652E-05-2.48976E-06
 -1      3335 5.21502E-02-1.84340E-02-1.93181E-02 2.93628E-03-1.04603E-05 5.44847E-04
 -1      3336 5.17543E-02-1.85687E-02-1.86609E-02 2.68340E-03 5.65916E-07-1.12794E-04
 -1      3337 5.17387E-02-1.85725E-02-1.86322E-02 2.69091E-03 1.63064E-05-6.01922E-05
 -1      3338 5.16595E-02-1.85220E-02-1.87103E-02 2.60378E-03 1.45301E-05-3.05042E-05
 -1      3339 5.18252E-02-1.85519E-02-1.85852E-02 2.68973E-03 6.88199E-06 1.45191E-05
 -1      3340 5.10823E-02-1.82920E-02-1.84201E-02 2.75682E-03 6.10547E-05 2.54930E-04
 -1      3341 5.18206E-02-1.85430E-02-1.85583E-02 2.66758E-03 1.47945E-07-1.00539E-04
 -1      3342 5.08771E-02-1.82865E-02-1.80869E-02 2.70622E-03 8.70192E-05 2.12198E-04
 -1      3343 4.83872E-02-1.70437E-02-1.74136E-02 2.85279E-03 6.01454E-06 5.64588E-04
 -1      3344 5.10875E-02-1.83721E-02-1.82193E-02 2.83260E-03 1.01680E-04-1.84361E-05
 -1      3345 4.21025E-02-1.52823E-02-1.52014E-02 3.09234E-03 1.44794E-04 6.73621E-04
 -1      3346 3.65464E-02-1.26540E-02-1.35864E-02 2.56911E-03-1.56729E-04 6.97945E-04
 -1      3347 4.86608E-02-1.72327E-02-1.73820E-02 3.16602E-03 1.63948E-04 6.05905E-05
 -1      3348 4.64673E-02-1.65422E-02-1.66286E-02 3.28602E-03 8.63550E-05 4.30037E-04
 -1      3349 4.34439E-02-1.51092E-02-1.58248E-02 3.65227E-03-1.45564E-04 1.73524E-04
 -1      3350 3.30739E-02-1.15269E-02-1.25699E-02 2.01301E-03 2.92207E-04 3.73736E-04
 -1      3351 2.90535E-02-8.40507E-03-1.23442E-02-7.30963E-04 8.09378E-05-1.07692E-03
 -1      3352 3.49177E-02-1.19403E-02-1.35017E-02 2.65443E-03-2.29651E-04 2.18152E-04
 -1      3353 2.70883E-02-8.24619E-03-1.03956E-02-2.65386E-03 2.46516E-04-1.62443E-03
 -1      3354 3.59536E-02-1.61412E-02-9.41858E-03-2.02121E-03 1.77017E-03-1.48247E-03
 -1      3355 3.07947E-02-9.13369E-03-1.16799E-02-6.52141E-04 4.32872E-04-9.48716E-04
 -1      3356 2.99806E-02-1.29821E-02-9.04708E-03 2.30357E-03-3.48526E-04-6.54428E-04
 -1      3357 2.07172E-02-7.25950E-03-6.65851E-03 2.90524E-03-1.89791E-04 1.18354E-03
 -1      3358 3.01874E-02-1.40143E-02-8.62948E-03 1.30665E-03 1.23728E-03-8.61346E-04
 -1      3359 1.28351E-02-5.06860E-03-4.23948E-03 1.52387E-03 5.83215E-04 9.09251E-04
 -1      3360 5.68799E-03-2.00754E-03-2.32863E-03 5.63733E-04-2.03465E-04 6.28565E-04
 -1      3361 1.63429E-02-6.85157E-03-5.67003E-03 3.59293E-03 1.15190E-04-2.59949E-04
 -1      3362 2.43353E-03-9.51036E-04-1.05860E-03 2.53630E-04 9.72899E-05 4.09840E-04
 -1      3363 6.94416E-04-2.98081E-04-3.10142E-04 1.07029E-04 3.07211E-05 8.72919E-05
 -1      3364 3.86348E-03-1.27670E-03-1.51714E-03 1.05758E-03 2.33193E-04 1.41746E-04
 -1      3365 2.11183E-04-5.90421E-05-1.74607E-04-4.13874E-05-6.91308E-05 1.81865E-05
 -1      3366-1.58783E-04 5.80673E-05-1.00568E-05-1.06805E-04-4.11438E-05-3.56526E-05
 -1      3367 3.78939E-04-1.95833E-04-3.51571E-04-7.70109E-05 2.72039E-05-3.63475E-05
 -1      3368-2.96644E-04 8.97577E-05 9.28400E-05-5.68278E-05 1.23834E-05-5.95822E-05
 -1      3369-2.88876E-04 8.49715E-05 1.10642E-04-5.70275E-05-1.66328E-05-8.56407E-05
 -1      3370-3.37413E-04 4.43650E-05 8.36028E-05-1.47944E-04 1.31736E-05-1.68249E-05
 -1      3371-1.94168E-04 7.46432E-05 7.65540E-05-4.43348E-05-1.10445E-05-4.45675E-05
 -1      3372-1.35358E-04 5.04297E-05 5.20502E-05-3.11470E-05-3.71838E-06-3.55430E-05
 -1      3373-3.14885E-04 9.83734E-05 1.14748E-04-6.05909E-05-1.52298E-05-6.43137E-05
 -1      3374-9.38412E-05 3.47365E-05 3.52860E-05-2.14083E-05-4.07158E-06-2.22581E-05
 -1      3375-4.51372E-05 1.72516E-05 2.06996E-05-6.03831E-06-6.48667E-07-1.03682E-05
 -1      3376-1.41231E-04 5.01156E-05 5.72352E-05-3.76950E-05-9.30393E-07-2.64687E-05
 -1      3377-4.37848E-05 1.37910E-05 1.97745E-05-9.68754E-06 2.61353E-06-6.67608E-06
 -1      3378-4.92251E-06 9.46388E-07 4.28393E-06-2.01696E-06 2.17563E-07-1.61149E-07
 -1      3379-4.94577E-06 8.75649E-07 4.31485E-06-2.12288E-06-2.09021E-07 1.38632E-07
 -1      3380-1.35213E-05 3.69585E-06 8.06790E-06-4.78563E-06 2.57383E-07 4.96320E-07
 -1      3381-1.37034E-05 4.03146E-06 7.78221E-06-4.78760E-06-8.73802E-07-9.08474E-07
 -1      3382-3.10087E-04 5.41617E-05 1.24408E-04-1.18534E-04-1.71496E-05-1.01145E-05
 -1      3383-3.88920E-04 7.14865E-06 1.13285E-04-1.70313E-04-2.22857E-06 1.04625E-05
 -1      3384 1.55747E-05-1.78103E-04-6.64023E-05-1.32361E-04 2.28865E-06 9.35622E-06
 -1      3385 2.46420E-04-1.47259E-04-2.88171E-04-3.26678E-04-4.38228E-05-1.38042E-05
 -1      3386 2.27551E-04-1.26327E-04-3.02254E-04-3.39983E-04 2.51457E-06 7.39549E-05
 -1      3387 1.09354E-03-1.57420E-04-7.26285E-04 1.32552E-04-3.00646E-05 1.14696E-05
 -1      3388 5.13837E-02-1.85861E-02-1.83284E-02 3.10692E-03 1.40765E-05 1.74930E-05
 -1      3389 5.03610E-02-1.79482E-02-1.80210E-02 3.44045E-03-1.65872E-05-3.86898E-05
 -1      3390 5.12002E-02-1.85474E-02-1.82547E-02 3.13304E-03-1.88622E-05-3.05733E-05
 -1      3391 5.19938E-02-1.86861E-02-1.86190E-02 2.77125E-03 2.49429E-05 1.74781E-05
 -1      3392 3.26860E-02-1.11196E-02-1.32170E-02 4.35021E-03-2.03713E-04 5.28872E-04
 -1      3393 2.72949E-02-8.56532E-03-1.16246E-02 5.26173E-03-4.71087E-04 8.09442E-04
 -1      3394 3.37056E-02-1.16503E-02-1.34244E-02 4.19497E-03 8.64856E-07 1.07487E-03
 -1      3395 3.87940E-02-1.33596E-02-1.47103E-02 4.44600E-03 6.00354E-05 3.04505E-04
 -1      3396-2.62435E-04 8.64749E-05 9.87400E-05-3.77466E-05 2.56551E-06 1.20319E-05
 -1      3397 5.32460E-02-1.89785E-02-1.98364E-02 3.50758E-03 2.16829E-04 5.36841E-04
 -1      3398 5.44054E-02-1.96424E-02-2.00817E-02 3.83372E-03 1.24332E-05 4.57580E-05
 -1      3399 5.19626E-02-1.85870E-02-1.91032E-02 2.68922E-03-1.10656E-04 6.89986E-06
 -1      3400-1.20136E-04 3.87629E-05 5.08720E-05-3.14823E-05 3.07912E-06-6.19726E-06
 -1      3401-1.88323E-04 6.17471E-05 7.73103E-05-4.17270E-05-5.21412E-06-8.50022E-06
 -1      3402-2.76998E-04 9.95020E-05 9.07350E-05-5.70217E-05-6.67410E-06-1.58061E-05
 -1      3403-5.84100E-05 1.64380E-05 2.85354E-05-1.67021E-05-1.70498E-06-1.66388E-06
 -1      3404-9.23845E-05 3.31836E-05 4.11210E-05-2.27098E-05 1.37416E-06 4.06146E-06
 -1      3405-5.18774E-05 1.57522E-05 2.49269E-05-1.32832E-05 5.68867E-07 4.34921E-06
 -1      3406-2.27344E-05 7.70620E-06 1.28445E-05-3.55983E-06-3.48215E-08 1.49699E-07
 -1      3407-3.08825E-05 1.02193E-05 1.51338E-05-5.64969E-06 1.29647E-06-1.90959E-06
 -1      3408-2.79050E-05 8.86084E-06 1.47784E-05-4.61105E-06-8.03710E-07 7.75817E-07
 -1      3409 5.33260E-02-1.90664E-02-1.98355E-02 3.44487E-03-2.44307E-04-4.94672E-04
 -1      3410 5.17732E-02-1.83777E-02-1.92091E-02 2.72471E-03 3.32244E-05-1.99441E-04
 -1      3411 3.20314E-02-9.43195E-03-1.16730E-02-3.54833E-04 1.35706E-03 1.01423E-06
 -1      3412 2.93336E-02-8.43283E-03-1.24500E-02 2.15129E-03-2.14533E-04 9.57943E-04
 -1      3413 5.16844E-02-1.84387E-02-1.89994E-02 2.63848E-03 7.35930E-05 7.01350E-05
 -1      3414 5.15302E-02-1.84659E-02-1.87483E-02 2.57077E-03-8.73906E-06 3.32174E-05
 -1      3415 3.78316E-03-1.28051E-03-1.66822E-03 1.22725E-03 1.04738E-04 1.77333E-04
 -1      3416 1.44210E-02-5.25676E-03-4.83081E-03 3.99894E-03-8.09943E-04 8.22853E-04
 -1      3417 2.63575E-02-1.04982E-02-7.49810E-03 5.85493E-03 7.46676E-04-9.17813E-04
 -1      3418 1.49302E-02-5.73986E-03-4.32182E-03 2.88329E-03 4.89947E-04-3.52841E-04
 -1      3419 8.55398E-03-3.10646E-03-3.38396E-03 2.06410E-03-2.52954E-04-3.97960E-05
 -1      3420 3.91050E-03-1.32033E-03-1.84656E-03 1.03006E-03-2.62141E-04-2.58010E-04
 -1      3421 1.07581E-03-1.42347E-04-7.29245E-04 2.04077E-04 2.29755E-05-3.44991E-05
 -1      3422 3.30436E-02-1.13016E-02-1.15702E-02-6.63290E-05-1.76319E-05 3.29755E-04
 -1      3423 3.80756E-02-1.59388E-02-1.10787E-02-2.47855E-03-1.54603E-05 4.99131E-05
 -1      3424 2.90229E-02-1.39669E-02-8.29335E-03 1.32939E-03 3.79437E-04-1.65486E-03
 -1      3425 2.98766E-02-1.37623E-02-7.29694E-03 1.94881E-03-5.31407E-04 2.34369E-04
 -1      3426 5.17894E-02-1.86558E-02-1.85100E-02 2.84326E-03-3.35187E-05 4.72408E-06
 -1      3427 5.19478E-02-1.86187E-02-1.86353E-02 2.73999E-03-6.92561E-06 9.56381E-06
 -1      3428 5.17830E-02-1.85494E-02-1.86770E-02 2.63118E-03 3.66773E-06-8.11752E-06
 -1      3429 2.23436E-02-9.16239E-03-5.67103E-03 4.22459E-03-5.51809E-04 5.07777E-04
 -1      3430 5.19087E-02-1.85627E-02-1.86689E-02 2.72366E-03 4.36229E-06 8.01120E-06
 -1      3431 3.34839E-08 5.89546E-08-5.26201E-08 9.87673E-08 4.04193E-09 3.96799E-09
 -1      3432-3.12599E-08 9.64828E-08-3.65051E-08-3.46971E-08-7.16869E-09-1.05756E-09
 -1      3433 7.09620E-07-3.00884E-07 2.47251E-08 5.41481E-07 1.91857E-09-1.73262E-08
 -1      3434 3.99813E-07-6.50370E-08-2.01131E-07 3.37621E-07-1.53418E-08-2.59858E-08
 -1      3435-6.52550E-10 8.04810E-08-4.43922E-08 7.91469E-08 3.13338E-10-4.18213E-09
 -1      3436 1.15810E-07 4.34645E-09-6.59131E-08 1.27503E-07 6.24677E-09 5.85076E-09
 -1      3437 2.24815E-07-7.34300E-08-8.08728E-08 1.17503E-07 7.17791E-09 8.35256E-09
 -1      3438 3.63386E-07-1.08035E-07-1.58550E-07 1.28400E-07 4.88468E-09-9.04361E-09
 -1      3439 3.38812E-07-1.38682E-07-1.09896E-07 2.63037E-08 1.29007E-09-1.27399E-08
 -1      3440 4.44807E-08 5.32726E-08-5.59577E-08-1.07626E-07-5.35544E-09 4.54097E-09
 -1      3441-1.10417E-08 8.79074E-08-4.43811E-08-7.27632E-08-2.24387E-09 5.31809E-09
 -1      3442-3.66726E-08 9.45424E-08-3.32247E-08-7.72835E-09-7.61487E-09 7.62214E-10
 -1      3443-2.84698E-08 9.86092E-08-4.00344E-08 5.15104E-08-3.95639E-09-2.17012E-09
 -1      3444 3.61631E-07-1.55369E-07-1.11107E-07-3.49578E-08-1.92348E-09 2.75096E-08
 -1      3445 3.63432E-07-4.87818E-08-2.01841E-07-2.24119E-07-5.40192E-09 2.18872E-08
 -1      3446 2.58023E-07-9.17505E-08-8.81324E-08-9.25340E-08 5.13428E-10-1.10926E-08
 -1      3447 1.26810E-07 2.26206E-09-6.93434E-08-1.40620E-07 3.97204E-09 8.63575E-10
 -1      3448 4.22903E-07-2.09767E-08-2.55732E-07-3.66034E-07-8.83290E-08 1.21683E-07
 -1      3449-3.11281E-08 9.12535E-08-3.41668E-08 1.67932E-08-6.02818E-09-1.03817E-09
 -1      3450-3.57037E-08 9.90734E-08-3.57702E-08 1.81047E-08-6.28164E-09-1.07585E-09
 -1      3451 1.64039E-08 7.09816E-08-5.04028E-08 8.91192E-08 1.98739E-09 3.12876E-09
 -1      3452 1.68685E-08 7.18521E-08-4.99367E-08 9.56651E-08-2.92729E-09-3.99422E-09
 -1      3453-1.99418E-08 9.28016E-08-4.18517E-08-5.94165E-08-7.13681E-09 4.47609E-09
 -1      3454-2.18510E-08 9.28697E-08-3.99383E-08-5.25019E-08-3.83299E-09 7.02177E-10
 -1      3455 1.91953E-08 7.07553E-08-5.13014E-08-9.31888E-08-2.27327E-09 7.81407E-09
 -1      3456 2.57490E-07-8.74615E-08-9.63045E-08 5.66972E-08 4.41152E-09 2.12504E-08
 -1      3457 1.64077E-08 7.74944E-08-5.25539E-08-1.07900E-07-4.92434E-10-3.12166E-10
 -1      3458 2.79200E-07-1.03115E-07-9.56871E-08 6.06352E-08 2.08641E-09 1.12773E-08
 -1      3459 7.50597E-08 3.62517E-08-6.15955E-08 1.32339E-07 5.70396E-09 6.18412E-09
 -1      3460 8.16883E-08 3.35408E-08-6.33397E-08 1.29004E-07 2.92801E-09-1.73706E-09
 -1      3461-3.58241E-08 9.88687E-08-3.54531E-08-1.84268E-08-7.97064E-09 2.32262E-09
 -1      3462-3.08547E-08 9.17789E-08-3.56646E-08-1.86569E-08-7.73292E-09-1.25253E-09
 -1      3463 8.04450E-08 3.50154E-08-6.41801E-08-1.26324E-07-5.83746E-10 9.76766E-10
 -1      3464 1.83408E-07-4.26443E-08-7.69147E-08 1.19679E-07 6.99926E-09 1.30471E-08
 -1      3465 7.75774E-08 3.65010E-08-6.20527E-08-1.21958E-07 2.73988E-09-4.85811E-09
 -1      3466 1.66331E-07-2.95905E-08-7.67234E-08 1.12598E-07 5.20222E-09 5.15712E-09
 -1      3467 3.44111E-07-9.06465E-08-1.51596E-07 2.14383E-07-2.03998E-08-5.88607E-08
 -1      3468 3.56112E-07 6.19910E-09-2.15717E-07 2.99099E-07-8.42949E-08-1.46486E-07
 -1      3469 3.40484E-07-8.43151E-08-1.51895E-07 2.12829E-07 1.11498E-08 1.11331E-08
 -1      3470 3.45843E-07-3.33784E-08-1.75380E-07 2.90449E-07 3.40093E-08 1.01177E-07
 -1      3471 2.02518E-07-4.96050E-08-8.60783E-08-1.28298E-07 1.09671E-09-8.75074E-09
 -1      3472 1.81752E-07-3.87729E-08-7.88649E-08-1.22740E-07 1.23921E-09 3.38662E-09
 -1      3473 3.95164E-07-2.80048E-08-2.12983E-07-3.27720E-07 2.47749E-08-5.29972E-08
 -1      3474 3.55662E-07-1.39857E-07-1.18118E-07 7.23789E-08-1.17759E-09-3.45235E-08
 -1      3475-2.12115E-08 9.21689E-08-4.07632E-08 5.67659E-08 4.71069E-10-3.42140E-10
 -1      3476 3.56617E-07-1.38655E-07-1.20652E-07-6.68044E-08-5.31216E-09 4.86442E-08
 -1      3477-1.98534E-08 8.94227E-08-3.93557E-08 5.41928E-08-3.98142E-09-2.11407E-09
 -1      3478 3.60093E-07-1.41060E-07-1.21178E-07-8.02409E-08-2.59832E-09 7.09724E-09
 -1      3479 3.29467E-07-1.16878E-07-1.19406E-07 5.59321E-08-1.48403E-09-3.54779E-09
 -1      3480 3.00315E-07-1.13928E-07-1.01520E-07-4.91705E-08-1.13054E-09-1.14807E-08
 -1      3481 3.55508E-07-1.01353E-07-1.45701E-07-1.87322E-07-3.54271E-08 7.37510E-08
 -1      3482 3.35663E-07-9.25205E-08-1.34744E-07-1.96222E-07 1.74435E-08-7.46357E-09
 -1      3483 3.08932E-07-1.27651E-07-9.81997E-08-5.53489E-08 5.63423E-09-9.79884E-09
 -1      3484 6.68146E-07-2.74824E-07 1.42529E-07-8.16753E-07-9.94283E-08 1.79085E-07
 -1      3485 7.67253E-07-2.22222E-07-8.23355E-08-4.54303E-07 9.28187E-08 4.18852E-08
 -1      3486 1.02111E-06-1.75378E-07-2.22638E-07 7.64613E-07-1.05644E-07-9.48422E-09
 -1      3487 8.34313E-07-7.57918E-08-1.84067E-07 7.79538E-07 6.26382E-08-2.94820E-08
 -1      3488 7.24176E-07-6.47126E-08 3.64296E-08-9.83765E-07-1.85247E-07 1.69481E-07
 -1      3489-3.16861E-07 4.76554E-07 2.03471E-07 1.19549E-06 4.12133E-07 1.58032E-07
 -1      3490 7.04102E-07-1.62069E-07-1.96635E-07 3.55991E-07-7.88630E-08-1.30458E-07
 -1      3491 3.90348E-07-1.07810E-07 6.06601E-07 1.15233E-06 3.77681E-07 5.32429E-07
 -1      3492 6.95277E-07-1.74567E-07-1.24230E-07-4.57411E-07 7.11770E-08 1.12476E-08
 -1      3493-7.56533E-07 4.34613E-07 5.64247E-07-1.18142E-06-5.49876E-07 1.78411E-07
 -1      3494 3.40300E-07-1.43256E-07 8.75101E-07-1.27718E-06-3.51183E-07 4.27230E-07
 -1      3495 8.56002E-07-2.32705E-07-2.56486E-07 2.82503E-07 7.30555E-08 5.85819E-08
 -1      3496-4.20389E-07 4.55065E-07 2.51616E-07 1.13290E-06-3.94538E-07-1.58892E-07
 -1      3497 3.85286E-07-1.25532E-07 6.27381E-07 1.35194E-06-4.00898E-07-4.06753E-07
 -1      3498-2.57344E-07 4.39705E-07 9.17592E-08-1.18177E-06 3.17574E-07 1.96943E-08
 -1      3499 6.58584E-07-1.47512E-07-1.82203E-07-2.52140E-07-2.78071E-08 1.79050E-07
 -1      3500 5.86333E-07-2.04945E-07 7.07042E-07-1.59547E-06 4.36862E-07-5.93800E-07
 -1      3501 3.18459E-07-1.85875E-08-1.69994E-07-2.60423E-07 3.20099E-08-3.63885E-08
 -1      3502 2.61942E-07-1.81257E-08-1.05604E-07-2.19191E-07 2.88948E-08-7.99443E-08
 -1      3503 5.16576E-07-1.32921E-07-1.63387E-07-6.14892E-07 4.20288E-08 6.08858E-08
 -1      3504 4.18323E-07-8.22188E-08-1.07319E-07-5.74364E-07 1.30157E-07 5.01992E-09
 -1      3505 4.92201E-07 6.25763E-08-1.87443E-09-9.85988E-07-8.23084E-08 1.84922E-07
 -1      3506 3.31055E-07-8.51330E-08-1.42457E-07-1.71601E-07 5.78430E-09 1.18139E-08
 -1      3507 2.52184E-07-2.48047E-08-1.39641E-07-1.96332E-07 2.03669E-08-2.02154E-08
 -1      3508 3.02212E-07-6.09464E-08-1.64581E-07-2.40996E-07 2.81517E-08-3.48012E-08
 -1      3509 3.14520E-07-1.12007E-07-1.17836E-07-3.90624E-08 4.66637E-09 7.44062E-09
 -1      3510 3.19776E-07-1.02961E-07-1.24924E-07-1.11067E-07 1.89845E-12-5.29851E-10
 -1      3511 3.22308E-07-1.20977E-07-1.24539E-07-1.29411E-07 4.48886E-09-3.55203E-09
 -1      3512 2.42736E-07-7.67682E-08-9.59936E-08 7.59852E-08 5.78441E-09 5.90407E-09
 -1      3513 3.16164E-07-1.21985E-07-1.09442E-07 2.75874E-08 1.97807E-09 2.97546E-09
 -1      3514 2.95618E-07-1.21059E-07-1.06524E-07-3.40252E-09-1.18961E-09 2.39561E-08
 -1      3515 1.46324E-07-1.30118E-08-7.71497E-08 1.12796E-07 3.24855E-09 4.51944E-10
 -1      3516 2.03818E-07-5.23191E-08-8.59111E-08 9.91595E-08 4.56700E-10-3.01210E-09
 -1      3517 2.08675E-07-5.70153E-08-9.07186E-08 9.51997E-08 7.66605E-09 1.17714E-08
 -1      3518 6.08379E-08 4.70789E-08-6.24289E-08 1.17183E-07 4.55605E-09-4.38485E-09
 -1      3519 1.05776E-07 1.11570E-08-6.83144E-08 1.13711E-07 1.52726E-09-6.22489E-09
 -1      3520 1.12517E-07-1.52414E-09-7.01126E-08 1.14073E-07 5.57027E-09-2.33248E-10
 -1      3521 7.55388E-09 7.31213E-08-4.63036E-08 7.60175E-08-2.39591E-09-4.16915E-09
 -1      3522 2.70360E-08 6.22635E-08-4.93285E-08 1.01288E-07-3.08434E-09-4.34551E-09
 -1      3523 3.84698E-08 4.83048E-08-5.47696E-08 1.07315E-07-1.24451E-09-9.15695E-10
 -1      3524-2.18087E-08 8.87894E-08-3.83780E-08 4.35939E-08-2.52367E-09-2.26149E-09
 -1      3525-8.39723E-09 8.09588E-08-4.17350E-08 6.19847E-08-4.24114E-09-3.43816E-09
 -1      3526-5.99463E-09 7.52079E-08-4.48007E-08 6.90729E-08-2.77851E-09-1.43704E-09
 -1      3527-3.67947E-08 9.40737E-08-3.49666E-08 7.34151E-09-2.15255E-09-1.20203E-09
 -1      3528-2.77422E-08 8.82098E-08-3.48196E-08 2.56105E-08-4.25401E-09-2.05559E-09
 -1      3529-2.92718E-08 8.62976E-08-3.59665E-08 3.33645E-08-4.11512E-09-2.21164E-09
 -1      3530-2.71471E-08 9.08674E-08-3.69025E-08-2.74004E-08-2.46674E-09-6.38628E-10
 -1      3531-3.56735E-08 9.81666E-08-3.56060E-08-1.46427E-08-4.88600E-09-6.11283E-10
 -1      3532-3.53218E-08 8.63875E-08-3.16242E-08-7.83987E-10-6.61002E-09 8.03900E-13
 -1      3533-1.33921E-08 9.09833E-08-4.45977E-08-6.44276E-08 9.04503E-10-7.09283E-10
 -1      3534-2.30165E-08 9.11374E-08-3.99825E-08-4.10027E-08-2.51249E-09-1.02059E-09
 -1      3535-2.75200E-08 8.87361E-08-3.86504E-08-3.30097E-08-6.30658E-09-1.90708E-09
 -1      3536 2.68157E-08 6.83108E-08-5.28105E-08-1.08266E-07 2.19546E-09-6.14678E-09
 -1      3537 5.97814E-09 7.83255E-08-4.89145E-08-8.10097E-08-5.08840E-10-2.55283E-09
 -1      3538-8.92670E-09 7.60486E-08-4.25064E-08-7.20829E-08-2.91565E-09 4.35758E-09
 -1      3539 1.09361E-07 1.31038E-08-6.97288E-08-1.23052E-07 4.46197E-09-8.74691E-09
 -1      3540 6.26981E-08 5.03891E-08-6.47375E-08-1.22863E-07 4.78640E-10-5.20324E-09
 -1      3541 4.33977E-08 5.13898E-08-5.69145E-08-1.11310E-07 2.27606E-09-7.72456E-09
 -1      3542 2.22241E-07-5.83331E-08-9.54013E-08-1.01575E-07-1.41902E-09-1.25078E-08
 -1      3543 1.70967E-07-2.22178E-08-8.72888E-08-1.24402E-07-4.11054E-09-7.40092E-09
 -1      3544 1.17234E-07-3.83552E-09-6.72388E-08-1.21655E-07 1.11391E-09-2.94771E-09
 -1      3545 3.28747E-07-1.26578E-07-1.13659E-07-3.47210E-08-4.19241E-09-1.16225E-08
 -1      3546 2.62222E-07-8.24866E-08-1.01336E-07-7.22660E-08-1.26448E-10-7.18812E-09
 -1      3547 2.29258E-07-8.04229E-08-9.35057E-08-8.55987E-08-7.85578E-10-7.30716E-09
 -1      3548 3.25412E-07-1.07336E-07-1.27347E-07 1.04672E-07-5.45365E-09-2.57070E-08
 -1      3549 3.23616E-07-1.17680E-07-1.20826E-07 2.94296E-08-7.49566E-09-1.36771E-08
 -1      3550 3.09201E-07-1.30079E-07-1.09145E-07 9.42693E-09 1.46925E-09-1.11562E-08
 -1      3551 2.52603E-07-2.84828E-08-1.26387E-07 2.12731E-07-2.31541E-08-5.55238E-08
 -1      3552 3.43868E-07-9.36125E-08-1.43685E-07 1.75919E-07-1.30617E-08-2.56007E-08
 -1      3553 3.24668E-07-1.09698E-07-1.35400E-07 1.34985E-07-8.47100E-09-5.32728E-08
 -1      3554 2.70933E-07-1.26372E-08-1.33339E-07 2.01715E-07-6.86441E-08-1.07336E-07
 -1      3555 2.71540E-07 1.09312E-08-1.63416E-07 2.45054E-07-4.48119E-08-7.49249E-08
 -1      3556 3.15003E-07-4.18337E-08-1.78250E-07 2.49671E-07-3.88894E-08-1.18934E-07
 -1      3557 4.06982E-07-2.97827E-08-1.68553E-07 5.44305E-07-6.83720E-08-1.16853E-07
 -1      3558 6.05408E-08 4.31548E-08-6.01859E-08-1.08194E-07 1.15090E-09 4.88317E-09
 -1      3559 1.10310E-07 9.79714E-09-6.82023E-08-1.20796E-07-2.10570E-09 5.42153E-09
 -1      3560 4.93220E-09 7.94735E-08-5.05457E-08-7.79136E-08-2.08830E-09 4.13105E-09
 -1      3561 2.94112E-08 6.91432E-08-5.64700E-08-1.09251E-07-5.27527E-09 7.73599E-09
 -1      3562 4.42134E-08 5.24906E-08-5.79951E-08-1.04686E-07 7.86789E-11 4.90537E-10
 -1      3563 1.62007E-07-2.00066E-08-8.10197E-08-1.20904E-07 3.46963E-09 4.24527E-09
 -1      3564 2.10559E-07-5.49657E-08-8.91455E-08-9.87666E-08-1.66108E-10 7.95937E-09
 -1      3565 1.18891E-07-5.46748E-09-6.75472E-08-1.25268E-07 1.85630E-09 1.68991E-09
 -1      3566 2.53938E-07-7.96314E-08-9.82120E-08-7.19595E-08 7.92406E-09-2.67868E-09
 -1      3567 3.21627E-07-1.34269E-07-1.04113E-07-3.15130E-08 1.99193E-09-3.06110E-09
 -1      3568 2.20653E-07-7.57761E-08-9.13650E-08-8.76411E-08 1.86253E-09-5.03573E-09
 -1      3569 3.32842E-07-1.30793E-07-1.14473E-07 3.16525E-08 4.94039E-10-5.09930E-09
 -1      3570 3.11344E-07-9.96769E-08-1.26246E-07 1.01041E-07-2.84039E-10 7.18090E-09
 -1      3571 3.08609E-07-1.34155E-07-9.86926E-08 2.63165E-09 1.04676E-09-8.09136E-09
 -1      3572 3.35864E-07-9.10772E-08-1.40432E-07 1.76759E-07 3.29216E-09-4.35649E-09
 -1      3573 2.47902E-07-2.26669E-08-1.29913E-07 2.09378E-07 1.30499E-08 2.55991E-08
 -1      3574 3.25609E-07-9.00890E-08-1.44385E-07 1.21574E-07 3.68384E-09 1.20599E-08
 -1      3575 2.81102E-07-9.41631E-10-1.54906E-07 2.44490E-07 2.98784E-08 5.27759E-08
 -1      3576 2.84614E-07-4.91008E-08-1.39609E-07 1.26132E-07-1.73388E-08 6.27611E-08
 -1      3577 3.05404E-07-3.77419E-08-1.73107E-07 2.47045E-07 3.06056E-08 8.62884E-08
 -1      3578 4.82842E-07-1.34737E-07-1.49420E-07 5.17347E-07-1.58848E-08 1.17300E-07
 -1      3579 2.64238E-07-1.93476E-09-1.53420E-07-2.40892E-07-9.69759E-08 1.09753E-07
 -1      3580 3.03139E-07 1.07758E-08-1.95267E-07-2.66663E-07-7.61861E-08 9.63381E-08
 -1      3581 5.29569E-07-7.03942E-08-1.47383E-07-4.39469E-07-2.45599E-08 1.26858E-07
 -1      3582 2.51994E-07-2.82374E-08-1.35689E-07-1.90992E-07-3.37975E-08 6.16496E-08
 -1      3583 3.42558E-07-9.36506E-08-1.43511E-07-1.66751E-07-1.90463E-08 3.18190E-08
 -1      3584 3.28328E-07-5.29023E-08-1.89125E-07-2.52621E-07-7.23718E-08 1.04525E-07
 -1      3585 3.24549E-07-1.05260E-07-1.26977E-07-1.00244E-07-4.13431E-09 3.74939E-08
 -1      3586 3.40358E-07-1.33971E-07-1.19503E-07-8.63139E-09-6.51769E-09 1.64217E-08
 -1      3587 3.43187E-07-1.21492E-07-1.31835E-07-1.23201E-07-1.87967E-08 6.57666E-08
 -1      3588 2.93023E-07-1.07440E-07-1.04675E-07 5.09727E-08 4.66793E-09 1.77266E-08
 -1      3589 2.46693E-07-7.66806E-08-9.75157E-08 7.76652E-08 2.02836E-09 1.51538E-08
 -1      3590 2.99589E-07-1.09383E-07-1.10331E-07 1.21525E-08-9.97332E-10 2.75298E-08
 -1      3591 2.12248E-07-5.52546E-08-8.77251E-08 1.06319E-07 6.24472E-09 1.78346E-08
 -1      3592 1.52829E-07-1.46697E-08-7.89467E-08 1.17711E-07 3.93500E-09 1.34816E-08
 -1      3593 2.13354E-07-6.78553E-08-8.32605E-08 8.42338E-08 2.42609E-09 1.82839E-08
 -1      3594 1.08635E-07 1.33205E-08-6.96351E-08 1.17513E-07 6.64632E-09 1.17339E-08
 -1      3595 5.97166E-08 4.96026E-08-6.16744E-08 1.21786E-07 8.02082E-10 7.23123E-09
 -1      3596 1.14856E-07-4.73461E-09-7.04347E-08 1.19223E-07 1.01247E-08 7.48145E-09
 -1      3597 2.66451E-08 6.81231E-08-5.39364E-08 1.04480E-07 5.63150E-09 5.35603E-09
 -1      3598 7.73866E-09 7.58887E-08-4.88949E-08 7.88486E-08 2.30862E-09 2.42857E-09
 -1      3599 3.77395E-08 5.76968E-08-5.77751E-08 1.08101E-07 1.29202E-10 4.66952E-09
 -1      3600-8.82491E-09 8.36004E-08-4.28717E-08 6.41811E-08 1.69612E-09 2.21698E-09
 -1      3601-2.27579E-08 9.19871E-08-3.98997E-08 4.54405E-08-5.86262E-10 1.20067E-09
 -1      3602-3.44722E-09 7.61355E-08-4.46834E-08 6.89680E-08 1.74803E-09-5.73003E-10
 -1      3603-2.82199E-08 9.01508E-08-3.56941E-08 2.61783E-08-2.71703E-09-1.05641E-10
 -1      3604-3.54114E-08 9.29765E-08-3.37176E-08 1.00783E-08-4.42621E-09 6.60553E-10
 -1      3605-2.87421E-08 8.68796E-08-3.64325E-08 3.37472E-08-3.86748E-09-1.10348E-09
 -1      3606-3.99768E-08 9.85359E-08-3.34083E-08-9.18187E-09-3.43334E-09 1.71878E-09
 -1      3607-2.81525E-08 9.00865E-08-3.47065E-08-2.63330E-08-5.66003E-09 1.63554E-09
 -1      3608-3.46609E-08 8.70383E-08-3.29231E-08 1.09422E-09-6.82380E-09 1.15270E-09
 -1      3609-2.23363E-08 8.98157E-08-3.99375E-08-4.10793E-08-4.09816E-09 2.64695E-09
 -1      3610-1.30033E-08 8.92308E-08-4.32881E-08-6.47061E-08-7.15491E-09 5.39285E-09
 -1      3611-2.74279E-08 8.45646E-08-3.63531E-08-3.42071E-08-7.65199E-09 2.19176E-10
 -1      3612-2.14691E-09 7.56299E-08-4.68819E-08-7.16920E-08-4.70614E-09 7.52325E-09
 -1      3613 2.10444E-07-3.67542E-07 7.85681E-07 1.08022E-06 3.77892E-07 1.22496E-07
 -1      3614 2.12298E-07-3.87717E-07 8.75984E-07 1.30215E-06-3.10054E-07-9.53879E-08
 -1      3615 5.52909E-07-5.63434E-08 2.89053E-08 8.20948E-07 7.32940E-08-7.62350E-08
 -1      3616 7.26585E-07-2.62886E-07 9.47058E-08 8.13225E-07-1.15471E-07 8.16938E-08
 -1      3617 2.55986E-07-3.45481E-07 9.06733E-07-1.04754E-06-4.93673E-07 1.51811E-07
 -1      3618 2.93574E-07-4.41214E-07 1.04313E-06-1.54146E-06 6.57417E-08-1.57976E-07
 -1      3619 6.44910E-07-3.88519E-07 2.65300E-07-5.72019E-07-3.59688E-08 9.64926E-08
 -1      3620 3.72386E-07-8.23006E-08-1.74060E-07-2.06469E-07-2.00590E-08 5.35348E-08
 -1      3621 3.24537E-07-8.20727E-08-1.59136E-07-1.48639E-07-6.10431E-09 3.44038E-08
 -1      3622 3.82172E-07-4.42582E-08-2.21001E-07-2.86176E-07-3.35611E-08 5.31365E-08
 -1      3623 3.26028E-07-6.40513E-08-1.61071E-07-1.97042E-07 5.19228E-09-5.22953E-10
 -1      3624 3.74143E-07-2.79671E-08-2.15160E-07-2.65929E-07 1.43983E-08-2.98149E-08
 -1      3625 3.22157E-07-8.99841E-08-1.52991E-07-1.46210E-07-4.86221E-09 2.21709E-08
 -1      3626 1.87755E-09 7.28454E-08-4.19818E-08 7.80601E-08 1.57684E-09 5.91860E-10
 -1      3627-1.19668E-08 7.70908E-08-3.90049E-08 6.29381E-08-7.84909E-10-1.87592E-09
 -1      3628-1.59462E-08 7.66774E-08-4.16593E-08 5.97777E-08-1.64518E-09-5.75273E-09
 -1      3629-2.50755E-08 9.74091E-08-4.06269E-08 5.58628E-08 1.07734E-09 1.38834E-09
 -1      3630-1.23722E-08 7.76327E-08-4.22526E-08 6.17389E-08-9.31498E-11-4.18710E-09
 -1      3631 8.55228E-09 7.84372E-08-4.92623E-08 9.17631E-08-8.96686E-09-8.13411E-09
 -1      3632-2.59320E-08 9.51433E-08-3.68959E-08 5.26803E-08-6.75910E-09-4.65045E-09
 -1      3633 2.03957E-08 6.81925E-08-5.16771E-08 9.40417E-08 1.28829E-09 4.89202E-09
 -1      3634 1.40804E-08 6.59615E-08-4.75119E-08 8.66348E-08 4.17285E-09 3.45936E-09
 -1      3635 2.62055E-08 5.97105E-08-4.86260E-08 9.32095E-08-1.63073E-09-1.39233E-09
 -1      3636 1.35008E-07-1.88032E-08-6.61468E-08 1.20369E-07 1.02257E-08 5.84971E-09
 -1      3637 2.03275E-07-5.61209E-08-7.71583E-08 1.23054E-07-2.33896E-09 4.87834E-09
 -1      3638 1.47653E-07-3.30401E-08-7.24588E-08 1.17661E-07 1.01191E-08 9.01304E-09
 -1      3639 1.74310E-07-3.97895E-08-7.21525E-08 1.15088E-07 1.72951E-08 7.49378E-09
 -1      3640 1.32173E-07-1.59377E-08-6.81461E-08 1.17286E-07 6.84505E-09 4.76330E-09
 -1      3641 8.86839E-08 1.60298E-08-5.95632E-08 1.28338E-07-1.51179E-10-1.51232E-09
 -1      3642 6.31144E-08 3.43369E-08-5.81888E-08 1.08925E-07 4.28945E-09 3.52089E-09
 -1      3643 4.93191E-08 5.31945E-08-5.80899E-08 1.12823E-07 9.15819E-09 4.38457E-09
 -1      3644 9.87378E-08 1.77235E-08-6.42359E-08 1.29524E-07 1.19672E-08 1.14203E-08
 -1      3645 4.91113E-08 4.10652E-08-5.31370E-08 1.08221E-07 2.99122E-11 3.64624E-09
 -1      3646-1.64655E-08 9.37612E-08-4.40102E-08-6.89053E-08-9.87068E-10 4.35378E-09
 -1      3647 2.00089E-09 7.14504E-08-4.56168E-08-7.80195E-08-5.43320E-09 1.00185E-08
 -1      3648 2.21224E-08 6.21653E-08-4.69897E-08-9.52115E-08-1.37783E-09 6.92132E-09
 -1      3649 1.02646E-08 6.60935E-08-4.64064E-08-8.43503E-08-6.07937E-10 9.10653E-09
 -1      3650-2.42946E-08 8.60330E-08-3.77270E-08-4.97475E-08-9.98782E-09 2.83884E-09
 -1      3651-2.86599E-08 8.54199E-08-3.33036E-08-4.17272E-08-9.46441E-09 7.97082E-10
 -1      3652-2.67952E-08 9.52062E-08-3.91426E-08-4.71360E-08-1.33201E-09-2.76035E-09
 -1      3653-1.69499E-08 8.16875E-08-3.71949E-08-5.85747E-08-3.46387E-09 1.03305E-10
 -1      3654-2.69865E-09 7.54537E-08-4.60683E-08-8.58707E-08 2.12002E-09 3.86030E-09
 -1      3655 3.27028E-08 6.22488E-08-5.55158E-08-1.07401E-07-6.07749E-09 6.15419E-09
 -1      3656-3.35407E-08 8.43654E-08-3.38528E-08 4.60502E-09-6.51624E-09 1.56637E-09
 -1      3657-3.67102E-08 9.89239E-08-3.58716E-08-1.34151E-08-1.24317E-08 2.20047E-09
 -1      3658-3.20306E-08 8.53330E-08-3.18655E-08-2.46663E-08-8.43518E-09 9.36103E-10
 -1      3659-3.43623E-08 8.53455E-08-3.08123E-08-1.90803E-08-2.41523E-09-6.12465E-10
 -1      3660-3.36456E-08 8.72795E-08-3.13671E-08-9.63260E-09-7.86808E-09-4.56918E-10
 -1      3661-3.65359E-08 8.54688E-08-3.28854E-08 4.11862E-09-7.56534E-09-3.46472E-10
 -1      3662-3.23523E-08 9.48827E-08-3.87938E-08-2.34874E-08-1.06043E-08-2.36520E-09
 -1      3663-3.39106E-08 9.65531E-08-3.41081E-08 1.64086E-08-6.70986E-09 7.33905E-10
 -1      3664 3.73533E-07-7.77993E-08-1.81801E-07 2.71024E-07-2.36735E-09-1.13110E-08
 -1      3665 3.60375E-07-2.53488E-08-2.33291E-07 3.35273E-07 3.15045E-08 4.83394E-08
 -1      3666 3.53354E-07-1.14391E-07-1.44354E-07 8.27341E-08 4.74464E-09-1.29174E-08
 -1      3667 3.38621E-07-9.99655E-08-1.63319E-07 1.59157E-07 1.23818E-08 8.01855E-09
 -1      3668 3.43018E-07-7.24990E-08-1.87394E-07 2.08791E-07-5.62342E-09-1.96460E-08
 -1      3669 5.03379E-07-1.50768E-07-1.14874E-07 4.36321E-07 4.97758E-08 1.08556E-07
 -1      3670 4.93777E-07-1.01524E-07-1.37833E-07 4.74357E-07-5.15875E-08-8.67894E-09
 -1      3671 5.20763E-08 4.83773E-08-5.71350E-08-1.14060E-07-5.38824E-09 1.27301E-09
 -1      3672 3.64367E-07-1.48885E-07-1.18465E-07-5.45941E-08-8.36889E-09 5.47555E-08
 -1      3673 2.84748E-07-1.10709E-07-1.01970E-07 1.87566E-08 5.76104E-09 2.29643E-08
 -1      3674 2.59492E-07-9.80890E-08-8.82147E-08 5.77861E-08 3.07725E-09 1.55613E-08
 -1      3675 2.84840E-07-1.24333E-07-9.18635E-08 1.90053E-08 5.68530E-09 1.96258E-08
 -1      3676 2.27498E-07-8.36254E-08-8.58966E-08 7.82770E-08 2.47457E-09 1.79973E-08
 -1      3677 2.42070E-07-8.85863E-08-8.05495E-08 9.05568E-08 2.35519E-10-7.66003E-09
 -1      3678 4.16532E-07-5.08056E-08-2.21528E-07-3.34089E-07-1.79641E-08 1.87761E-09
 -1      3679 6.07044E-07-1.94322E-07-8.01349E-08-6.80708E-07-4.02428E-08 1.08806E-07
 -1      3680 3.31354E-07-9.88813E-08-1.50279E-07 1.63622E-07-1.64504E-08-5.15622E-08
 -1      3681 3.37096E-07-1.16875E-07-1.27535E-07 1.07212E-07 1.14438E-09-3.17401E-08
 -1      3682 3.39214E-07-1.24459E-07-1.30468E-07 8.20718E-08 1.17599E-08 5.89749E-09
 -1      3683 3.63778E-07-1.48821E-07-1.20501E-07 5.14332E-08 7.01704E-10-4.24389E-08
 -1      3684 2.90255E-07-1.22356E-07-1.00563E-07-1.00127E-08-4.42383E-09-1.06992E-08
 -1      3685 3.67657E-07-2.57426E-08-2.07590E-07 3.26116E-07-5.35268E-08-8.71077E-08
 -1      3686 3.81265E-07-8.78164E-08-1.82969E-07 2.69663E-07-1.40969E-08-3.72045E-08
 -1      3687 4.76423E-07-5.03298E-08-1.56434E-07 5.12876E-07-4.98659E-08-1.30064E-07
 -1      3688-3.08522E-08 8.43823E-08-3.50902E-08 2.91367E-08-6.59223E-09-6.82686E-11
 -1      3689 3.15052E-07-9.24346E-08-1.50237E-07-1.26306E-07-6.91661E-09 2.68086E-08
 -1      3690 3.57830E-07-1.47353E-07-1.22394E-07-5.62095E-08-6.48752E-10-1.46633E-09
 -1      3691 2.66016E-07-1.12288E-07-9.13823E-08-2.84376E-08-9.92315E-09-1.23934E-08
 -1      3692 2.80284E-07-1.08316E-07-8.90309E-08-6.88725E-08 8.46311E-10-3.05591E-08
 -1      3693 2.98336E-07-1.36149E-07-9.99220E-08-1.41001E-08 2.92302E-09-1.29337E-08
 -1      3694 2.71811E-07-1.06831E-07-8.88029E-08-7.60995E-08-5.12843E-09 4.90854E-09
 -1      3695 2.12174E-07-7.46946E-08-8.54246E-08-1.06436E-07-2.68191E-10-9.97849E-09
 -1      3696 1.73053E-07-5.11311E-08-7.33797E-08-1.07186E-07 7.49256E-09-2.35983E-09
 -1      3697 1.56920E-07-2.85155E-08-7.01285E-08-1.33507E-07 1.29683E-08-1.43174E-08
 -1      3698 1.97522E-07-6.34866E-08-7.69692E-08-1.01462E-07 4.78137E-09-2.05971E-09
 -1      3699 1.57400E-07-2.67862E-08-7.04193E-08-1.32144E-07-2.90542E-09 1.10115E-08
 -1      3700-3.29898E-08 8.55079E-08-3.67172E-08 3.06095E-08-5.77229E-09-1.31493E-09
 -1      3701 3.25703E-07-1.31994E-07-1.07951E-07 3.13862E-08 1.09523E-09-1.08867E-08
 -1      3702 9.48724E-08 2.53835E-08-7.01477E-08-1.34827E-07 8.43640E-09 2.41575E-09
 -1      3703 7.48962E-08 3.23967E-08-6.16909E-08-1.19583E-07-8.82843E-09 1.21967E-09
 -1      3704 6.25211E-08 3.95981E-08-5.67490E-08-1.12321E-07-1.21482E-09-6.80755E-10
 -1      3705 8.96377E-08 1.71165E-08-6.02021E-08-1.22843E-07-2.12862E-09-3.18050E-09
 -1      3706 8.47340E-02-1.90171E-02-3.08559E-02 6.11363E-03 1.19142E-03 6.91347E-04
 -1      3707 7.95608E-02-1.25474E-02-3.12798E-02-2.60607E-03 1.83579E-03-9.72374E-04
 -1      3708 7.32825E-04 7.21638E-04-4.67805E-03-2.36155E-02 7.16232E-04-8.13351E-04
 -1      3709 6.26524E-02-2.17542E-02-2.13162E-02 1.74575E-02-2.37595E-03 2.08589E-03
 -1      3710 6.78576E-02-2.15407E-02-2.33476E-02-1.36006E-02-3.62168E-03-1.54591E-03
 -1      3711-1.24801E-02 9.23873E-03-3.85044E-04-1.28368E-02-7.70613E-04 4.95234E-04
 -1      3712 5.27703E-02-2.34062E-02-1.64840E-02-2.22912E-02 1.14456E-03 3.01985E-03
 -1      3713 3.72008E-02-1.67912E-02-1.31522E-02 2.22715E-02 8.41301E-04-2.47999E-03
 -1      3714-1.07917E-02 9.31481E-03 3.32373E-04-3.44357E-03 9.81934E-05-6.85124E-04
 -1      3715-1.23455E-02 9.76432E-03 8.91794E-04-4.70956E-03-1.46079E-04-6.92404E-05
 -1      3716 5.90805E-04-2.29425E-04-4.12837E-03-2.55419E-02-3.94925E-04 3.00652E-03
 -1      3717-1.00632E-02 8.93722E-03 3.40663E-04 3.16130E-03-7.43521E-05 2.50486E-04
 -1      3718-9.48841E-03 7.35543E-03-1.48417E-03 1.79268E-02-2.10222E-04-7.09136E-04
 -1      3719-2.49252E-03 2.28280E-03-3.08703E-03 2.43463E-02 6.50433E-05 2.92961E-03
 -1      3720-1.27925E-02 1.00270E-02 5.92029E-04 8.71623E-03 3.30132E-05-8.06667E-06
 -1      3721-9.92181E-03 9.48957E-03 1.85002E-04-1.99602E-03-3.74754E-04 3.15144E-04
 -1      3722-1.22956E-02 9.68747E-03 8.93162E-04-6.41813E-03-5.28761E-04 7.01923E-04
 -1      3723-1.10716E-02 9.46113E-03 4.90646E-04 6.03709E-03 1.68071E-04 5.55298E-04
 -1      3724-9.76688E-03 9.85863E-03-1.51668E-04 1.86261E-03 1.81714E-04 2.11647E-04
 -1      3725-1.02309E-02 9.27018E-03 3.18927E-04 1.76542E-03 9.08294E-05 2.11941E-04
 -1      3726-9.84652E-03 8.63864E-03 4.72433E-04-1.66191E-03-1.16252E-04 1.47627E-04
 -1      3727-1.15869E-02 9.81967E-03 5.81578E-04-6.42821E-03 3.29292E-04-9.72475E-04
 -1      3728-9.90711E-03 1.00957E-02-2.69098E-04-1.97343E-03 4.05054E-04-4.15874E-04
 -1      3729-9.90577E-03 9.95754E-03-1.91876E-04 3.11337E-03-3.00992E-04-2.76442E-04
 -1      3730-1.28470E-02 1.09845E-02 5.79760E-04 8.26450E-03-1.54936E-05-1.00350E-03
 -1      3731-1.07254E-02 9.21563E-03 2.84810E-04-1.50771E-03 3.09798E-04-5.68293E-04
 -1      3732-1.04506E-02 9.22918E-03 2.65132E-04 2.71980E-03-1.87623E-04-1.34676E-04
 -1      3733 8.01686E-03-4.32878E-03-5.65921E-03-2.60695E-02-1.32173E-04 7.48428E-03
 -1      3734-1.35283E-02 9.69123E-03-5.06688E-04-1.61011E-02 9.17188E-05 1.34162E-03
 -1      3735-1.39873E-02 6.57908E-03-1.15014E-03-2.05730E-02-1.13171E-03 2.51205E-03
 -1      3736-1.32417E-02 1.04948E-02 5.56904E-05-9.61828E-03-6.42287E-04-6.19839E-04
 -1      3737-1.14189E-02 9.36271E-03-2.10515E-04-5.65233E-03-9.84604E-05-9.07606E-04
 -1      3738 4.18840E-02-2.10167E-02-1.19133E-02-2.66064E-02 9.21732E-04 6.70605E-03
 -1      3739 6.93454E-02-2.53611E-02-2.38409E-02-1.26859E-02 3.69145E-03 2.53016E-03
 -1      3740 2.33412E-02-1.34328E-02-8.56529E-03-2.98639E-02-6.79176E-06 3.06577E-03
 -1      3741 7.60783E-02-1.34065E-02-2.99774E-02-2.24761E-03 4.54818E-03-8.91173E-04
 -1      3742 7.67837E-02-1.29782E-02-3.06699E-02-1.99061E-03-2.13524E-03-6.82147E-04
 -1      3743 6.89410E-02-1.59407E-02-2.49201E-02-5.13134E-03 2.54515E-03 1.19934E-03
 -1      3744 4.70003E-02-2.00452E-02-1.41559E-02 2.33525E-02-1.76408E-03 6.74594E-03
 -1      3745 7.19587E-02-2.47236E-02-2.54092E-02 1.13561E-02-4.48494E-03 8.25944E-04
 -1      3746 7.60017E-02-1.45904E-02-2.78006E-02 3.10248E-03-9.84744E-04-4.20056E-05
 -1      3747-1.40967E-02 9.85367E-03 2.23641E-04 1.65541E-02-4.64936E-04 1.05613E-03
 -1      3748 3.82272E-03-2.43503E-03-4.81977E-03 2.75147E-02-8.84028E-04 6.13336E-03
 -1      3749 3.05829E-02-1.25643E-02-1.21839E-02 2.63842E-02-1.68485E-03 3.37600E-03
 -1      3750-1.63324E-02 8.38189E-03-2.69530E-04 1.58213E-02 3.81657E-04 1.28101E-03
 -1      3751 7.86597E-03-4.86790E-03-5.66091E-03-2.74234E-02-1.38969E-04-6.20832E-03
 -1      3752-1.16066E-02 9.36242E-03-1.12558E-03-1.49287E-02 5.34443E-04-3.62355E-04
 -1      3753-1.49929E-02 9.43641E-03-3.20412E-04-1.17969E-02 4.19158E-04-8.31121E-04
 -1      3754 7.30801E-02-2.28351E-02-2.58209E-02-8.29409E-03-4.67319E-03-4.02382E-04
 -1      3755 4.97512E-02-2.24089E-02-1.50745E-02-2.47340E-02-2.16108E-03-6.41614E-03
 -1      3756 3.22193E-02-1.41127E-02-1.32397E-02-2.94883E-02-3.98786E-04-2.79293E-03
 -1      3757 8.06389E-02-2.11801E-02-3.00896E-02 4.64349E-03 3.95056E-03 4.55498E-04
 -1      3758 7.14603E-02-6.87861E-03-3.05202E-02 3.80805E-04-1.81360E-03 1.05724E-03
 -1      3759 7.66399E-02-1.03541E-02-2.88325E-02 3.97118E-04-2.96962E-03-3.46249E-04
 -1      3760 6.57030E-02-2.72861E-02-2.09999E-02 1.47079E-02 4.13896E-03-4.65626E-03
 -1      3761 3.48005E-02-1.61327E-02-1.03406E-02 2.50150E-02 2.62647E-05-6.08464E-03
 -1      3762 7.50224E-02-2.13699E-02-2.28039E-02 1.24348E-02 2.38749E-03-1.11203E-03
 -1      3763-4.02967E-03 2.19210E-03-3.35247E-03 2.53442E-02-2.02487E-04-5.01503E-03
 -1      3764-1.28064E-02 9.86367E-03-8.39129E-05 1.19087E-02-3.80964E-04 6.33580E-04
 -1      3765 3.07115E-03-1.28249E-03-6.38278E-03 2.70659E-02 2.65852E-04-1.60719E-03
 -1      3766-1.00111E-02 8.85834E-03-3.98266E-04 6.13556E-03-1.56678E-06 6.15538E-04
 -1      3767-1.03580E-02 8.92016E-03 5.13054E-04 1.60544E-03 1.32893E-04 9.04172E-06
 -1      3768-1.06372E-02 9.02197E-03 4.28854E-04-1.93254E-03 2.01348E-04-5.04692E-04
 -1      3769-1.01451E-02 8.53818E-03 3.21564E-04 4.20275E-03-1.51998E-05 1.14618E-04
 -1      3770-1.18799E-02 8.99326E-03 3.25316E-04-3.37384E-03 1.19819E-04-6.22811E-04
 -1      3771 1.33512E-02-6.90287E-03-8.46992E-03 2.97202E-02-8.12926E-04 8.83795E-05
 -1      3772 4.89892E-02-1.95157E-02-1.73731E-02 2.12216E-02-1.04486E-03-7.07298E-04
 -1      3773 8.04790E-02-1.25685E-02-2.98425E-02 1.07468E-03 2.15120E-03 8.64004E-04
 -1      3774 7.74329E-02-2.09767E-02-2.56653E-02 1.08582E-02-1.27150E-03 2.32327E-03
 -1      3775-1.29083E-02 8.46915E-03 3.59475E-05 1.19655E-02 1.43701E-04-1.24714E-03
 -1      3776-1.38888E-02 9.67852E-03 7.16881E-04-8.72378E-03-2.65259E-04 8.43244E-04
 -1      3777-1.19832E-02 6.29119E-03-1.03597E-03-1.89706E-02-4.25798E-04-8.42036E-04
 -1      3778 2.40627E-02-1.17562E-02-1.10665E-02-2.93251E-02 1.37113E-03 1.39697E-03
 -1      3779-1.76827E-03-3.66933E-04-2.77614E-03-2.54371E-02-4.64758E-04 9.37672E-04
 -1      3780 6.13072E-02-2.48748E-02-1.94150E-02-1.88140E-02 5.62717E-06 1.01921E-03
 -1      3781 7.32342E-02-1.19994E-02-2.70817E-02-3.28337E-04-1.27735E-03-3.49348E-04
 -1      3782-7.68035E-03 5.41090E-03-2.54795E-03 2.23904E-02 2.46174E-04 1.83807E-03
 -1      3783-6.22974E-05 3.89477E-05 3.23363E-06 8.49804E-05-1.31610E-06 1.40236E-05
 -1      3784-5.06386E-05 1.83070E-05 5.21811E-06-8.35526E-05 1.28809E-06-1.51722E-05
 -1      3785 1.57290E-02-1.48203E-02-1.35530E-04 1.73717E-03-5.30310E-04-4.09660E-04
 -1      3786-7.72948E-04 7.34505E-04 5.90612E-06-1.61655E-04 1.05012E-05-2.79646E-05
 -1      3787 2.20829E-02-1.80228E-02-7.25305E-04 2.87177E-03 8.17992E-04-6.30293E-04
 -1      3788 3.21310E-02-1.39094E-02-1.15056E-03-8.81713E-03-1.38959E-03-3.71776E-03
 -1      3789-4.03127E-04 3.70174E-04 4.92015E-06 2.81509E-04-3.44173E-06-1.30084E-05
 -1      3790-3.35860E-04 3.05210E-04 5.26276E-06-2.73743E-04-4.79485E-06 1.30962E-05
 -1      3791 3.34805E-02-1.25615E-02-1.99712E-03 9.18427E-03-2.13960E-03 5.68761E-03
 -1      3792-1.36428E-03 1.26605E-03 1.58937E-05 1.40854E-03 1.02389E-05-7.10512E-06
 -1      3793 1.21212E-02-1.24612E-02 1.11118E-05-3.98343E-03 5.71956E-04-3.99585E-04
 -1      3794-1.30716E-03 1.26008E-03 3.41554E-06 5.64875E-04-3.40412E-05 2.90481E-05
 -1      3795 3.09106E-02-4.85249E-03-1.19998E-03 6.91045E-03 9.94119E-04-3.79262E-03
 -1      3796 1.67807E-03-1.96046E-03 4.40918E-05 4.55728E-03-9.95451E-05 7.92538E-08
 -1      3797-4.30136E-04 3.97889E-04 5.32376E-06-2.65851E-04 7.14449E-06-1.19433E-05
 -1      3798-6.83695E-04 6.48063E-04 6.86919E-06 2.07492E-04 6.18728E-06 1.40788E-05
 -1      3799-9.44133E-05 6.80943E-05 4.02295E-06-1.38202E-04-4.17150E-06 1.01061E-05
 -1      3800-7.74501E-04 6.28093E-04 2.48979E-05 2.83070E-03-4.40817E-05 1.91034E-05
 -1      3801-8.48438E-04 8.11334E-04 6.00975E-06 1.29497E-04-1.69746E-05-2.14102E-05
 -1      3802 2.62495E-02-1.85571E-02-1.22703E-03-5.13005E-03-1.50409E-03-1.99532E-03
 -1      3803 3.17698E-02-1.58139E-02-1.09570E-03 8.34906E-03 1.35737E-03-2.82989E-03
 -1      3804-1.36787E-03 1.28959E-03 1.52509E-05-1.54320E-03-4.67570E-05-1.06017E-05
 -1      3805-1.76735E-04 1.41617E-04 2.89935E-06-2.07115E-04 4.30200E-06-5.18335E-06
 -1      3806-1.36599E-03 1.28567E-03 1.43112E-05 1.56498E-03-5.99516E-05 4.03325E-05
 -1      3807 2.65756E-02-1.87859E-02-1.15954E-03 5.23958E-03-1.81918E-03 2.38065E-03
 -1      3808-8.36803E-04 6.61780E-04 2.23553E-05-2.88387E-03-3.66938E-05 5.27275E-06
 -1      3809 7.89241E-04-1.07118E-03 3.95628E-05 4.19932E-03 3.02154E-05-1.14185E-05
 -1      3810-2.70958E-04 2.41643E-04 5.26693E-06 2.55525E-04 2.57228E-06 1.20116E-05
 -1      3811-1.18878E-03 1.15038E-03 1.04510E-05-2.93079E-04 1.71890E-05 6.43798E-06
 -1      3812 1.57911E-02-1.50217E-02-2.31476E-04-1.71611E-03-5.74748E-04 5.43956E-04
 -1      3813 3.02449E-02-4.85429E-03-1.20511E-03-8.58704E-03 1.72710E-03 6.51165E-03
 -1      3814-1.17220E-03 1.12550E-03 9.43655E-06 2.82183E-04 1.11669E-05-1.16774E-05
 -1      3815-8.23348E-04 7.78023E-04 3.41659E-06-1.39342E-04-4.29522E-06 1.28697E-05
 -1      3816 6.19322E-03-6.82902E-03 2.54791E-05-5.12020E-03-3.57528E-05 4.36440E-05
 -1      3817 1.27539E-03-1.61910E-03 4.00816E-05-4.51141E-03-4.35777E-05 3.68519E-05
 -1      3818 2.11676E-03-2.49056E-03 2.55381E-05-4.72308E-03 9.91494E-05-4.55759E-05
 -1      3819-1.08921E-04 9.12815E-05 4.26665E-06 1.51429E-04 1.51885E-06-9.31247E-06
 -1      3820 2.44327E-02-1.86328E-02-8.28012E-04-4.56296E-03 9.23464E-04 1.30559E-03
 -1      3821 6.27018E-03-6.72033E-03 6.05672E-06-5.05506E-03 2.04602E-04-1.69969E-04
 -1      3822-1.30854E-03 1.24314E-03 9.32858E-06-5.38059E-04-2.90870E-05-1.44551E-05
 -1      3823-4.64433E-04 2.95410E-04 2.34522E-05-3.26465E-03 7.34549E-05-3.12653E-06
 -1      3824 3.20581E-02-4.00367E-03-1.91587E-03 7.29935E-03-2.27211E-03 1.07855E-02
 -1      3825 6.71580E-03-7.14039E-03 4.41682E-05 4.93238E-03-1.85293E-04-5.63356E-05
 -1      3826-7.47480E-04 6.37644E-04 2.55498E-05 2.82664E-03 5.41525E-05-2.93560E-05
 -1      3827 1.24411E-02-1.24344E-02-9.82846E-05 3.31835E-03 3.33858E-04 1.87120E-04
 -1      3828 3.29014E-02-1.42708E-02-1.62820E-03-8.81089E-03 2.43439E-03 6.21374E-03
 -1      3829 4.88967E-03-5.35813E-03 4.28504E-05 5.13235E-03 8.37575E-05 9.09866E-07
 -1      3830-1.41130E-03 1.30019E-03 1.51414E-05-1.52203E-03 2.82929E-05 5.65518E-06
 -1      3831 3.27063E-02-4.79642E-03-2.33876E-03-6.18252E-03-1.28058E-03-5.98554E-03
 -1      3832 3.55615E-02-7.31212E-03-1.71983E-04-9.71584E-03 3.44523E-03 1.57685E-02
 -1      3833 3.28552E-02-1.76639E-03-3.09151E-05-6.60061E-03 1.35184E-03 1.76243E-02
 -1      3834 3.82332E-02-6.80655E-03-4.12996E-04 9.48439E-03-3.41611E-03 1.82524E-02
 -1      3835 3.53449E-02-1.18745E-03-7.32407E-05 5.91746E-03-1.39986E-03 2.05799E-02
 -1      3836 3.11138E-02-1.07718E-03-2.00689E-03 5.20600E-03-5.60980E-04 9.30419E-03
 -1      3837 3.09376E-02-1.86015E-03-1.42252E-03-6.70854E-03 5.24854E-04 7.11999E-03
 -1      3838 3.56798E-02-6.50609E-03-1.97245E-04-9.24618E-03-3.14237E-03-1.64768E-02
 -1      3839 3.41717E-02-8.96730E-04-4.10601E-05-5.37978E-03-9.79527E-04-1.75369E-02
 -1      3840 3.42323E-02-6.84995E-03-1.87852E-04 9.34954E-03 3.01922E-03-1.46304E-02
 -1      3841 3.26023E-02-1.57136E-03-1.96988E-03 4.37105E-03 2.54924E-03-1.26961E-02
 -1      3842 3.10083E-02-8.01331E-04-1.69448E-03-3.62578E-03-8.63496E-04-6.57513E-03
 -1      3843 2.99802E-02-1.03187E-03 5.48229E-08 3.63054E-03 3.87805E-04-4.81649E-03
 -1      3844 3.59734E-02-1.19218E-02-2.85794E-05-1.11689E-02 4.77576E-03 1.43436E-02
 -1      3845 3.57794E-02-1.67083E-02-1.49498E-03-9.02398E-03 3.93767E-03 9.16013E-03
 -1      3846 3.12485E-02-9.27026E-03-1.47659E-03-9.94616E-03 2.19845E-03 6.48270E-03
 -1      3847 2.33400E-02-1.92612E-02 1.15672E-05-5.41719E-04 2.16403E-03 2.32660E-03
 -1      3848 3.04507E-02-2.03787E-02-7.70923E-06-5.51350E-03 3.15362E-03 4.94591E-03
 -1      3849 2.98291E-02-1.88260E-02-9.62610E-04-7.47212E-03 1.99651E-03 3.08290E-03
 -1      3850 1.71862E-02-1.54090E-02 5.82637E-05 2.80560E-03 1.28870E-03 1.54156E-03
 -1      3851 1.04688E-02-1.04154E-02 3.14663E-06 4.99478E-03 6.93933E-04 4.10268E-04
 -1      3852 1.81394E-02-1.67610E-02-3.12910E-04 8.27061E-04 7.14513E-04 4.45465E-04
 -1      3853 7.17237E-03-7.37045E-03-3.66635E-07 5.97014E-03 4.21506E-04 2.10941E-04
 -1      3854 4.06401E-03-4.04280E-03 4.00300E-06 5.45367E-03 2.17089E-04 1.72601E-07
 -1      3855 7.83678E-03-8.89888E-03-3.94439E-05 4.90104E-03 1.74386E-04 6.90705E-05
 -1      3856 3.84282E-04-3.44195E-04 7.69376E-06 4.09968E-03 1.12210E-04-2.87193E-05
 -1      3857 1.75712E-03-2.08507E-03-1.69568E-07 4.96522E-03 1.02885E-04 2.40707E-05
 -1      3858 2.29988E-03-3.07603E-03 2.55863E-05 4.81917E-03 4.98687E-05 2.03369E-05
 -1      3859-5.02177E-04 3.71580E-04 4.26160E-07 3.41544E-03 1.21743E-04-6.13979E-06
 -1      3860-1.00711E-03 1.10850E-03-1.16139E-07 2.51776E-03 9.59300E-05-4.88882E-05
 -1      3861-2.10495E-04-1.36500E-04 1.49944E-05 3.48859E-03 5.60407E-05-1.09906E-05
 -1      3862-1.38810E-03 1.30367E-03 3.71246E-08 1.81040E-03 5.93463E-05-1.75103E-05
 -1      3863-1.39622E-03 1.43034E-03 9.31139E-07 1.10562E-03 4.92556E-05-3.87575E-05
 -1      3864-1.19358E-03 1.04732E-03 1.69337E-05 2.06617E-03 4.03288E-05-2.40253E-05
 -1      3865-1.10221E-03 1.14297E-03-7.56564E-07 1.21079E-04 3.48018E-05-4.05838E-05
 -1      3866-1.36474E-03 1.32817E-03 2.74809E-08 5.30758E-04 4.84236E-05-3.07367E-05
 -1      3867-1.32378E-03 1.24511E-03 9.30537E-06 7.75916E-04 1.82688E-05-2.42239E-05
 -1      3868-9.26008E-04 9.04803E-04 9.25631E-08-1.07337E-04 3.72090E-05-4.07850E-05
 -1      3869-6.23124E-04 6.64726E-04-3.16648E-06-2.55463E-04 1.96880E-05-4.38145E-05
 -1      3870-9.56752E-04 9.23654E-04 6.31863E-06 1.33829E-05 1.84906E-05-3.28225E-05
 -1      3871-2.50715E-04 2.69856E-04-4.24456E-06-2.73415E-04 3.48247E-06-2.91416E-05
 -1      3872-4.72625E-04 4.50200E-04 3.57663E-08-3.04061E-04 1.70929E-05-3.08281E-05
 -1      3873-6.16512E-04 5.52973E-04 4.38062E-06-2.37223E-04 1.46660E-05-1.32687E-05
 -1      3874-6.23159E-05 8.05125E-05-3.20807E-06-1.65403E-04 1.11248E-05-2.68197E-05
 -1      3875-1.05666E-05-3.74134E-06 3.83874E-08-3.71911E-05 3.94164E-07-2.66447E-05
 -1      3876-1.00868E-04 5.96928E-05 4.20204E-06-1.46322E-04-6.68767E-06-1.43442E-05
 -1      3877-1.46194E-04 1.26863E-04 1.14563E-11-2.33305E-04 6.29503E-06-2.35724E-05
 -1      3878-2.99181E-04 2.35366E-04 5.24011E-06-2.51197E-04 6.16592E-06-3.46580E-06
 -1      3879-8.85584E-06 3.29506E-05-1.57107E-06 8.25209E-05 3.92529E-06-2.91619E-05
 -1      3880-1.14994E-04 9.63920E-05 4.67724E-08 2.20017E-04-6.24052E-06-2.49194E-05
 -1      3881-4.97139E-05 1.05750E-05 4.69343E-06 2.27145E-05 8.05022E-07-1.44149E-05
 -1      3882-2.29848E-04 2.54449E-04-2.74837E-06 2.82588E-04-4.42200E-06-2.98321E-05
 -1      3883-4.64666E-04 4.41052E-04 3.39168E-08 3.17423E-04-1.60587E-05-2.98911E-05
 -1      3884-2.53233E-04 1.88285E-04 5.16151E-06 2.48405E-04-1.05815E-05-6.44864E-06
 -1      3885-9.58681E-04 9.27604E-04 3.84334E-08 9.81565E-05-3.45904E-05-3.75205E-05
 -1      3886-6.44165E-04 6.87923E-04-4.38029E-06 2.51858E-04-1.72149E-05-4.34838E-05
 -1      3887-6.38744E-04 5.63490E-04 4.39022E-06 2.46522E-04-1.73472E-05-8.37989E-06
 -1      3888-1.40918E-03 1.35886E-03 8.65358E-08-6.55419E-04-6.08992E-05-3.76528E-05
 -1      3889-1.15169E-03 1.19799E-03-5.45023E-06-2.14156E-04-3.81452E-05-4.55293E-05
 -1      3890-1.13535E-03 1.01654E-03 1.27744E-05-1.41133E-04-2.69715E-05-6.48422E-06
 -1      3891-1.39541E-03 1.48104E-03-7.26653E-06-1.12967E-03-7.21236E-05-5.53001E-05
 -1      3892-1.41981E-03 1.35027E-03 2.87439E-07-1.86306E-03-1.00750E-04-3.21558E-05
 -1      3893-1.43700E-03 1.26914E-03 8.82861E-06-9.92392E-04-3.53980E-05-2.53328E-06
 -1      3894-5.62964E-04 3.98432E-04 8.29119E-08-3.39357E-03-1.10386E-04-5.68879E-06
 -1      3895-1.06292E-03 1.12360E-03-6.84068E-06-2.51386E-03-9.57847E-05-3.28271E-05
 -1      3896-1.30507E-03 9.92293E-04 1.96477E-05-2.18898E-03-3.95017E-05 9.19756E-06
 -1      3897 1.98756E-03-2.36417E-03 9.91823E-08-5.10589E-03-1.68307E-04 3.65625E-05
 -1      3898 5.91120E-04-5.17534E-04-1.35214E-05-4.21523E-03-1.26776E-04-1.69699E-05
 -1      3899-1.40804E-04-3.95065E-04 3.55254E-05-3.73007E-03-3.04065E-05 5.10633E-05
 -1      3900 7.71623E-03-8.07447E-03-8.36315E-07-5.81702E-03-4.91940E-04 2.48452E-04
 -1      3901 4.60706E-03-4.60696E-03-3.30987E-05-5.43984E-03-1.84803E-04 3.60112E-06
 -1      3902 3.06142E-03-4.15495E-03 6.83064E-05-5.09272E-03-1.62041E-05 9.03601E-05
 -1      3903 1.89102E-02-1.65691E-02 1.18038E-04-1.99486E-03-1.59817E-03 1.87416E-03
 -1      3904 1.19472E-02-1.13353E-02 3.15984E-06-4.54738E-03-7.57820E-04 5.11764E-04
 -1      3905 1.02119E-02-1.10989E-02-8.70193E-05-4.43721E-03-1.51798E-04 2.73131E-04
 -1      3906 3.16051E-02-2.02702E-02 5.19456E-05 5.66176E-03-3.49646E-03 5.58313E-03
 -1      3907 2.49029E-02-1.96777E-02 7.23348E-06 1.16813E-03-2.57654E-03 2.95846E-03
 -1      3908 2.15719E-02-1.89455E-02-5.35513E-04 8.54823E-04-1.13203E-03 1.29917E-03
 -1      3909 3.61351E-02-1.58944E-02-1.59813E-03 9.45400E-03-3.98805E-03 9.31924E-03
 -1      3910 3.66223E-02-1.07165E-02-1.32687E-05 1.11271E-02-4.46456E-03 1.42984E-02
 -1      3911 3.12619E-02-1.75030E-02-1.20159E-03 8.39413E-03-2.08440E-03 3.91583E-03
 -1      3912 3.26588E-02-7.66745E-03-1.40684E-03 9.42990E-03-2.79950E-03 8.21249E-03
 -1      3913 3.46744E-02-1.67474E-02-9.65041E-04-9.14226E-03-3.42965E-03-8.22346E-03
 -1      3914 3.42954E-02-1.13151E-02 1.26704E-06-1.11408E-02-4.07769E-03-1.27199E-02
 -1      3915 3.25674E-02-7.92378E-03-2.16392E-03-9.30887E-03-1.63622E-03-4.72066E-03
 -1      3916 2.45046E-02-1.94562E-02 3.95449E-06-1.03705E-03-2.45655E-03-2.78118E-03
 -1      3917 3.15133E-02-2.03417E-02 9.89789E-05-5.85035E-03-3.32032E-03-5.48781E-03
 -1      3918 3.04341E-02-1.80921E-02-1.08054E-03-7.90614E-03-1.67620E-03-2.89265E-03
 -1      3919 1.21945E-02-1.16206E-02 2.25438E-06 4.33550E-03-7.68047E-04-5.31527E-04
 -1      3920 1.89644E-02-1.65599E-02 5.47827E-05 1.82608E-03-1.53137E-03-1.69292E-03
 -1      3921 2.07288E-02-1.77665E-02-5.74668E-04-6.78896E-04-1.11970E-03-7.65052E-04
 -1      3922 4.99385E-03-4.90291E-03-2.02353E-05 5.39958E-03-2.73932E-04 3.58281E-05
 -1      3923 8.20857E-03-8.45869E-03-6.88449E-07 5.77856E-03-5.15310E-04-2.67382E-04
 -1      3924 1.03670E-02-1.08304E-02-7.11643E-05 4.04529E-03-3.70079E-04-1.58895E-04
 -1      3925 8.44411E-04-7.27697E-04-6.89258E-06 4.29317E-03-1.38843E-04 4.57445E-05
 -1      3926 2.30301E-03-2.67408E-03-1.56704E-08 5.16417E-03-1.72785E-04-3.87691E-05
 -1      3927 3.63584E-03-4.25804E-03 3.18289E-05 4.93165E-03-1.37802E-04-2.53677E-05
 -1      3928-1.01846E-03 1.07281E-03 4.69362E-06 2.52851E-03-9.07164E-05 4.37462E-05
 -1      3929-5.04740E-04 3.41124E-04-3.50914E-07 3.39937E-03-8.46259E-05 3.45568E-06
 -1      3930 1.58538E-04-4.16239E-04 3.22654E-05 3.70509E-03-6.65250E-05 5.62366E-06
 -1      3931-1.38335E-03 1.33471E-03 2.40157E-07 1.89619E-03-1.12652E-04 3.53064E-05
 -1      3932-1.38321E-03 1.47876E-03-6.50238E-06 1.16895E-03-7.59204E-05 6.22283E-05
 -1      3933-1.14304E-03 1.02903E-03 9.95717E-06 2.13933E-03-6.56351E-05 3.50720E-05
 -1      3934-1.14032E-03 1.20819E-03-1.00118E-05 2.20115E-04-3.95270E-05 5.17223E-05
 -1      3935-1.41091E-03 1.36877E-03 5.68933E-08 6.65988E-04-6.99190E-05 4.35533E-05
 -1      3936-1.43937E-03 1.29528E-03 9.42125E-06 1.05679E-03-5.45425E-05 5.38832E-06
 -1      3937-6.38695E-04 6.66708E-04-3.88371E-06-2.51070E-04-1.64025E-05 3.33714E-05
 -1      3938-9.40497E-04 9.02826E-04-3.59686E-08-9.97224E-05-2.83357E-05 3.06345E-05
 -1      3939-1.12568E-03 1.01925E-03 6.34531E-06 1.48276E-04-2.21479E-05-1.58949E-06
 -1      3940-2.07181E-04 2.28867E-04-2.52535E-06-2.74575E-04-5.03116E-06 3.07199E-05
 -1      3941-4.24371E-04 4.04728E-04 3.91397E-08-3.17066E-04-1.55061E-05 2.99322E-05
 -1      3942-5.85662E-04 5.04626E-04 5.16030E-06-2.52971E-04-1.03652E-05 4.51610E-06
 -1      3943-1.51831E-05 6.99375E-06 4.73328E-08-6.30220E-05-1.03604E-06 2.49407E-05
 -1      3944-8.39474E-05 9.74712E-05-9.23048E-07-1.88127E-04-1.01390E-05 2.71141E-05
 -1      3945-2.15523E-04 1.46799E-04 3.88352E-06-2.27330E-04-8.44627E-06 1.07271E-05
 -1      3946-7.94252E-05 7.13877E-05 5.76338E-08 1.91098E-04 5.73686E-06 2.68266E-05
 -1      3947 6.51962E-06 1.66718E-05-5.30773E-07 5.27464E-05-1.88949E-06 3.00812E-05
 -1      3948-6.37537E-05 8.65767E-06 2.24064E-06-3.10935E-05-1.35197E-06 1.09632E-05
 -1      3949-1.79145E-04 2.01443E-04-3.07385E-07 2.72245E-04 6.17977E-06 3.08092E-05
 -1      3950-3.94072E-04 3.82318E-04 3.66425E-08 3.19883E-04 1.39925E-05 2.75649E-05
 -1      3951-1.59345E-04 9.98221E-05 5.09458E-06 1.84737E-04 4.32885E-07 1.55609E-05
 -1      3952-5.90859E-04 6.18830E-04-7.33236E-07 2.80471E-04 1.70697E-05 3.51293E-05
 -1      3953-8.83365E-04 8.61199E-04 2.68019E-08 1.45582E-04 2.73508E-05 3.04807E-05
 -1      3954-4.71163E-04 4.09627E-04 5.24951E-06 2.62609E-04 1.98702E-06 1.80533E-05
 -1      3955-1.38064E-03 1.34240E-03-1.44261E-08-5.13604E-04 5.05467E-05 3.28243E-05
 -1      3956-1.09599E-03 1.14718E-03-2.15045E-06-1.01321E-04 3.60331E-05 4.08989E-05
 -1      3957-9.37152E-04 8.66309E-04 8.47143E-06 3.17767E-05 1.14237E-05 2.15382E-05
 -1      3958-1.41144E-03 1.45947E-03-5.80874E-06-1.12410E-03 5.55696E-05 3.68114E-05
 -1      3959-1.41346E-03 1.32651E-03-9.92723E-08-1.83788E-03 7.56224E-05 2.34710E-05
 -1      3960-1.44101E-03 1.26091E-03 1.75551E-05-8.37846E-04 2.58945E-05-3.00238E-07
 -1      3961-8.84111E-04 9.80563E-04-1.64967E-05-2.69149E-03 1.07435E-04 5.09830E-05
 -1      3962-3.45688E-04 1.63721E-04 9.89794E-08-3.59179E-03 1.27970E-04 3.76250E-06
 -1      3963-1.14081E-03 8.83579E-04 2.29292E-05-2.35844E-03 4.05089E-05-1.11738E-05
 -1      3964 9.72073E-04-8.95497E-04-2.55134E-05-4.34660E-03 1.65192E-04 4.11625E-05
 -1      3965 2.44614E-03-2.88170E-03 2.62200E-07-5.18729E-03 2.19264E-04-5.07502E-05
 -1      3966 4.62449E-04-9.51907E-04 4.06404E-05-4.03326E-03 4.93550E-05-4.51006E-05
 -1      3967 7.93326E-03-8.21311E-03-1.04113E-06-6.01654E-03 7.41019E-04-3.66269E-04
 -1      3968 4.70490E-03-4.52120E-03-8.61081E-05-5.48160E-03 3.61255E-04-6.20688E-06
 -1      3969 3.55674E-03-4.57953E-03 3.02717E-05-5.07273E-03 7.19616E-05-1.17093E-04
 -1      3970 1.71724E-02-1.54060E-02 1.18916E-04-2.92715E-03 1.51390E-03-1.75685E-03
 -1      3971 1.06092E-02-1.05381E-02 2.48955E-06-5.08917E-03 8.00235E-04-4.76868E-04
 -1      3972 8.80287E-03-1.00877E-02 1.92738E-05-5.12878E-03 4.09741E-04-4.14338E-04
 -1      3973 2.89957E-02-2.01833E-02-1.93932E-04 5.15923E-03 2.80826E-03-4.38416E-03
 -1      3974 2.20253E-02-1.89831E-02 6.40010E-06-1.54843E-04 2.13097E-03-2.15353E-03
 -1      3975 1.66502E-02-1.55553E-02-2.37281E-04-1.59746E-03 8.58094E-04-3.80968E-04
 -1      3976 3.42182E-02-1.26054E-02 4.76786E-06 1.11438E-02 4.03520E-03-1.19869E-02
 -1      3977 3.42552E-02-1.75998E-02-6.29371E-04 8.82499E-03 3.24620E-03-7.58451E-03
 -1      3978 2.84756E-02-1.92657E-02-8.82022E-04 5.88963E-03 1.42188E-03-1.53234E-03
 -1      3979 3.13950E-02-9.66700E-03-9.85192E-04 9.70701E-03 1.20455E-03-4.09485E-03
 -1      3980 3.35384E-02-2.94262E-03-4.34308E-04-4.20546E-03 9.38440E-04 7.92201E-04
 -1      3981 3.09652E-02-1.91586E-03-7.82701E-04 4.34108E-03-7.02258E-04 7.35794E-04
 -1      3982 3.18760E-02-3.53441E-03 3.99852E-06-8.11242E-03 3.06427E-04 1.06906E-03
 -1      3983 3.14924E-02-3.02517E-03-4.38561E-08 7.20799E-03-4.98263E-04 3.10752E-03
 -1      3984-1.36695E-03 1.29729E-03 5.74841E-08-1.58046E-03-1.48416E-05-2.49351E-06
 -1      3985-1.47448E-03 1.27059E-03-7.42627E-08-1.00132E-03 5.94487E-06 2.67034E-06
 -1      3986-1.31780E-03 9.93991E-04 1.21328E-07-2.20827E-03-1.58350E-05-2.24547E-07
 -1      3987-1.29057E-03 1.23242E-03-3.08689E-06-4.51260E-04-1.54922E-05 6.36297E-06
 -1      3988-1.00637E-03 9.61018E-04-2.55066E-06-6.88244E-05 4.90460E-06-2.97850E-05
 -1      3989-1.94696E-04 1.72713E-04-7.63789E-07 2.12811E-04 1.62407E-05-1.13474E-06
 -1      3990-8.53845E-05 6.30339E-05-1.24777E-06 1.02958E-04-3.50248E-06 7.06224E-06
 -1      3991-4.33344E-05 2.29195E-07 1.86533E-09-9.01077E-06 5.05337E-07-3.23362E-06
 -1      3992-7.09278E-05 1.82634E-05 1.37922E-08-9.78147E-05 2.18602E-08-2.65692E-06
 -1      3993-6.50010E-04 5.60248E-04 2.14590E-08-2.35458E-04 6.69985E-07-1.66982E-06
 -1      3994-7.87777E-04 7.18544E-04 8.05816E-10-1.61587E-04 6.25919E-06-8.21420E-06
 -1      3995-9.90000E-04 9.71627E-04-1.52004E-06 5.94792E-05 1.66270E-05 3.50391E-05
 -1      3996-7.98681E-04 7.00747E-04 2.26626E-08 1.83110E-04-3.16959E-06-3.30885E-06
 -1      3997-2.15608E-04-8.58138E-05-6.63078E-10 3.48267E-03-1.15680E-05 5.30352E-06
 -1      3998 1.27994E-03-1.49025E-03-5.40819E-08 4.32523E-03 9.31670E-06-5.17542E-05
 -1      3999 2.82511E-03-3.49664E-03 1.72299E-07 4.93530E-03-4.14845E-05-7.28137E-06
 -1      4000 5.86656E-03-6.19104E-03-2.47652E-06 4.89775E-03 7.52827E-05-1.22102E-04
 -1      4001 3.08377E-02-8.84841E-03 3.13969E-06-9.62635E-03 1.61901E-04 1.19835E-03
 -1      4002 1.05414E-04-7.34576E-04 2.33368E-08-3.97393E-03-1.54584E-05 3.71244E-06
 -1      4003-5.90685E-04 4.58803E-04-2.98108E-06-3.13905E-03 1.97666E-05-3.14259E-05
 -1      4004-3.53374E-04 2.75700E-04 1.97057E-08 2.76892E-04-2.51100E-07 3.26563E-07
 -1      4005-5.35375E-04 5.16550E-04 7.35199E-07 2.46782E-04 1.63093E-05-1.19683E-05
 -1      4006 3.25315E-02-1.40993E-02-2.29752E-05-9.08570E-03 2.25664E-04 1.22181E-03
 -1      4007 2.97440E-02-1.84335E-02-6.58760E-07-7.51899E-03 1.12133E-05-2.26765E-04
 -1      4008 2.50007E-02-1.82715E-02 9.83427E-06-4.97206E-03-2.15476E-05-2.86018E-04
 -1      4009 1.87924E-03-2.18668E-03-5.22311E-06-4.67726E-03 4.10672E-06-6.83797E-05
 -1      4010 3.59872E-03-4.86096E-03-3.78545E-07-5.16345E-03-2.36859E-05 7.85779E-06
 -1      4011 6.55870E-03-7.04949E-03-2.91498E-06-4.99175E-03 1.01975E-04-9.27860E-05
 -1      4012-1.35047E-04 1.16148E-04-1.23808E-06-1.73988E-04 9.84032E-06 6.81315E-06
 -1      4013-3.93382E-04 3.70543E-04-2.00753E-07-2.71062E-04 6.94313E-06 3.48980E-06
 -1      4014-2.73905E-04 1.93745E-04 4.51188E-09-2.51788E-04-2.23874E-06 5.89599E-06
 -1      4015 1.91100E-02-1.67878E-02-4.62349E-05 4.72152E-04-6.30914E-04-2.65577E-04
 -1      4016 2.44801E-02-1.92702E-02 1.33972E-06 2.89580E-03-2.29972E-04 3.50405E-04
 -1      4017 3.26681E-02-1.38717E-02-2.11532E-04 8.85930E-03-5.75070E-04 5.90675E-04
 -1      4018 2.98921E-02-1.79247E-02-2.34744E-04 6.94884E-03-4.43519E-04 7.81280E-04
 -1      4019-1.42239E-03 1.25582E-03 4.00214E-09 1.50485E-03-2.93488E-05 1.15684E-05
 -1      4020-1.16691E-03 1.07667E-03 1.24823E-09 2.03902E-03-1.31169E-05 7.92057E-07
 -1      4021-7.18220E-04 6.32221E-04-1.28363E-08 2.79253E-03 9.61589E-06-1.14427E-06
 -1      4022 3.20893E-02-7.78118E-03-1.00001E-03 8.57077E-03 2.27961E-04 1.64818E-03
 -1      4023-1.33273E-03 1.29423E-03-2.70353E-06 9.87341E-04-1.55267E-05 5.97937E-05
 -1      4024-1.28762E-03 1.16050E-03 2.61541E-08 4.03700E-04-7.60910E-06 5.36574E-06
 -1      4025 1.31135E-02-1.35283E-02 5.53093E-07-3.41137E-03 8.59740E-05-6.18215E-05
 -1      4026 9.10823E-03-1.02744E-02 2.44249E-06-5.19992E-03 2.81668E-04-1.90759E-04
 -1      4027 1.94449E-02-1.70944E-02 1.03804E-06-1.52626E-04-3.42105E-05-2.57783E-05
 -1      4028 8.74203E-03-9.62482E-03 5.03127E-07 4.62356E-03-5.78036E-05-2.48997E-05
 -1      4029 1.40017E-02-1.33200E-02-2.37554E-05 2.30119E-03 2.09320E-04-2.00432E-04
 -1      4030 2.75870E-06-6.30217E-06 1.56834E-06-4.23258E-07-4.94520E-07 9.72458E-09
 -1      4031-1.35245E-07-5.47745E-10 7.33402E-08 1.08135E-07-3.24953E-09 1.91842E-08
 -1      4032-3.31313E-08-4.71110E-08 4.59728E-08-6.76122E-08-8.81513E-09-1.02981E-08
 -1      4033-5.87710E-08-4.44374E-08 5.93631E-08 8.90968E-08-1.90446E-10-4.58361E-09
 -1      4034-1.21298E-07 1.01071E-07-1.33296E-07-2.21886E-07 1.57377E-07 2.36266E-07
 -1      4035 1.96532E-08 2.27017E-07-3.28852E-07 3.63069E-07 9.43381E-08-1.96416E-07
 -1      4036-2.49201E-07 3.88338E-08 2.98251E-08 2.63940E-07-1.07390E-07 1.46779E-07
 -1      4037-1.68485E-07 2.30214E-08 8.08499E-08-1.06011E-07-6.90830E-09-1.97954E-08
 -1      4038-2.50115E-07 5.65028E-08 4.14374E-08 1.62508E-07 2.66333E-08-5.95820E-08
 -1      4039 8.98364E-09-7.24469E-08 3.68098E-08 3.91296E-08 3.65418E-09 3.42042E-10
 -1      4040-3.00395E-08 4.11342E-08 2.70138E-08-8.81113E-07-1.94667E-07 5.15300E-08
 -1      4041-2.58933E-07 7.79460E-08 2.12761E-08-1.81125E-07 5.57997E-09 2.25321E-08
 -1      4042-3.76269E-07 1.14972E-07 1.21728E-07 1.30804E-07 1.09397E-08-1.80254E-08
 -1      4043 1.02404E-07 3.48341E-07 1.47952E-08 5.78595E-07-4.32313E-07-7.18671E-08
 -1      4044 1.79298E-07-3.33433E-07 1.61775E-07 5.21177E-07 3.42003E-07 1.96333E-08
 -1      4045-2.62776E-07 6.70045E-08 1.06051E-07 7.70166E-08-2.20936E-09 6.98429E-09
 -1      4046-2.70083E-07 7.79432E-08 1.03299E-07 4.94143E-08 3.79705E-09 3.74650E-08
 -1      4047-1.59882E-07 1.08009E-08 7.84452E-08 1.23959E-07 3.37879E-09-9.30190E-09
 -1      4048-3.63397E-07 3.29781E-07-5.30182E-08-5.95265E-07 8.83446E-08 3.83119E-07
 -1      4049-3.08334E-07 1.43212E-08 9.34763E-08 3.25023E-07 1.20083E-07-2.01888E-07
 -1      4050-1.30559E-07 1.59882E-07-1.31821E-07-4.86987E-07-2.01314E-07-2.68579E-07
 -1      4051-1.26066E-08-5.97190E-08 4.05313E-08 6.15091E-08-4.62325E-09 5.35724E-09
 -1      4052 3.51347E-06-8.74342E-06 1.96664E-06-7.37014E-07 3.41022E-09 3.32850E-07
 -1      4053 3.04748E-06-6.68763E-06 1.60515E-06 9.56262E-07-7.50541E-07-1.35318E-07
 -1      4054-3.78006E-07 1.20633E-07 1.31937E-07-5.37286E-08 2.03195E-09 1.74800E-08
 -1      4055 3.65134E-06-8.49460E-06 1.83552E-06 1.31198E-06-9.81283E-08-1.17278E-07
 -1      4056-3.47728E-07 1.11173E-07 1.19814E-07-3.54895E-08 9.55365E-09 1.72799E-08
 -1      4057 9.84215E-09-6.32823E-08 3.06915E-08 2.59529E-08-1.18114E-09 5.43380E-09
 -1      4058-1.60543E-08-6.40835E-08 4.63683E-08-6.82570E-08 2.75228E-09 2.08782E-09
 -1      4059-2.71291E-07 7.05585E-08 1.06121E-07-1.97201E-08 6.86824E-09-3.53961E-08
 -1      4060 1.29731E-08-6.82565E-08 3.18962E-08-2.85613E-08-3.58659E-09-4.00690E-09
 -1      4061-8.94122E-08-3.06895E-08 6.61491E-08-9.63180E-08-3.36892E-09-3.26838E-09
 -1      4062-3.47446E-07 1.11080E-07 1.24720E-07-3.11928E-09-6.95883E-10-1.85385E-08
 -1      4063-1.91491E-07 2.71652E-08 8.92378E-08-9.86395E-08-7.39075E-09-1.35979E-09
 -1      4064 1.82752E-08-6.76054E-08 2.67947E-08 1.79778E-08 2.23746E-09-2.78597E-09
 -1      4065-4.06405E-07 1.00889E-07 1.44136E-07 1.85428E-07 2.21676E-08-5.98107E-08
 -1      4066 1.26442E-08-7.29658E-08 3.33132E-08-3.39836E-08 3.98540E-09 1.54650E-09
 -1      4067 2.23975E-08-7.95676E-08 3.23359E-08-3.99961E-08 7.15908E-09 2.80878E-09
 -1      4068 2.55889E-08-7.78683E-08 2.77817E-08-1.52207E-08 4.83755E-09 1.94961E-09
 -1      4069 1.65360E-08-6.88217E-08 2.74055E-08 3.44672E-08-2.50230E-09 4.73110E-09
 -1      4070 2.09303E-08-6.89156E-08 2.58895E-08 1.19257E-08-3.93168E-09 4.34517E-09
 -1      4071 1.23533E-08-7.28457E-08 3.33187E-08 1.72053E-08 2.18833E-09 2.83282E-09
 -1      4072 1.84913E-08-8.90794E-08 3.39343E-08-1.79345E-08 2.94302E-09 1.02365E-10
 -1      4073 1.67246E-08-7.38453E-08 3.10294E-08 3.52309E-08 4.68595E-09-2.64593E-09
 -1      4074 1.98014E-08-6.34249E-08 2.33541E-08 1.21716E-08 4.52280E-09-2.50339E-09
 -1      4075 1.87792E-08-6.62373E-08 2.73298E-08-3.34915E-08-6.02647E-09-2.93952E-09
 -1      4076 2.21920E-08-6.80416E-08 2.54079E-08-1.23678E-08-8.40472E-10-1.99233E-09
 -1      4077 1.64126E-08-7.06679E-08 2.89742E-08 9.28968E-09 4.19588E-10-4.97537E-09
 -1      4078 1.48231E-08-7.36996E-08 2.97256E-08-1.34987E-08-1.13844E-09-2.21988E-09
 -1      4079-1.20302E-07-8.35915E-09 7.02622E-08-1.25591E-07 3.97126E-09 1.07519E-08
 -1      4080-2.01613E-07 4.07159E-08 8.67799E-08-1.34300E-07 1.68777E-10 1.03137E-08
 -1      4081-3.66990E-07 1.21915E-07 1.30860E-07-2.75005E-09-9.49766E-09-8.75127E-09
 -1      4082-3.00179E-07 8.79808E-08 1.13931E-07-9.38630E-08 3.48365E-09 4.44158E-09
 -1      4083-2.97068E-07 7.79085E-08 1.08893E-07-7.86533E-08 1.83577E-09 2.95852E-09
 -1      4084-4.17902E-08-5.95730E-08 5.21854E-08-9.33478E-08 2.87247E-09 3.65449E-09
 -1      4085 3.33025E-09-7.93714E-08 4.25521E-08-6.55155E-08 7.41184E-09 5.29618E-09
 -1      4086-8.62876E-08-2.83929E-08 6.35601E-08-1.03101E-07 8.97373E-10 5.16685E-09
 -1      4087-1.47466E-07-1.67595E-08 8.02139E-08-1.19908E-07-5.03369E-09-3.52818E-09
 -1      4088-5.20751E-08-6.38083E-08 5.72727E-08-9.29403E-08 2.86563E-09 5.72852E-09
 -1      4089 6.81470E-10-7.79873E-08 3.87989E-08-5.45371E-08 5.25583E-09 1.86639E-09
 -1      4090-1.17458E-07-3.00180E-09 6.27629E-08-1.04373E-07-1.27678E-08-2.11907E-08
 -1      4091-1.75450E-07 2.80338E-08 8.21494E-08-1.20508E-07-8.92023E-09-2.78664E-08
 -1      4092-2.50984E-07 5.19782E-08 9.74156E-08-9.96634E-08-4.00635E-09-2.54752E-08
 -1      4093-2.36529E-07 6.85141E-08 8.74585E-08-9.05219E-08-4.42219E-09-3.86982E-08
 -1      4094-4.87212E-08-3.58021E-08 4.73193E-08-7.50178E-08-3.50994E-09-1.14110E-08
 -1      4095-1.05877E-07-2.31850E-08 6.65600E-08-1.11291E-07-8.57351E-09-2.02774E-08
 -1      4096-1.87966E-07 3.02715E-08 8.82459E-08-9.83119E-08-8.71744E-09-1.18092E-08
 -1      4097-2.94990E-07 7.84600E-08 1.05630E-07-9.50912E-08-3.86779E-09-2.32635E-08
 -1      4098-2.96337E-07 8.63525E-08 1.16208E-07-1.16939E-08-2.72080E-09-3.46151E-08
 -1      4099-1.35941E-07-8.55848E-09 7.15504E-08-1.11868E-07 1.27435E-10-6.82898E-09
 -1      4100-6.24690E-08-4.43437E-08 5.62757E-08-8.57050E-08-1.32281E-08-1.27318E-08
 -1      4101 5.54575E-09-6.78188E-08 3.57459E-08 5.40527E-08-5.65588E-09 4.87737E-09
 -1      4102-3.80963E-08-5.28780E-08 4.58422E-08 8.33329E-08-3.93640E-09 6.56333E-09
 -1      4103 1.36912E-09-7.41994E-08 3.52366E-08 4.57399E-08-3.50060E-09 6.24856E-09
 -1      4104-9.46168E-08-1.70845E-08 6.04439E-08 9.16530E-08-9.63842E-09 1.75096E-08
 -1      4105-1.63355E-07 2.87587E-08 7.01900E-08 1.28616E-07-7.41461E-09 2.80344E-08
 -1      4106-6.22013E-08-5.82058E-08 5.86995E-08 1.08963E-07-6.08306E-09 1.37455E-08
 -1      4107-2.48802E-07 6.71396E-08 9.23763E-08 9.28211E-08-4.04382E-09 3.83064E-08
 -1      4108-2.99012E-07 8.98392E-08 1.09527E-07 2.30460E-08 6.94343E-09 2.51463E-08
 -1      4109-2.45523E-07 4.84033E-08 9.46256E-08 1.08474E-07-3.51388E-09 3.50190E-08
 -1      4110-4.39713E-07 1.33372E-07 1.60245E-07-1.47811E-07 1.26239E-08-3.07899E-09
 -1      4111-3.49447E-07 1.13441E-07 1.25799E-07-3.38460E-08 1.31849E-08 2.03189E-08
 -1      4112-3.41113E-07 9.08452E-08 1.15641E-07 2.05484E-08 1.19859E-08 4.39969E-08
 -1      4113-3.78935E-07 2.03332E-07 7.56717E-08-6.40001E-07-4.04274E-07-2.59879E-07
 -1      4114-3.32733E-07 5.04736E-08 5.79861E-08-3.46183E-07-1.55973E-07-1.67311E-07
 -1      4115-1.97218E-07 1.15932E-07-5.80902E-08-1.96463E-07-7.61125E-08-1.49485E-07
 -1      4116-3.67072E-07 8.45980E-08 1.07543E-07-2.71680E-07-2.15032E-08-5.58486E-08
 -1      4117-3.91886E-07 1.17270E-07 9.00970E-08-1.18576E-07-1.17298E-08 1.23125E-08
 -1      4118-4.71091E-07 4.39866E-07 6.86799E-08 1.33151E-07 7.68961E-08-4.73186E-07
 -1      4119 2.43615E-06-5.16500E-06 1.34372E-06 5.42538E-07 3.20463E-07 1.59857E-07
 -1      4120 3.66269E-06-9.79066E-06 2.84384E-06 1.99995E-08 8.51324E-09-3.31963E-07
 -1      4121-1.18909E-07 1.18829E-07 3.75502E-07 2.30659E-07 3.25822E-07 4.63127E-08
 -1      4122 1.35369E-06-3.82799E-06 1.09202E-06 1.02821E-07 2.41725E-07 4.15961E-07
 -1      4123 4.22458E-08 4.34005E-07-2.33727E-07-4.96505E-07-3.07873E-07-1.40502E-07
 -1      4124 1.38807E-06-3.20790E-06 9.61836E-07 3.01356E-09-9.40796E-07 2.10383E-07
 -1      4125 3.23504E-06-8.71665E-06 2.66900E-06 7.95380E-08-5.50733E-07-8.83966E-08
 -1      4126 3.82941E-06-9.48158E-06 1.90527E-06 9.21564E-07-6.91262E-07-6.57437E-07
 -1      4127-8.68496E-08 4.22030E-07 8.76289E-08 1.25105E-07-3.69255E-07 2.80336E-07
 -1      4128-4.03968E-07 7.05654E-07-3.42683E-08 3.06579E-07 3.01103E-07-3.18494E-07
 -1      4129 1.46103E-06-2.08129E-06 6.89519E-07 1.38013E-07-5.84837E-07 9.19268E-08
 -1      4130-4.64883E-07-7.37194E-10 1.85849E-07 4.92448E-07 1.67347E-07-2.71307E-07
 -1      4131-4.10239E-07 6.01476E-08 1.57610E-07 3.32008E-07 7.07339E-08-1.07765E-07
 -1      4132-2.26421E-07 1.61083E-07-7.07655E-08 2.57756E-07 3.27664E-07-2.97661E-07
 -1      4133-1.72996E-07 9.20788E-08-1.23646E-07 2.45854E-07 1.98261E-07-1.85827E-07
 -1      4134 2.10912E-08 9.16717E-07-3.02826E-07 3.56648E-07-3.40841E-08-3.22758E-07
 -1      4135-4.25787E-07 1.35171E-07 1.41675E-07 1.00735E-07 7.04247E-10-1.45154E-08
 -1      4136-4.48807E-07 1.08311E-07 1.77759E-07 2.38973E-07 5.81903E-09-4.90985E-08
 -1      4137-4.02477E-07 6.42775E-08 1.33321E-07 2.79095E-07 5.51442E-08-1.31114E-07
 -1      4138-4.33270E-07 1.35306E-07 1.40331E-07 9.47975E-08 8.15828E-09-2.94608E-08
 -1      4139-6.02600E-08-4.74845E-08 5.86737E-08 1.02102E-07 1.92412E-09-1.02982E-08
 -1      4140-4.04806E-09-8.00481E-08 4.61854E-08 7.78580E-08 9.21616E-09-8.60108E-09
 -1      4141 2.24017E-08-8.54035E-08 3.68663E-08 4.61755E-08 9.08881E-09-4.15235E-09
 -1      4142 1.76804E-08-8.13788E-08 3.41747E-08 2.82335E-08 2.97661E-09-3.38441E-09
 -1      4143-1.42551E-08-8.17222E-08 4.87327E-08 7.24880E-08 2.30539E-09-2.60969E-09
 -1      4144-1.04372E-07-2.08872E-08 6.71007E-08 1.25349E-07 6.32353E-09-1.42425E-08
 -1      4145-1.83160E-07 2.97103E-08 8.19673E-08 1.40179E-07 5.61853E-09-1.37714E-08
 -1      4146-1.14702E-07-2.37029E-08 7.61697E-08 1.22637E-07-1.61180E-09-5.12953E-09
 -1      4147-3.51357E-07 1.11436E-07 1.23644E-07 7.63158E-08 6.13368E-09-6.16720E-09
 -1      4148-3.81998E-07 1.32555E-07 1.34224E-07-2.32841E-08-7.16966E-09-3.50528E-09
 -1      4149-2.25061E-07 3.73715E-08 9.47539E-08 1.17120E-07 2.49587E-09-8.69050E-09
 -1      4150-2.62082E-07 7.53205E-08 1.01931E-07 1.20489E-07 2.35857E-10-8.36220E-09
 -1      4151-3.96467E-07 1.21983E-07 1.26218E-07 3.89782E-08-2.41507E-09 1.70682E-08
 -1      4152-4.63351E-07 1.39515E-07 1.71737E-07-1.59977E-07 4.82420E-09 3.83301E-08
 -1      4153-4.37548E-07 6.37882E-08 7.08559E-08-4.57556E-07 2.34155E-07 2.98023E-07
 -1      4154-3.39403E-07 6.81788E-08 5.51741E-08-3.44089E-07 1.40269E-07 1.85850E-07
 -1      4155-3.89542E-07 9.69681E-08 1.08007E-07-2.84314E-07 4.18444E-08 1.02851E-07
 -1      4156-3.68298E-07 1.07746E-07 9.39313E-08-1.36973E-07 1.91511E-08 2.83531E-08
 -1      4157-1.78336E-07 7.46151E-08-5.26531E-08-2.13994E-07 8.90238E-08 1.80703E-07
 -1      4158-4.94958E-07 3.92495E-07 6.05592E-08-5.51561E-07 3.46125E-07 3.35591E-07
 -1      4159-4.33241E-07 2.71454E-07 2.62001E-07 6.19124E-07-3.29347E-07 2.21622E-07
 -1      4160-1.37841E-07 3.33158E-07-2.21115E-07-1.69852E-07 9.68171E-08 3.62951E-07
 -1      4161 1.99892E-06-4.11125E-06 1.09933E-06 8.95568E-07-7.29662E-07-2.36054E-07
 -1      4162 3.32098E-06-8.58949E-06 2.55462E-06-1.47688E-08-5.44465E-07 1.74024E-07
 -1      4163-1.67479E-08 4.12311E-07-1.29454E-07-4.71612E-07-2.02712E-08 3.05595E-07
 -1      4164 5.03941E-08 1.26482E-07 3.24868E-07 3.77015E-07-6.24498E-07-7.32229E-08
 -1      4165 1.31521E-06-2.97163E-06 1.00646E-06 8.50304E-08-8.26261E-07-3.45212E-07
 -1      4166 2.13378E-06-5.30859E-06 1.52360E-06 3.53733E-07 7.30347E-07 2.73983E-08
 -1      4167 3.47740E-06-9.83091E-06 3.08000E-06 3.04814E-07 4.45728E-07 3.17973E-07
 -1      4168 2.82934E-06-8.92882E-06 1.96656E-06-4.15630E-07-5.02253E-07 3.95937E-07
 -1      4169-5.53693E-08 3.35183E-07 1.73608E-07 9.48050E-08 4.05467E-07-3.17399E-07
 -1      4170-3.57232E-07 5.52823E-07-5.04350E-08 2.48093E-07-8.88284E-08 2.62257E-07
 -1      4171 2.68016E-06-4.45244E-06 1.02191E-06-1.23941E-08 1.72280E-07-5.27234E-08
 -1      4172-3.56492E-07 5.94723E-08 1.26388E-07 2.71714E-07-4.23609E-08 8.47356E-08
 -1      4173-4.30810E-07 5.59416E-08 8.92799E-08 4.97711E-07-2.27899E-07 2.04496E-07
 -1      4174-4.02267E-08 2.58397E-07-2.29000E-07 2.76006E-07 3.32903E-07-6.51759E-08
 -1      4175-3.38125E-07 3.62207E-07-7.54825E-08 2.95977E-07-2.44134E-07 1.52988E-07
 -1      4176-1.68968E-07 1.87179E-07-1.21004E-07 2.22686E-07-1.41283E-07 7.16271E-08
 -1      4177-4.35830E-07 1.26884E-07 1.46489E-07 1.94594E-07-3.21868E-09-1.62925E-10
 -1      4178-3.54958E-07 1.03543E-07 1.25295E-07 1.02504E-07 3.69985E-09-2.12254E-08
 -1      4179-3.53135E-07 8.17224E-08 9.66341E-08 2.29373E-07-2.41886E-08 6.40363E-08
 -1      4180-3.02265E-07 8.84711E-08 1.12031E-07 2.48769E-08 1.79301E-08-2.19024E-08
 -1      4181-3.70825E-07 1.16741E-07 1.17710E-07 6.19623E-08 1.12946E-08-4.41518E-08
 -1      4182-1.64375E-09-6.44466E-08 3.68782E-08-5.81963E-08-9.52480E-09-7.37631E-09
 -1      4183-1.96771E-09-7.52674E-08 3.89496E-08-5.44321E-08-1.01383E-08-6.87174E-09
 -1      4184 1.74713E-08-8.39424E-08 3.36110E-08-1.53909E-08 3.86556E-10-1.56871E-09
 -1      4185 1.31072E-08-7.06514E-08 3.08692E-08 1.91278E-08-4.48545E-09 2.69277E-09
 -1      4186 1.37904E-08-8.22324E-08 3.41615E-08 1.60846E-08 6.39851E-09-3.28662E-09
 -1      4187 8.74342E-09-7.86847E-08 3.81951E-08 3.68180E-08-8.59230E-10 4.52481E-09
 -1      4188 1.03960E-08-7.03886E-08 3.65443E-08-2.99336E-08-1.28146E-10-6.89765E-10
 -1      4189-7.28276E-08 2.56254E-07-1.24958E-07 1.21128E-08-4.01506E-09 8.11994E-08
 -1      4190-2.71814E-07 6.86086E-08 1.11982E-07 6.68896E-08 6.20297E-09 2.05143E-08
 -1      4191-2.23977E-07 3.01889E-08 9.58853E-08 1.12642E-07-8.36601E-09 2.12580E-08
 -1      4192-3.51557E-07 9.61561E-08 1.20859E-07 3.83752E-08 5.20547E-09 9.31498E-09
 -1      4193 3.43553E-06-7.88685E-06 1.71847E-06 1.14927E-06-1.72758E-07-1.59215E-07
 -1      4194-1.05498E-07 2.40374E-07-2.21773E-07-2.13491E-07 3.94805E-08-1.14769E-08
 -1      4195-3.33217E-07 8.36895E-08 9.17056E-08 1.73860E-07 1.35299E-08-6.16565E-08
 -1      4196-3.98691E-07 1.15361E-07 1.10069E-07 1.03699E-07 1.10932E-08-3.04611E-08
 -1      4197-4.07860E-07 1.40129E-07 1.22078E-07 5.76507E-08 8.25798E-09-2.33655E-08
 -1      4198-3.29881E-07 9.55344E-08 8.86311E-08 1.39273E-07 2.32075E-08-4.73116E-08
 -1      4199-1.60479E-07 2.59760E-09 8.30891E-08 1.24527E-07-6.66771E-09 1.62885E-09
 -1      4200-9.37385E-08-3.12830E-08 6.81968E-08 1.04825E-07 5.47469E-09 3.35665E-09
 -1      4201-3.40735E-08-5.94243E-08 5.22888E-08 8.08667E-08-6.67058E-09 2.65937E-09
 -1      4202-2.86530E-07 2.63891E-08 5.85089E-08 2.64430E-07 7.39567E-08-1.55815E-07
 -1      4203-1.73667E-07 1.67997E-07-1.36443E-07 1.65268E-07 8.20642E-08-7.71316E-08
 -1      4204-2.47909E-07 4.90405E-08 9.06573E-09 1.95347E-07-1.64838E-08 4.11594E-08
 -1      4205-4.52699E-09-6.93341E-08 4.06219E-08 5.20195E-08 3.31412E-09 3.18275E-09
 -1      4206 3.90637E-06-8.90551E-06 1.38450E-06 3.24498E-07-4.31418E-08 1.26890E-07
 -1      4207 4.34236E-06-8.46419E-06 1.34266E-06-2.24348E-07-3.91955E-07 1.02412E-07
 -1      4208 4.67804E-09-8.55553E-08 4.19418E-08-5.31648E-08-2.48108E-09-3.62351E-09
 -1      4209-3.65486E-07 1.16515E-07 1.26355E-07-4.21442E-08 4.75957E-10 2.34930E-08
 -1      4210-1.96701E-08-6.16427E-08 4.67551E-08-6.54289E-08-2.39060E-09-2.25687E-09
 -1      4211 1.46565E-06-2.38242E-06 1.04283E-06-1.08782E-07 3.26250E-08 4.11121E-08
 -1      4212 1.96683E-07 8.80036E-09 1.68536E-07 5.59471E-07-1.11089E-07 1.54274E-08
 -1      4213 4.56649E-02-1.19883E-02-1.92275E-02-9.71604E-04 3.99333E-05 5.30907E-05
 -1      4214 4.53953E-02-1.16967E-02-1.92818E-02 9.99311E-04-4.81878E-05-2.60155E-05
 -1      4215 4.93963E-02-1.48189E-02-1.97901E-02 2.00532E-05 3.08140E-06-2.76690E-05
 -1      4216 4.96905E-02-1.55519E-02-1.93573E-02-1.70048E-03-8.79420E-06 1.59356E-05
 -1      4217 5.07570E-02-1.68179E-02-1.91671E-02 1.57836E-03-6.70257E-06 6.95886E-07
 -1      4218 5.28776E-02-1.63181E-02-2.01643E-02 6.86647E-04-7.01090E-05 9.62608E-05
 -1      4219 5.21900E-02-1.86412E-02-1.88828E-02-2.23826E-03-3.44294E-06 7.30867E-07
 -1      4220 4.83880E-02-1.29951E-02-1.99823E-02-5.94560E-03-2.25422E-04 2.84926E-04
 -1      4221 4.87832E-02-1.36889E-02-1.98924E-02 4.38161E-03-1.84213E-04-2.63506E-04
 -1      4222 4.83434E-02-1.39083E-02-1.96818E-02-3.34881E-04-7.73322E-05 4.43497E-04
 -1      4223-2.67266E-04 4.82675E-04-1.12212E-04-1.51306E-04 4.41498E-07-8.52311E-07
 -1      4224 4.72036E-02-1.28726E-02-1.95437E-02-1.51819E-03 1.88360E-04-4.37431E-04
 -1      4225 5.38900E-02-2.01539E-02-1.89784E-02 1.10818E-03 3.56937E-06 2.42322E-05
 -1      4226-2.54199E-04 4.67979E-04-1.12211E-04 1.29232E-04-3.17982E-07 2.98197E-07
 -1      4227 5.48506E-03-3.17816E-03-1.21370E-03-2.23700E-03-5.80166E-06 9.36231E-06
 -1      4228 2.99026E-02-8.37246E-03-1.20919E-02-6.29914E-03 1.13912E-04-1.05978E-04
 -1      4229 4.53683E-02-1.02378E-02-1.98946E-02 4.25927E-03 4.99700E-04 4.85087E-04
 -1      4230 3.41375E-02-9.85244E-03-1.35891E-02 4.73020E-03 6.48904E-04 1.58591E-04
 -1      4231 5.64561E-02-2.23293E-02-1.92026E-02-1.52409E-03-3.29969E-06-5.61164E-06
 -1      4232 4.36470E-02-8.96519E-03-1.96193E-02 3.36055E-03-5.12832E-04-3.69570E-04
 -1      4233-3.32108E-03 4.01780E-03-2.74393E-04-2.10104E-04-4.77675E-06-1.67653E-05
 -1      4234 8.91903E-06-1.32705E-05 2.10987E-06 1.23603E-05-5.09534E-07 1.02780E-07
 -1      4235 4.92861E-03-3.04920E-03-9.70878E-04 9.62634E-04 6.40100E-07-5.81634E-07
 -1      4236 5.21268E-04 8.30068E-05-3.13846E-04 1.22707E-03 1.68270E-06-2.05340E-06
 -1      4237 4.00679E-02-1.18616E-02-1.60553E-02 2.88079E-03-7.95493E-04-9.63351E-05
 -1      4238 4.17491E-02-1.18468E-02-1.69751E-02-1.08133E-03-4.06165E-04-1.39578E-04
 -1      4239 5.71825E-02-2.28199E-02-1.93940E-02 3.95083E-03 3.11561E-05 1.15700E-05
 -1      4240 4.27782E-02-1.17472E-02-1.75903E-02-6.06321E-04 3.73804E-04 2.38166E-04
 -1      4241 4.49667E-02-1.33898E-02-1.74575E-02 2.10255E-03 6.61647E-04 5.24404E-05
 -1      4242 5.02625E-02-1.55858E-02-1.81697E-02-2.48131E-03 1.50506E-04 5.09511E-04
 -1      4243 1.60164E-05-2.00459E-05 2.01259E-06-2.17494E-05-1.63619E-07-3.31068E-07
 -1      4244 3.10437E-04 2.22281E-04-2.77406E-04-1.18970E-03-1.02237E-06-2.74044E-06
 -1      4245 1.69781E-03-8.29799E-04-4.48102E-04 1.49047E-03-1.41327E-06-1.06173E-06
 -1      4246-2.21372E-04 3.95284E-04-8.89715E-05 1.38106E-05 1.57681E-06 1.54832E-06
 -1      4247 5.71673E-02-2.24078E-02-1.97918E-02-8.13738E-03-1.14142E-05-2.83243E-05
 -1      4248 4.82290E-02-1.48223E-02-1.85694E-02 3.34546E-03-3.25906E-04 2.32268E-04
 -1      4249 5.01212E-02-1.50908E-02-1.99551E-02-1.52945E-03-6.99006E-05 8.20314E-04
 -1      4250 4.51987E-02-9.19763E-03-2.01528E-02-6.20014E-03 6.41966E-04-4.61956E-04
 -1      4251-3.07357E-04 5.66951E-04-1.34683E-04-3.64492E-04 1.47754E-07-1.78620E-07
 -1      4252-3.07306E-04 5.54384E-04-1.26478E-04 3.02456E-04 3.02903E-07 2.13001E-06
 -1      4253 3.00909E-03-1.84055E-03-6.09781E-04-1.12964E-03-1.47674E-07-9.45345E-08
 -1      4254-1.25324E-04 5.08086E-04-1.99924E-04 7.53261E-04-4.94481E-07-6.56446E-08
 -1      4255 7.31077E-02-3.02326E-02-2.48121E-02 1.15925E-03-2.82465E-04 1.83143E-04
 -1      4256 3.81907E-03-2.53132E-03-6.64347E-04 7.03785E-04-8.75376E-06 1.84407E-06
 -1      4257 5.12185E-02-1.66486E-02-1.95879E-02-4.40401E-03 1.17957E-04-3.48772E-04
 -1      4258 5.13852E-02-1.76313E-02-1.90119E-02-3.61850E-04-3.58973E-06-2.81974E-05
 -1      4259 4.96227E-02-1.49745E-02-1.97956E-02 6.42331E-04 3.23273E-05-6.85026E-04
 -1      4260 4.78192E-02-1.36054E-02-1.95221E-02-4.86781E-04-8.02076E-05-6.55606E-04
 -1      4261-2.23276E-04 4.08729E-04-9.85705E-05-4.54714E-05 5.30639E-08-1.92836E-06
 -1      4262-1.13902E-04 5.02278E-04-2.07467E-04-7.43609E-04 1.07063E-06 1.23849E-06
 -1      4263 1.30856E-03-5.20745E-04-4.09413E-04-1.48985E-03-1.50743E-06-2.45019E-06
 -1      4264 4.87682E-02-1.47146E-02-1.92890E-02 1.42880E-03 1.12369E-04 2.97141E-04
 -1      4265-2.39728E-04 5.98653E-04-1.86349E-04-4.41435E-04 1.12136E-05 1.55591E-06
 -1      4266 6.61366E-05-4.37516E-05-9.30251E-06-4.88882E-05-5.15133E-07-1.01586E-06
 -1      4267 3.40127E-05-3.27373E-05-3.24151E-08 3.56345E-05-1.28752E-06 2.23722E-07
 -1      4268-9.08256E-05 3.98130E-04-1.55223E-04 2.78850E-04-2.94589E-06-5.67907E-06
 -1      4269 4.98940E-02-1.60016E-02-1.91491E-02 9.27338E-05 4.36666E-06 1.53056E-04
 -1      4270 8.19440E-05 3.90327E-05-5.85384E-05-1.02023E-05 2.74182E-06-1.83614E-06
 -1      4271 6.27880E-03-1.60561E-03-2.53613E-03-5.88096E-03 3.78748E-05 9.30526E-06
 -1      4272 4.09440E-02-8.12883E-03-1.84118E-02-2.92792E-03 6.57404E-05-2.08348E-04
 -1      4273 4.94467E-02-1.54946E-02-1.92228E-02-2.13867E-04 1.52473E-05-2.24860E-04
 -1      4274 4.85547E-02-1.41861E-02-1.96536E-02 1.84476E-03 1.66751E-04 1.06391E-03
 -1      4275 5.21238E-02-1.85244E-02-1.89173E-02 2.44481E-03-2.30892E-06 2.10446E-05
 -1      4276 4.59592E-02-1.32915E-02-1.85032E-02-1.80206E-03 8.18566E-05-7.39069E-04
 -1      4277 5.73369E-02-2.14269E-02-2.05381E-02 1.11608E-02 1.87430E-04-2.33023E-04
 -1      4278 4.88773E-02-1.47631E-02-1.93465E-02 9.88149E-04-8.24026E-05-3.14950E-04
 -1      4279 3.95604E-02-7.60792E-03-1.80457E-02-6.22387E-03 9.47851E-05-1.27096E-03
 -1      4280 5.28316E-02-1.94051E-02-1.88013E-02 2.85766E-03 1.76019E-05-1.53522E-05
 -1      4281 4.74318E-02-1.40070E-02-1.87135E-02-3.02649E-03-5.44896E-04-3.93099E-06
 -1      4282 1.01412E-02-5.92872E-04-5.18463E-03 8.44940E-03-3.45265E-06-5.91151E-06
 -1      4283 6.45969E-03-2.74286E-03-1.89616E-03 4.85353E-03-1.05177E-04 2.09709E-05
 -1      4284 5.12461E-02-1.69613E-02-1.93786E-02 3.64453E-03 1.07585E-04 3.03686E-04
 -1      4285 5.10746E-02-1.73141E-02-1.90211E-02-2.24575E-03 2.03238E-05-7.81382E-05
 -1      4286-1.06384E-03 2.42091E-03-6.45835E-04 3.83117E-03 3.73266E-05-6.84890E-05
 -1      4287 4.65480E-02-1.30411E-02-1.90855E-02 1.42115E-03-1.73247E-06-7.66643E-04
 -1      4288 5.07129E-02-1.66710E-02-1.92407E-02-3.32829E-03-8.34863E-05 2.33679E-04
 -1      4289 4.52788E-02-1.26752E-02-1.85439E-02-1.19783E-03 1.59401E-05 6.82391E-04
 -1      4290 5.06986E-02-1.54174E-02-1.81791E-02-7.26413E-04 5.90421E-05-1.60444E-03
 -1      4291 4.78719E-02-1.34339E-02-1.96975E-02 2.35913E-04 6.37426E-05 3.72353E-04
 -1      4292 1.01310E-02-4.53613E-05-5.57997E-03-8.45440E-03 8.43852E-06 7.83831E-06
 -1      4293 5.04302E-02-1.54532E-02-1.98316E-02-9.13667E-04-2.54645E-05-7.23011E-04
 -1      4294 5.17185E-02-1.78694E-02-1.90872E-02 3.00026E-03-1.91594E-05-1.64445E-04
 -1      4295 3.98719E-02-1.09513E-02-1.66870E-02 2.18113E-03 6.57922E-04 3.65133E-04
 -1      4296-1.77914E-03 3.47383E-03-8.33569E-04-5.59196E-03 1.68596E-05 1.46875E-04
 -1      4297 5.01959E-02-1.54108E-02-1.98497E-02 3.55248E-04-1.16850E-05 1.08659E-03
 -1      4298 4.14094E-02-6.87459E-03-1.95322E-02 3.34344E-03 5.97008E-04-4.04163E-04
 -1      4299 4.20680E-02-7.08514E-03-1.89509E-02 4.66291E-03 2.32094E-04-1.07961E-04
 -1      4300 5.11638E-02-1.74036E-02-1.90161E-02-1.32252E-03-6.66385E-06 4.42549E-05
 -1      4301 5.25883E-02-1.92485E-02-1.87655E-02-2.88938E-03 7.53242E-06 1.41942E-06
 -1      4302 5.63648E-02-1.96976E-02-2.12650E-02-1.59701E-02 3.72992E-04-2.46200E-04
 -1      4303-2.41623E-04 1.12791E-03-4.23251E-04-1.81343E-03 2.48823E-05-5.91417E-07
 -1      4304 5.26406E-02-1.95884E-02-1.86500E-02-4.35964E-03-3.51623E-05 3.63802E-06
 -1      4305 4.12837E-02-8.71688E-03-1.81899E-02-5.65724E-03-2.68592E-04 8.72643E-04
 -1      4306 5.18937E-02-1.81614E-02-1.89871E-02 3.28506E-04 7.03168E-06 1.28141E-05
 -1      4307 1.40824E-06-5.42509E-06 1.90463E-06-8.11969E-06-9.01421E-08-1.30785E-07
 -1      4308 1.56768E-02-8.65360E-04-8.78047E-03 1.16753E-02-1.16208E-03-5.79055E-06
 -1      4309 5.22081E-02-1.85056E-02-1.89741E-02 1.75664E-03 7.00372E-06-1.52898E-05
 -1      4310 4.46858E-02-1.07179E-02-1.93177E-02-1.36337E-03-4.99972E-04 5.70191E-04
 -1      4311 4.90337E-02-1.50916E-02-1.92591E-02-6.49603E-06 3.91140E-06 5.21995E-04
 -1      4312 5.36091E-02-1.99377E-02-1.89532E-02-1.28914E-03 2.32988E-06 1.53944E-05
 -1      4313-2.25599E-04 4.83800E-04-1.43488E-04 2.06374E-04-1.45349E-06 4.50554E-06
 -1      4314-2.15853E-04 4.76000E-04-1.43574E-04 1.77373E-04-1.08152E-06 2.95695E-06
 -1      4315-2.46234E-04 4.74823E-04-1.24962E-04 1.36031E-04 1.35722E-07 8.36563E-06
 -1      4316-2.15619E-04 4.75195E-04-1.43193E-04 1.77801E-04 9.72908E-07-2.84325E-06
 -1      4317-2.25631E-04 4.83710E-04-1.43231E-04 2.05698E-04 1.40435E-06-3.58639E-06
 -1      4318-2.44474E-04 4.71383E-04-1.24443E-04 1.35742E-04 3.69491E-07-7.32577E-06
 -1      4319 5.30585E-03 3.95570E-03-5.34277E-03-1.00629E-02-9.31530E-04-3.16416E-05
 -1      4320 2.70113E-03 4.31461E-03-4.47039E-03-6.94039E-03-6.20724E-04-6.30287E-04
 -1      4321 7.37046E-03 1.53652E-03-4.96674E-03-8.74693E-03-2.59765E-04-4.50907E-04
 -1      4322 6.05844E-03 2.80217E-03-5.45015E-03-8.14314E-03-6.28611E-04 1.15102E-04
 -1      4323 1.13809E-02-5.35077E-04-6.14309E-03-9.70438E-03-5.94586E-04-1.88863E-04
 -1      4324 4.70175E-03-2.64125E-03-1.12208E-03-1.24705E-03-7.63871E-05 8.65168E-06
 -1      4325 5.32267E-03-3.08479E-03-1.21901E-03-1.63157E-03-5.75793E-05-3.63893E-05
 -1      4326 4.56744E-03-2.16941E-03-1.32381E-03-1.96493E-03-6.72455E-05 2.91713E-05
 -1      4327 4.81369E-02-1.43348E-02-1.91416E-02-5.77915E-04-8.36893E-05 3.73276E-04
 -1      4328 4.88783E-02-1.46638E-02-1.95028E-02-1.13273E-03-2.48934E-05 2.19827E-04
 -1      4329 4.89770E-02-1.51597E-02-1.91198E-02-1.24669E-03-2.59681E-05 1.62768E-04
 -1      4330 4.85848E-02-1.48885E-02-1.90089E-02-3.51072E-04-2.15727E-05 3.05531E-04
 -1      4331 4.93184E-02-1.51497E-02-1.93509E-02-7.78231E-04-6.12532E-05 2.26666E-04
 -1      4332 4.87044E-02-1.45991E-02-1.94172E-02-1.47377E-04-6.34296E-05 4.92111E-04
 -1      4333 4.89274E-02-1.50972E-02-1.91304E-02-1.25503E-03 5.97426E-05-1.54474E-04
 -1      4334 4.86251E-02-1.43552E-02-1.94400E-02-1.74912E-03 9.30308E-05-2.11066E-04
 -1      4335 4.77391E-02-1.39960E-02-1.91093E-02-1.04130E-03 8.49807E-05-3.19551E-04
 -1      4336 4.87879E-02-1.51362E-02-1.89904E-02-4.69492E-04 1.17091E-06-1.63424E-04
 -1      4337 4.85960E-02-1.45677E-02-1.93331E-02-8.16186E-04 1.10157E-04-3.62546E-04
 -1      4338 4.96354E-02-1.55000E-02-1.93221E-02-9.41838E-04 2.16735E-05-1.29457E-04
 -1      4339 4.79955E-02-1.34248E-02-1.96545E-02-9.83835E-04 1.09282E-04-4.09469E-05
 -1      4340 4.90375E-02-1.47898E-02-1.95298E-02-4.11020E-04 2.18164E-05-1.54490E-05
 -1      4341 7.33206E-02-2.60738E-02-2.56374E-02 7.31668E-03-7.51067E-04 6.17043E-04
 -1      4342 7.68496E-02-2.62344E-02-2.79797E-02 2.54274E-03 1.07075E-04 9.56880E-04
 -1      4343 6.02039E-02-2.04361E-02-2.15899E-02 1.36658E-02-5.33835E-04-1.18681E-04
 -1      4344 6.54235E-02-2.29582E-02-2.49371E-02 1.08098E-02 6.21018E-04 5.76664E-04
 -1      4345 6.49153E-02-2.54945E-02-2.31303E-02 7.83433E-03 1.99974E-04 5.46234E-04
 -1      4346 5.20425E-02-1.83736E-02-1.89541E-02-1.48458E-03-1.90862E-07 1.68882E-05
 -1      4347 5.17283E-02-1.80957E-02-1.89554E-02-1.79314E-03-4.94719E-06 1.66092E-05
 -1      4348 5.24947E-02-1.88963E-02-1.89054E-02-1.99581E-03-1.54965E-05-6.30388E-06
 -1      4349 5.24290E-02-1.87570E-02-1.89570E-02-6.98961E-04-9.66825E-07-2.61613E-06
 -1      4350 5.20730E-02-1.84266E-02-1.89392E-02-1.07632E-03-4.97648E-06 1.94487E-06
 -1      4351 5.15298E-02-1.77919E-02-1.89978E-02-5.21030E-04 6.02627E-06 2.69138E-05
 -1      4352 6.11369E-02-2.56588E-02-1.99911E-02 2.13004E-03 8.07482E-05-3.12174E-04
 -1      4353 5.90450E-02-2.41474E-02-1.98257E-02-1.57429E-03-2.36586E-05 6.24518E-06
 -1      4354 6.22755E-02-2.61017E-02-2.05676E-02-4.24591E-03-1.94123E-06-2.29576E-04
 -1      4355 6.83863E-02-2.90930E-02-2.25425E-02 2.78498E-05-2.59272E-04-5.62762E-04
 -1      4356 6.57440E-02-2.64953E-02-2.21966E-02-4.23336E-03-1.07544E-04 3.73489E-05
 -1      4357 6.30486E-02-2.64812E-02-2.12417E-02 2.46895E-03-1.24671E-04 1.74002E-04
 -1      4358 5.66716E-04 3.74705E-05-3.70914E-04 8.98214E-04-8.43061E-05-4.96732E-06
 -1      4359 1.35294E-03-1.58484E-04-6.57352E-04 1.39796E-03-5.13994E-05 6.24151E-05
 -1      4360 1.52201E-04 1.35210E-03-8.19741E-04 2.72479E-03-2.06631E-04 4.86496E-05
 -1      4361 6.18085E-04 6.58729E-04-7.77902E-04 1.97389E-03-1.52108E-04-3.40102E-05
 -1      4362 2.99364E-04 5.24540E-04-4.37045E-04 1.23278E-03-3.20623E-05 4.83209E-05
 -1      4363 6.19911E-02-2.60086E-02-2.04589E-02-4.11807E-03-2.06706E-05 2.17344E-04
 -1      4364 6.09333E-02-2.55576E-02-1.99516E-02 2.11659E-03-8.13343E-05 3.00793E-04
 -1      4365 6.77888E-02-2.90836E-02-2.20841E-02 4.01193E-04-2.20860E-05 6.45364E-04
 -1      4366-3.55796E-05 2.82764E-04-1.40493E-04 1.01963E-04-2.45179E-06 1.08880E-05
 -1      4367-1.78001E-05 1.42301E-04-7.11874E-05 5.78309E-05 1.50927E-06 2.76535E-06
 -1      4368 7.58455E-05 1.23999E-05-5.26326E-05-2.51993E-05 1.97970E-06 6.64181E-06
 -1      4369 6.93104E-05 5.61418E-05-7.36296E-05 7.55617E-06 1.13239E-05-6.26344E-08
 -1      4370 5.44045E-05-1.07809E-05-2.01047E-05-2.95168E-05 4.63900E-07 2.08157E-06
 -1      4371-6.31100E-05 2.21516E-04-9.88479E-05 9.10366E-05 3.80591E-06-3.73819E-06
 -1      4372 4.90065E-02-1.44005E-02-1.97427E-02 9.58668E-05 1.92920E-05-1.34219E-04
 -1      4373 4.82700E-02-1.39426E-02-1.95482E-02-2.46924E-04 1.39700E-04-5.63529E-04
 -1      4374 4.92144E-02-1.51010E-02-1.94475E-02 7.64530E-05 6.15048E-06-4.56076E-04
 -1      4375 5.01410E-02-1.62836E-02-1.90886E-02 1.29566E-03-1.91942E-05-7.50114E-05
 -1      4376 5.00555E-02-1.61054E-02-1.91840E-02 6.66103E-04-1.10547E-05-1.10174E-04
 -1      4377 4.94536E-02-1.56717E-02-1.90665E-02 3.89649E-04-5.72848E-06-1.31371E-04
 -1      4378 4.91492E-02-1.53202E-02-1.91121E-02 1.03359E-03-5.81570E-05-1.86344E-04
 -1      4379 4.92178E-02-1.52386E-02-1.92715E-02 3.88649E-04-1.49343E-05-2.45842E-04
 -1      4380 4.98135E-02-1.58399E-02-1.92567E-02 1.33552E-03-4.50710E-05-1.45567E-04
 -1      4381 3.74940E-03-1.04885E-03-1.50111E-03-2.21639E-03 9.97889E-06 4.86394E-05
 -1      4382 3.85294E-03-1.34227E-03-1.39599E-03-1.67447E-03-1.82790E-05-4.91392E-06
 -1      4383 4.36530E-03-1.76324E-03-1.39136E-03-2.20119E-03-2.70106E-05 3.40358E-05
 -1      4384 3.61955E-02-1.15377E-02-1.41947E-02-3.12731E-03-6.84685E-04-4.86844E-04
 -1      4385 3.58418E-02-1.02109E-02-1.44911E-02-3.67790E-03-1.59147E-04-6.08071E-05
 -1      4386 2.99133E-02-8.18625E-03-1.19101E-02-4.83274E-03-7.68264E-04 1.78555E-04
 -1      4387 3.97886E-02-1.21958E-02-1.54140E-02-7.42016E-04-5.36118E-04 8.74034E-05
 -1      4388 3.89246E-02-1.09600E-02-1.53468E-02-5.07465E-04-9.61454E-05 1.35168E-04
 -1      4389 4.41735E-02-1.29653E-02-1.75672E-02 6.21315E-04-5.14325E-04-1.92956E-04
 -1      4390-7.49628E-03 8.03600E-03-1.99106E-04 2.66546E-04 2.01130E-05 1.80137E-04
 -1      4391-8.33811E-03 8.78514E-03-2.09176E-04 2.12634E-03 2.90630E-05 2.53057E-04
 -1      4392-3.68574E-03 5.03116E-03-7.01401E-04 4.31595E-03 2.00824E-05 1.09264E-04
 -1      4393-5.67849E-03 6.06242E-03-9.58903E-05 2.79954E-03-3.28207E-05 5.92385E-05
 -1      4394-3.67027E-03 4.49130E-03-4.98722E-04 2.34593E-03 5.48126E-05 1.34808E-04
 -1      4395 4.17300E-02-1.22327E-02-1.53410E-02-7.15128E-04 3.42543E-04 3.06729E-04
 -1      4396 4.13733E-02-1.36876E-02-1.08292E-02 2.43429E-03-4.92731E-04 2.91906E-03
 -1      4397 3.31588E-02-1.05545E-02-9.19340E-03 4.72228E-03-3.59750E-04 2.41931E-03
 -1      4398 4.04647E-02-1.13828E-02-1.63474E-02-7.50575E-05 1.41989E-04-6.52575E-06
 -1      4399 4.06697E-02-1.33877E-02-1.10885E-02 1.97646E-03-8.96599E-04 1.05111E-03
 -1      4400 4.86064E-02-1.48156E-02-1.77867E-02-3.10336E-03-5.09958E-04-5.06224E-04
 -1      4401 3.49040E-02-1.13348E-02-1.35424E-02 4.32481E-03-6.65081E-04 3.04814E-04
 -1      4402 3.77631E-02-1.19730E-02-1.45277E-02 3.63687E-03-5.94526E-05-2.18746E-04
 -1      4403 3.22566E-02-9.69028E-03-1.24268E-02 4.81919E-03-1.41851E-04-1.12931E-04
 -1      4404 3.93739E-02-1.21889E-02-1.54532E-02 8.89270E-04-6.69122E-04-1.12368E-04
 -1      4405 4.31473E-02-1.25770E-02-1.71625E-02 6.76755E-05-4.99855E-04 2.37075E-04
 -1      4406 5.16532E-02-1.79005E-02-1.89935E-02-8.81976E-04-3.37684E-06 2.16435E-05
 -1      4407 5.20381E-02-1.82962E-02-1.89883E-02-7.48142E-05 1.00432E-05-3.94211E-06
 -1      4408 4.83131E-02-1.40133E-02-1.93568E-02 3.07522E-03-2.46335E-04-2.35686E-04
 -1      4409 4.95168E-02-1.52595E-02-1.93857E-02 3.02255E-03-1.70924E-04-2.35228E-04
 -1      4410 4.82820E-02-1.45011E-02-1.90761E-02 1.60185E-03-1.04153E-04-2.08479E-04
 -1      4411 4.94166E-02-1.55789E-02-1.91222E-02 1.67061E-03-6.32919E-05-1.51382E-04
 -1      4412 4.86420E-02-1.41643E-02-1.95897E-02 2.24761E-03-1.65450E-04-2.47575E-04
 -1      4413 4.98095E-02-1.58236E-02-1.92413E-02-7.73585E-04-1.84136E-05 1.09034E-04
 -1      4414 4.91266E-02-1.54235E-02-1.89930E-02-4.24245E-04-1.12640E-06 1.48593E-04
 -1      4415 4.93807E-02-1.54895E-02-1.92154E-02 9.41695E-06-8.99089E-06 2.88655E-04
 -1      4416-1.02023E-04 2.45601E-04-8.98671E-05-1.79954E-04 2.25944E-05-1.97400E-05
 -1      4417-1.19919E-04 2.32869E-04-4.63975E-05-1.72366E-04 2.82530E-05-1.58796E-05
 -1      4418-6.44826E-05 1.04974E-05 2.39560E-05 4.51179E-05 1.07126E-05-2.92310E-05
 -1      4419 6.59068E-05 3.75517E-05-4.47574E-05-1.86377E-05 8.46892E-06 1.89007E-06
 -1      4420 1.56022E-05 3.55466E-05-9.47490E-06 1.35814E-05 6.20324E-06-2.45628E-06
 -1      4421-1.12900E-04 3.15593E-04-1.23458E-04-1.18173E-04 7.82652E-06-1.44587E-06
 -1      4422 4.79342E-02-1.30084E-02-1.98694E-02-2.80859E-03-1.19893E-04 3.15626E-04
 -1      4423 4.66255E-02-1.23553E-02-1.95254E-02 2.54738E-04-4.00272E-05 2.02017E-04
 -1      4424 4.56258E-02-1.10441E-02-1.95928E-02-2.50112E-03 4.58593E-05-6.60196E-05
 -1      4425 4.74307E-02-1.26862E-02-1.97554E-02-3.49855E-03 2.45093E-05-1.25867E-04
 -1      4426 4.59865E-02-1.16849E-02-1.94231E-02-4.53945E-04 1.10656E-04-2.54264E-04
 -1      4427 4.06623E-02-1.13078E-02-1.64994E-02 1.72616E-03 1.17679E-04 5.91141E-05
 -1      4428 4.57641E-02-1.27622E-02-1.87737E-02-1.29741E-03 1.24884E-04-3.31765E-04
 -1      4429 4.12490E-02-1.16894E-02-1.63666E-02 9.52246E-04 2.57239E-04-3.46694E-04
 -1      4430 4.59560E-02-1.35724E-02-1.82156E-02-1.81243E-03-2.18149E-05-3.90867E-04
 -1      4431 4.58594E-02-1.30523E-02-1.86379E-02-1.59849E-03-1.74454E-04 2.53628E-04
 -1      4432 5.04653E-02-1.66407E-02-1.90791E-02 1.91071E-03-2.45277E-05-7.77662E-05
 -1      4433 4.90346E-02-1.50509E-02-1.91880E-02-2.22932E-03 1.14688E-04-1.76143E-04
 -1      4434 4.75896E-02-1.36486E-02-1.92047E-02-2.16497E-03 1.48158E-04-3.33848E-04
 -1      4435 1.71570E-02-1.87160E-03-9.31110E-03 9.23880E-03 8.62024E-04 3.26261E-04
 -1      4436 2.27331E-02-5.09752E-03-1.01733E-02 1.03155E-02 9.08340E-04-2.61118E-04
 -1      4437 5.45465E-03 3.73098E-03-5.56326E-03 9.92057E-03 6.32136E-04-2.88042E-04
 -1      4438 6.13169E-03 2.63020E-03-5.30201E-03 8.12236E-03 4.79706E-04-3.51565E-04
 -1      4439 1.15195E-02-6.60161E-04-5.98779E-03 9.78050E-03 5.82454E-04-8.86364E-05
 -1      4440 2.10635E-02-4.90114E-03-9.24100E-03 7.19544E-03 1.94688E-04-3.42254E-05
 -1      4441 5.70726E-02-2.28355E-02-1.92787E-02-7.17433E-04-1.61194E-06 1.05248E-05
 -1      4442 5.54517E-02-2.13422E-02-1.91317E-02-1.10942E-04 1.39733E-05 2.81476E-05
 -1      4443 5.55479E-02-2.16048E-02-1.90953E-02 6.44461E-04 7.94733E-06 8.72665E-06
 -1      4444 5.73945E-02-2.31204E-02-1.93772E-02 1.72436E-03-7.29457E-05 1.05883E-05
 -1      4445 5.54552E-02-2.14954E-02-1.91168E-02 2.27548E-03-5.83754E-06 4.38644E-05
 -1      4446 5.72599E-02-2.29500E-02-1.91606E-02 9.76391E-04 2.77489E-06 1.35278E-05
 -1      4447 5.01321E-02-1.62615E-02-1.90951E-02 1.31707E-03 2.73401E-05 7.11493E-05
 -1      4448 5.04657E-02-1.65946E-02-1.90960E-02 1.94496E-03 3.86330E-05 7.28716E-05
 -1      4449 4.90913E-02-1.53223E-02-1.90822E-02 1.22186E-03 6.76839E-05 1.52279E-04
 -1      4450 4.93767E-02-1.54769E-02-1.91118E-02 1.91253E-03 9.68092E-05 1.57334E-04
 -1      4451 4.98188E-02-1.57424E-02-1.92503E-02 1.55307E-03 4.31415E-05 1.39565E-04
 -1      4452 6.70854E-02-2.72471E-02-2.23714E-02 7.55210E-03 3.38592E-04 8.04365E-04
 -1      4453 6.94650E-02-2.49965E-02-2.48815E-02 1.02247E-02 1.13463E-03 2.04125E-04
 -1      4454 5.92828E-02-2.36763E-02-2.03234E-02 1.12888E-02 5.48923E-04 5.05915E-04
 -1      4455 4.81040E-02-1.46286E-02-1.89040E-02 4.10477E-04 6.43139E-05 3.36645E-04
 -1      4456 4.83161E-02-1.40832E-02-1.95016E-02 8.96527E-04 1.18886E-04 3.43070E-04
 -1      4457 4.76093E-02-1.41464E-02-1.90427E-02-2.18902E-04 5.13220E-05 5.02648E-04
 -1      4458 4.84499E-02-1.50468E-02-1.88423E-02-2.39727E-04 4.93731E-06 4.79605E-04
 -1      4459 4.85915E-02-1.45110E-02-1.94431E-02 5.32686E-05 2.34543E-05 4.73744E-04
 -1      4460 4.89806E-02-1.49418E-02-1.92577E-02 5.23914E-04 3.94574E-05 4.09674E-04
 -1      4461 4.74955E-02-1.42031E-02-1.83584E-02-1.96644E-03 1.58797E-04-2.37037E-04
 -1      4462 1.46744E-04 8.26873E-05-1.43916E-04 4.31827E-04 4.65644E-05 2.10569E-05
 -1      4463 8.54771E-05 1.94709E-04-1.44390E-04 2.73316E-04 3.88675E-05-1.17856E-05
 -1      4464-1.17464E-04 4.70285E-04-1.91928E-04 5.84097E-04 3.51445E-05-3.64808E-06
 -1      4465-2.08004E-04 1.16020E-03-4.94615E-04 1.84306E-03 6.39378E-05-9.13879E-05
 -1      4466-4.22448E-04 1.14342E-03-4.21247E-04 1.52555E-03 2.95120E-05-1.88331E-05
 -1      4467 3.05507E-04 5.18260E-04-4.15868E-04 1.25925E-03 6.66312E-05-4.51122E-05
 -1      4468 4.35634E-05 2.17042E-05-3.43114E-05-7.08733E-06 2.54936E-06-7.01338E-07
 -1      4469-5.01435E-05 2.59264E-04-1.19576E-04 1.45142E-04 8.50772E-06 1.70367E-05
 -1      4470 6.85221E-04-3.08300E-05-4.18766E-04 9.34306E-04 6.06325E-05 3.70687E-05
 -1      4471 1.34715E-03-1.30968E-04-6.98512E-04 1.49854E-03 7.32388E-05-3.86246E-06
 -1      4472 7.21637E-04 6.68792E-04-8.04986E-04 2.06128E-03 2.61895E-04 3.50347E-05
 -1      4473 2.45669E-04 1.36861E-03-8.33876E-04 2.92517E-03 2.52053E-04-1.39932E-05
 -1      4474 3.89040E-04 8.30263E-04-5.90482E-04 1.83845E-03 4.78995E-05 4.05745E-05
 -1      4475-4.36187E-03 5.13980E-03-3.91562E-04-9.05316E-05-3.79807E-05 6.10149E-05
 -1      4476-6.33839E-03 6.70969E-03-6.63416E-05 2.58034E-05-2.49384E-05 4.00786E-05
 -1      4477-2.47728E-03 3.43589E-03-4.73322E-04 1.90912E-03 4.34941E-05-1.59998E-05
 -1      4478 4.47788E-02-1.10600E-02-1.92856E-02-1.31174E-04-3.80476E-04 3.47877E-04
 -1      4479 4.62985E-02-1.13977E-02-1.96242E-02-3.79689E-03-3.50741E-04 3.84338E-04
 -1      4480 4.65964E-02-1.26541E-02-1.94204E-02-9.28156E-04-3.06883E-04 5.39355E-04
 -1      4481 4.57979E-02-1.21941E-02-1.91710E-02 1.09742E-03 7.97216E-06-4.02677E-04
 -1      4482 4.76947E-02-1.34051E-02-1.95687E-02 4.58666E-04-1.87439E-05-1.51439E-04
 -1      4483 4.67605E-02-1.28662E-02-1.93589E-02-4.06287E-05 1.16711E-04-5.41717E-04
 -1      4484 4.93494E-02-1.52097E-02-1.93584E-02-9.61762E-05 1.36687E-05 9.51263E-05
 -1      4485-2.26133E-04 4.34519E-04-1.15238E-04 7.70887E-05-8.13852E-07-1.84099E-06
 -1      4486-1.93442E-04 4.66609E-04-1.50201E-04 1.45570E-04-6.64496E-07-1.38208E-06
 -1      4487-1.86247E-04 4.55653E-04-1.51064E-04 9.85149E-05 6.15033E-07-1.14377E-06
 -1      4488-2.13122E-04 4.03914E-04-1.04769E-04 2.40786E-05 1.45871E-06-2.62342E-06
 -1      4489-1.90965E-04 4.35948E-04-1.36728E-04 7.59152E-05 1.05056E-06-1.41052E-06
 -1      4490-2.36671E-04 4.06264E-04-9.62741E-05 5.89158E-05-3.03920E-06-1.01437E-06
 -1      4491 2.47660E-05-2.77049E-05 2.21303E-06-2.68899E-06 2.83915E-07-2.77950E-07
 -1      4492 1.91488E-05-2.08716E-05 1.94108E-06-3.15283E-06-8.10456E-07-3.16353E-07
 -1      4493 1.62124E-05-2.12753E-05 2.75261E-06 1.30812E-05 1.21390E-07-2.09251E-07
 -1      4494 2.73937E-05-2.95873E-05 1.63555E-06 2.31935E-05-4.75484E-08-7.19898E-08
 -1      4495 1.80880E-05-2.30145E-05 2.60174E-06 2.33569E-05-7.05838E-07-1.91623E-07
 -1      4496 3.36705E-05-3.22784E-05 6.10713E-08 3.24209E-06 3.14550E-07-7.29451E-07
 -1      4497 4.85107E-02-1.41184E-02-1.96825E-02-6.42492E-04 1.15512E-05 5.51592E-04
 -1      4498 4.86525E-02-1.50116E-02-1.90929E-02-9.64679E-04-4.98263E-05 6.91844E-04
 -1      4499 4.94775E-02-1.51267E-02-1.95395E-02-5.48861E-04-6.62634E-06 6.86355E-04
 -1      4500 1.33557E-05-1.91852E-05 2.62581E-06-9.05249E-06-1.32303E-07-7.18921E-08
 -1      4501 1.13889E-05-1.47331E-05 2.12167E-06 5.70726E-06-2.19195E-07-5.49550E-09
 -1      4502 6.19157E-06-1.09112E-05 2.39591E-06-5.90265E-06 1.70685E-07 3.67958E-07
 -1      4503 8.91127E-06-1.24016E-05 2.33619E-06-5.59468E-07-4.60620E-07 1.95401E-07
 -1      4504 5.89382E-06-1.22534E-05 2.65433E-06-1.49450E-05-7.32001E-08-1.56943E-07
 -1      4505 1.41796E-05-1.86643E-05 2.36046E-06-9.86403E-06 4.55841E-08-5.29290E-07
 -1      4506 1.13370E-05-1.53595E-05 2.40629E-06 5.38436E-06-2.09524E-07-6.15362E-08
 -1      4507 6.37441E-06-1.05371E-05 2.29999E-06-6.29508E-06-1.12866E-07-3.16055E-07
 -1      4508 4.60163E-02-1.41328E-02-1.70895E-02 2.87759E-03 5.24723E-04-8.03467E-05
 -1      4509 4.59994E-02-1.32009E-02-1.84081E-02 1.73127E-03-2.35672E-04-2.95373E-04
 -1      4510 4.50467E-02-1.28791E-02-1.83028E-02 1.20146E-03 3.08875E-04 9.81151E-05
 -1      4511 4.69833E-02-1.38025E-02-1.87317E-02 2.19384E-03 4.44786E-04 6.31499E-04
 -1      4512 4.69805E-02-1.29365E-02-1.93830E-02 1.52713E-03-4.65166E-05 2.94762E-04
 -1      4513 4.79178E-02-1.44118E-02-1.86844E-02 2.23698E-03-4.89592E-05 9.37671E-05
 -1      4514 5.52150E-02-2.13831E-02-1.90593E-02-6.52430E-04 2.70884E-05-7.45382E-05
 -1      4515 5.40068E-02-2.02231E-02-1.90114E-02 5.39442E-04-1.67929E-05-8.68614E-06
 -1      4516 5.38433E-02-2.00826E-02-1.89886E-02-6.84572E-04 2.01056E-06-1.57426E-05
 -1      4517 5.38581E-02-2.01561E-02-1.89724E-02-1.26765E-04 4.63276E-06 2.65144E-05
 -1      4518 5.50628E-02-2.11266E-02-1.90794E-02-1.44595E-03-9.56176E-06 8.42059E-06
 -1      4519 1.04221E-03-1.80598E-04-4.78339E-04 9.71743E-04 3.04860E-07 8.83976E-08
 -1      4520 1.18657E-03-2.76768E-04-5.10449E-04 9.62751E-04 3.25063E-06 3.21942E-07
 -1      4521 1.58222E-03-5.36099E-04-5.70891E-04 1.05620E-03-3.00087E-07 1.00268E-06
 -1      4522 1.75958E-03-6.56649E-04-6.04779E-04 1.01596E-03 4.46375E-06-6.88512E-06
 -1      4523 9.77038E-04-3.12957E-04-3.68717E-04 1.37044E-03 1.98171E-06-3.37874E-07
 -1      4524 1.18691E-03-2.77213E-04-5.10470E-04 9.62314E-04-2.81539E-06-4.74998E-07
 -1      4525 1.76082E-03-6.58919E-04-6.04049E-04 1.01377E-03-6.19993E-06 1.08740E-05
 -1      4526 5.40325E-02-2.03325E-02-1.89695E-02 1.50774E-03 3.52763E-05 1.28757E-06
 -1      4527 5.55629E-02-2.15466E-02-1.91209E-02 2.67945E-03-1.39175E-06-2.38556E-05
 -1      4528-1.97546E-04 4.62877E-04-1.45425E-04 1.15993E-04 2.60045E-08 1.17264E-07
 -1      4529-1.92405E-04 4.33131E-04-1.33570E-04 4.98286E-05 2.17561E-07-6.03429E-08
 -1      4530 1.57277E-03-4.72389E-04-6.17212E-04 8.82940E-04-6.01870E-07-6.45875E-06
 -1      4531 8.52074E-04-1.01275E-04-4.15206E-04 1.19853E-03-9.30116E-06 1.09751E-05
 -1      4532 1.41196E-03-5.33387E-04-4.77956E-04 1.33025E-03-1.42573E-05 1.20269E-05
 -1      4533 1.57050E-03-4.70593E-04-6.16605E-04 8.83624E-04 1.08505E-06 7.55174E-06
 -1      4534 8.48602E-04-9.93716E-05-4.13297E-04 1.19760E-03 9.20299E-06-1.19793E-05
 -1      4535 1.40441E-03-5.27411E-04-4.78412E-04 1.33157E-03 1.32216E-05-7.44985E-06
 -1      4536-1.93404E-04 4.66718E-04-1.50342E-04 1.45680E-04 6.02501E-07 1.62162E-06
 -1      4537-2.25758E-04 4.34613E-04-1.15347E-04 7.67496E-05 3.93515E-07 2.40560E-06
 -1      4538-1.86347E-04 4.55685E-04-1.51073E-04 9.87596E-05-6.22702E-07 1.52830E-06
 -1      4539-1.91211E-04 4.36049E-04-1.36432E-04 7.59759E-05-7.17940E-07 1.12492E-06
 -1      4540-2.14001E-04 4.03258E-04-1.03849E-04 2.38951E-05-1.51247E-07 3.52467E-06
 -1      4541 2.44584E-02-2.54038E-03-1.23417E-02-1.64823E-02-1.75075E-03 3.28842E-04
 -1      4542 1.33721E-02 8.40035E-05-7.71195E-03-1.09444E-02-1.62526E-03 1.85788E-04
 -1      4543 2.89574E-02-8.58815E-03-1.14503E-02-8.94180E-03-1.03782E-03 1.33830E-04
 -1      4544 1.56666E-02-7.95363E-04-9.08038E-03-9.45473E-03-5.20575E-04 1.27705E-05
 -1      4545 2.63383E-02-3.33892E-03-1.29337E-02-1.46556E-02-7.17142E-04 2.73573E-04
 -1      4546 2.75055E-03 3.98309E-03-4.49750E-03 6.59493E-03 4.81692E-04-6.50627E-04
 -1      4547 7.70012E-03 1.10460E-03-4.79784E-03 8.54848E-03 3.12471E-04-3.68549E-04
 -1      4548 1.93038E-03-7.65376E-04-6.55439E-04 9.45258E-04-3.59702E-06-4.88315E-07
 -1      4549 3.94091E-03-2.33588E-03-9.06119E-04 1.36454E-05-2.52173E-05 1.87540E-05
 -1      4550 4.51077E-03-3.09239E-03-8.52466E-04-5.49479E-04-1.28822E-05 3.99885E-05
 -1      4551 3.83512E-03-1.74913E-03-1.16293E-03-9.67893E-04-1.13811E-05 3.00298E-05
 -1      4552 5.29488E-02-1.92036E-02-1.89846E-02 1.23092E-04 3.97761E-06-3.72263E-06
 -1      4553 5.55455E-02-2.16939E-02-1.90913E-02 2.87084E-03 4.41640E-05 2.84355E-05
 -1      4554 5.41118E-02-2.03765E-02-1.89804E-02 1.64099E-03-3.33499E-05 9.13460E-06
 -1      4555 5.32574E-02-1.98662E-02-1.88558E-02 2.10808E-03 8.84087E-06 1.08449E-05
 -1      4556 5.34058E-02-1.99535E-02-1.88631E-02 2.54218E-03 2.59039E-05 3.13778E-05
 -1      4557 5.44730E-02-2.08566E-02-1.90323E-02 3.42705E-03 2.34600E-05-6.81030E-06
 -1      4558 2.51771E-03-1.10922E-03-7.80894E-04 6.07505E-04-7.95399E-06-2.54364E-06
 -1      4559 2.44704E-03-1.07441E-03-7.64972E-04 6.61929E-04 5.11342E-06 7.32410E-06
 -1      4560 2.26165E-03-9.34401E-04-7.14504E-04 8.24905E-04-1.08560E-06-4.18889E-06
 -1      4561 4.88928E-02-1.52922E-02-1.89522E-02-1.14285E-04 3.04114E-05-3.80465E-04
 -1      4562 4.94287E-02-1.51407E-02-1.95227E-02-5.68725E-05-3.58088E-06-1.76319E-04
 -1      4563 4.89130E-02-1.49961E-02-1.92660E-02-6.56683E-05-2.44551E-06-4.54632E-04
 -1      4564 4.85724E-02-1.48997E-02-1.89771E-02 2.79663E-04-1.97554E-05-3.95748E-04
 -1      4565 4.90583E-02-1.46457E-02-1.95811E-02 5.65942E-04-3.92363E-05-2.21521E-04
 -1      4566 3.40449E-03-1.69859E-03-9.32355E-04 1.41209E-04-1.10052E-05 1.24208E-05
 -1      4567 3.36099E-03-1.64957E-03-9.24204E-04 2.22778E-04 1.00057E-05-1.37533E-05
 -1      4568 2.54647E-03-1.65043E-03-5.16750E-04 1.25285E-03 4.69183E-06 1.42232E-05
 -1      4569 4.69115E-02-1.28178E-02-1.92889E-02 2.95850E-03-2.64964E-04-2.71449E-04
 -1      4570 4.71950E-02-1.35388E-02-1.90127E-02 1.44938E-03-1.40306E-04-2.80191E-04
 -1      4571 3.86761E-04 2.04110E-04-3.23237E-04-1.21317E-03 6.83634E-06 1.19333E-05
 -1      4572 6.20768E-04 5.65176E-05-3.81955E-04-1.08870E-03 1.54510E-06 5.19801E-06
 -1      4573 7.44568E-04-3.84284E-05-3.88764E-04-1.18724E-03 1.29071E-05 7.31703E-06
 -1      4574 6.19018E-04 5.78121E-05-3.82782E-04-1.08585E-03-1.22628E-06-6.43060E-06
 -1      4575 3.87413E-04 2.03321E-04-3.22632E-04-1.20289E-03-5.99088E-06-9.59587E-06
 -1      4576 7.43185E-04-3.25460E-05-3.91026E-04-1.18434E-03-1.24038E-05-9.98711E-06
 -1      4577 4.84696E-02-1.47197E-02-1.90184E-02 9.10979E-04 5.40941E-05 2.35658E-04
 -1      4578 4.86049E-02-1.49338E-02-1.89813E-02 1.35006E-04 4.82037E-05 3.19733E-04
 -1      4579 5.54697E-02-2.15817E-02-1.90433E-02-1.88046E-03 2.02137E-05-3.40745E-05
 -1      4580 5.39361E-02-2.02873E-02-1.89533E-02-1.62635E-03 7.98358E-06 5.50053E-06
 -1      4581 2.72415E-02-1.34288E-02-7.23630E-03-5.19076E-03 8.10692E-04 1.24421E-03
 -1      4582 3.28903E-02-1.17694E-02-8.63005E-03-5.83401E-03 1.05896E-03 3.38415E-03
 -1      4583 3.11257E-02-1.02459E-02-8.43588E-03-5.81126E-03 3.91364E-04 1.91585E-03
 -1      4584 2.56349E-02-1.18079E-02-6.66764E-03-5.43710E-03 2.91551E-04 6.20460E-04
 -1      4585-1.06675E-04 3.43442E-04-1.37396E-04-1.94595E-04 4.26575E-05-2.32212E-05
 -1      4586 3.95579E-05 1.02571E-04-6.89191E-05-3.02324E-05-3.25017E-06 6.41165E-06
 -1      4587 4.81975E-02-1.47100E-02-1.88964E-02 1.71333E-04-4.51809E-05-3.96574E-04
 -1      4588 4.84619E-02-1.47162E-02-1.90179E-02 5.89328E-04-2.04552E-05-2.36470E-04
 -1      4589 4.63828E-02-1.43859E-02-1.71379E-02-1.59487E-03 9.20703E-04 9.99686E-04
 -1      4590 3.77384E-02-1.12552E-02-1.44289E-02 1.60521E-03 4.21283E-04 1.83347E-04
 -1      4591 4.30741E-02-1.35733E-02-1.66072E-02-8.51210E-04 3.35710E-04-3.72664E-04
 -1      4592-1.78712E-04 4.70186E-04-1.63735E-04 1.43996E-04-7.66540E-07-6.38493E-07
 -1      4593-2.26129E-04 4.62285E-04-1.30936E-04 1.29819E-04-2.82516E-07 2.97596E-06
 -1      4594-1.78936E-04 4.70407E-04-1.63756E-04 1.43996E-04 8.04954E-07 5.23072E-07
 -1      4595-2.27020E-04 4.62158E-04-1.30324E-04 1.30611E-04-1.04036E-07-3.10643E-06
 -1      4596 5.16400E-02-1.77776E-02-1.91506E-02-3.00557E-03 7.68091E-05-1.81916E-04
 -1      4597 5.18079E-02-1.78454E-02-1.91792E-02-3.44255E-03 2.01780E-05-2.85855E-04
 -1      4598 5.18796E-02-1.85137E-02-1.88348E-02-2.50308E-03-4.07535E-05-3.48529E-05
 -1      4599 5.16324E-02-1.80432E-02-1.89504E-02-2.18608E-03 7.72920E-06 3.55406E-06
 -1      4600 5.15035E-02-1.80438E-02-1.88703E-02-2.65564E-03 5.09036E-06-1.40784E-04
 -1      4601 5.09412E-02-1.69526E-02-1.92376E-02-3.15376E-03 6.65183E-05-1.93750E-04
 -1      4602 4.90286E-02-1.44468E-02-1.96453E-02-3.33636E-03-1.24258E-04 1.61568E-04
 -1      4603 5.31071E-02-1.95470E-02-1.88904E-02-2.10169E-03-1.59389E-05-8.79942E-06
 -1      4604 5.24371E-02-1.89660E-02-1.88373E-02-2.40519E-03-1.43774E-05 4.14903E-06
 -1      4605-3.23936E-03 4.08431E-03-4.57740E-04-1.40328E-03-3.91671E-06 5.37657E-05
 -1      4606-2.07159E-03 2.96787E-03-4.11730E-04-8.08290E-04-1.20473E-05 5.77540E-05
 -1      4607-1.65015E-03 2.62103E-03-5.26991E-04-2.17566E-03-3.25653E-06 5.54378E-05
 -1      4608-8.32353E-04 1.61504E-03-4.14441E-04-1.46066E-03 1.56104E-05 4.04134E-06
 -1      4609-2.09785E-03 2.75510E-03-3.49305E-04-1.10643E-03 2.81457E-06 5.15168E-06
 -1      4610-6.50556E-04 1.14633E-03-3.09813E-04-8.59247E-04 4.13083E-06-3.51108E-05
 -1      4611-1.49391E-03 2.05907E-03-2.73199E-04-3.86543E-04 1.11149E-05 5.59645E-06
 -1      4612-2.10851E-03 3.00295E-03-4.12762E-04-8.08896E-04 9.63248E-06-5.07900E-05
 -1      4613-8.15926E-04 1.66643E-03-4.43194E-04-1.51131E-03-1.78955E-05-1.11951E-05
 -1      4614-4.52939E-04 8.45936E-04-2.74633E-04-1.08519E-03 1.58048E-05 4.25338E-06
 -1      4615 4.88527E-02-1.50919E-02-1.91603E-02 2.60265E-04 1.27550E-06-6.51677E-04
 -1      4616 4.95115E-02-1.49238E-02-1.97561E-02 1.30261E-04 2.58616E-06-3.12863E-04
 -1      4617 5.67555E-06-1.03827E-05 2.31833E-06 5.68640E-06-2.13000E-07-1.22497E-07
 -1      4618 6.13741E-06-1.09989E-05 2.26588E-06 3.38003E-07-1.59665E-08-4.22479E-07
 -1      4619 4.43841E-06-8.08641E-06 1.94948E-06-3.89997E-06-1.51957E-07-7.15203E-07
 -1      4620 4.03375E-02-1.38737E-02-1.06568E-02-1.78621E-03 5.30796E-04 3.60740E-03
 -1      4621 4.99578E-02-1.60892E-02-1.91141E-02-1.39171E-03-3.78753E-05 9.16366E-05
 -1      4622 5.00554E-02-1.62553E-02-1.90338E-02-5.25475E-04-6.39910E-06 7.26444E-05
 -1      4623 2.21779E-03 2.83173E-03-2.95313E-03-5.56952E-03 7.73064E-05-8.24903E-04
 -1      4624 4.88924E-03 1.89554E-03-3.67561E-03-6.52796E-03 5.77253E-05-2.33196E-04
 -1      4625-1.52776E-05-1.84465E-06 1.04256E-05-1.71512E-05 4.67272E-07-6.34035E-07
 -1      4626-1.89432E-05-1.11176E-06 1.14794E-05-2.17794E-05-6.03944E-07 2.67179E-06
 -1      4627-7.26103E-06-1.24438E-05 1.19365E-05-3.67343E-05-6.20304E-07 2.81906E-06
 -1      4628 3.16325E-05-2.94239E-05-1.49200E-06-3.22070E-05-7.56469E-07-8.32184E-07
 -1      4629-4.81617E-06-1.64072E-05 1.50219E-05-3.40124E-05-1.49535E-06-1.49379E-06
 -1      4630 4.91950E-02-1.47045E-02-1.97101E-02-1.11286E-04-1.70872E-05 2.16454E-04
 -1      4631 4.98536E-02-1.53731E-02-1.94509E-02 4.16829E-03-2.06932E-04-3.43836E-04
 -1      4632-1.27511E-04 4.68051E-04-1.91206E-04-2.58108E-04 1.05239E-06 2.89921E-06
 -1      4633-1.51284E-04 4.62759E-04-1.74479E-04-2.07175E-04-3.89900E-08 2.65126E-06
 -1      4634-1.73693E-04 4.67507E-04-1.61246E-04-2.20994E-04 1.65871E-07 6.22394E-07
 -1      4635-2.31792E-04 4.67452E-04-1.28502E-04-1.36279E-04-6.75772E-08-3.96852E-06
 -1      4636-2.18042E-04 4.72739E-04-1.41922E-04-1.83265E-04-5.13418E-07-4.42944E-06
 -1      4637 4.83652E-02-1.39032E-02-1.93688E-02-3.98183E-03-2.04072E-04 3.97348E-04
 -1      4638 4.89198E-02-1.50901E-02-1.91523E-02-2.13584E-03-7.64807E-05 1.37824E-04
 -1      4639 5.00732E-02-1.60326E-02-1.92795E-02-2.43457E-03-3.23986E-05 1.15707E-04
 -1      4640 4.94199E-02-1.56367E-02-1.90869E-02-2.95435E-03-1.01400E-04 1.95422E-04
 -1      4641 4.98488E-02-1.53394E-02-1.96094E-02-4.52076E-03-1.24110E-04 2.78290E-04
 -1      4642 7.46498E-02-3.21668E-02-2.42150E-02 9.31760E-04-3.24194E-05 1.90596E-03
 -1      4643 7.97203E-02-2.51653E-02-2.89772E-02 1.44923E-03 4.40738E-04 1.27980E-03
 -1      4644 7.11902E-02-2.99406E-02-2.37758E-02-1.04432E-02 9.57940E-04 2.41596E-03
 -1      4645 7.21632E-02-1.96200E-02-2.75106E-02-8.86795E-03 2.11558E-04 6.92142E-04
 -1      4646 6.90014E-02-2.64466E-02-2.40350E-02-7.77827E-03-2.28034E-04-2.76678E-04
 -1      4647 1.28938E-03-3.08858E-04-5.50430E-04-9.36117E-04 5.29564E-06-5.97144E-06
 -1      4648 1.15405E-03-2.03024E-04-5.32572E-04-8.78384E-04 6.30341E-06-2.29677E-06
 -1      4649 8.21089E-04-4.63175E-05-4.30875E-04-9.69536E-04 6.02621E-06-2.79066E-06
 -1      4650 1.15374E-03-2.02745E-04-5.32353E-04-8.77810E-04-6.26633E-06 2.04435E-06
 -1      4651 1.28864E-03-3.07838E-04-5.50833E-04-9.37740E-04-5.70462E-06 5.40032E-06
 -1      4652 8.19979E-04-4.56458E-05-4.31189E-04-9.69323E-04-6.51462E-06 2.08033E-06
 -1      4653 4.98409E-02-1.51147E-02-1.98535E-02-4.16070E-04-9.27486E-06-4.03456E-04
 -1      4654 4.92309E-02-1.54048E-02-1.91729E-02-3.56320E-04 8.08685E-06-6.78158E-04
 -1      4655 5.01615E-02-1.52662E-02-1.98438E-02 2.20616E-05 2.63844E-05-6.20642E-04
 -1      4656 4.92084E-02-1.50440E-02-1.94884E-02 3.34594E-05 3.06967E-05 3.06371E-04
 -1      4657 5.03288E-02-1.63644E-02-1.91619E-02 8.37820E-04 1.08683E-05 7.83489E-05
 -1      4658 4.97104E-02-1.59086E-02-1.90379E-02 5.57950E-04 1.23181E-05 1.04121E-04
 -1      4659 4.94138E-02-1.54406E-02-1.92310E-02 7.23043E-04 4.08720E-05 2.39489E-04
 -1      4660 2.64914E-02-1.14838E-02-6.68899E-03-5.70119E-03-5.01542E-04-1.08066E-03
 -1      4661 1.80781E-02-8.31047E-03-4.43549E-03-6.34949E-03-1.66232E-04-8.14289E-04
 -1      4662 1.73211E-02-7.92732E-03-4.30343E-03-6.23826E-03-1.48335E-05 7.05689E-04
 -1      4663 1.90184E-02-4.08362E-03-8.76292E-03-8.29669E-03 3.57386E-05-2.50190E-05
 -1      4664 4.36065E-03-1.85933E-03-1.33216E-03-1.81568E-03 3.71790E-05-3.43699E-05
 -1      4665 3.75449E-03-1.79315E-03-1.08257E-03-6.06710E-04 1.45414E-06 7.66785E-06
 -1      4666 1.79089E-04 9.25471E-04-5.48289E-04-2.14907E-03-1.89700E-05-4.81829E-05
 -1      4667-5.19527E-04 6.39345E-04-5.90645E-05 1.05873E-04 8.43667E-06-5.97460E-06
 -1      4668-6.56204E-04 8.01653E-04-6.27270E-05 2.76371E-04 1.67054E-05-2.58686E-06
 -1      4669-5.32623E-04 6.70295E-04-6.03129E-05 1.08216E-04 3.76986E-06 1.12519E-05
 -1      4670 3.73348E-02-1.18028E-02-1.41044E-02 2.29786E-03 6.85835E-04-6.64327E-04
 -1      4671 4.32642E-02-1.35824E-02-1.65656E-02-9.96377E-04 2.86917E-04-8.35471E-04
 -1      4672 5.87762E-06-1.11722E-05 2.22169E-06 3.16812E-06-5.67027E-07 2.91288E-07
 -1      4673 6.15804E-06-1.09363E-05 2.34750E-06-1.02671E-06 7.13556E-08 3.70349E-07
 -1      4674 3.16224E-06-7.18682E-06 1.92807E-06-5.01727E-06 1.19480E-08-1.32614E-07
 -1      4675 6.60085E-02-2.01217E-02-2.35625E-02 1.08722E-02 1.62010E-03-3.82270E-04
 -1      4676 5.25010E-02-1.84256E-02-1.88753E-02 1.13194E-02 6.10432E-04 4.56773E-04
 -1      4677 5.17886E-02-1.66900E-02-1.97100E-02-4.78341E-03-1.42421E-04 7.79718E-05
 -1      4678 5.27179E-02-1.65726E-02-2.03927E-02-6.27965E-03-2.01374E-04 2.55071E-04
 -1      4679 5.21203E-02-1.79030E-02-1.94695E-02-3.69221E-03 4.57640E-05-1.19653E-04
 -1      4680 5.36714E-02-1.81160E-02-2.01619E-02-5.18688E-03 1.02550E-04-1.28275E-04
 -1      4681 5.02230E-02-1.50503E-02-1.98523E-02-5.16985E-03-1.55144E-04-3.33380E-05
 -1      4682 5.34987E-02-1.99635E-02-1.88938E-02 2.53605E-03-1.77661E-05-3.27587E-05
 -1      4683-1.23213E-04 4.11053E-04-1.47947E-04-1.20002E-04-2.91855E-05 1.31329E-05
 -1      4684-1.84631E-04 6.80996E-04-1.99421E-04-3.39391E-05 3.25849E-06 5.42884E-07
 -1      4685 4.96389E-02-1.82727E-02-1.76676E-02 5.90734E-03-9.55498E-07 1.98293E-05
 -1      4686 5.57816E-02-2.17518E-02-1.91847E-02 6.03509E-03 7.77224E-05-8.48956E-05
 -1      4687 5.19372E-02-1.96867E-02-1.82512E-02 4.76400E-03-1.87602E-06-3.95701E-05
 -1      4688 5.09547E-02-1.88566E-02-1.84027E-02 6.97157E-03 3.82917E-05-1.78026E-04
 -1      4689 5.81310E-02-2.25289E-02-2.01116E-02 7.36878E-03 1.32614E-04 2.79338E-05
 -1      4690 5.52481E-02-2.14064E-02-1.92273E-02 8.67642E-03 1.27999E-05 4.98831E-05
 -1      4691 4.97920E-02-1.59842E-02-1.89877E-02-2.55941E-03 7.30960E-05-1.04303E-04
 -1      4692 5.07349E-02-1.69097E-02-1.90102E-02-2.41930E-03 2.07521E-05-8.40978E-05
 -1      4693 5.06485E-02-1.68856E-02-1.90124E-02-1.70805E-03 1.68068E-05-4.45317E-05
 -1      4694 4.81731E-02-1.39864E-02-1.95839E-02 7.14813E-04-5.85799E-06 6.38383E-04
 -1      4695 4.62503E-02-1.26181E-02-1.92849E-02 1.81602E-04-1.58719E-04 7.42393E-04
 -1      4696 6.51842E-02-2.50894E-02-2.24781E-02 1.48384E-02-2.01661E-03 1.94499E-04
 -1      4697 6.99463E-02-2.99142E-02-2.26735E-02 7.40284E-03-1.23347E-03-1.25162E-03
 -1      4698 5.93415E-02-2.37187E-02-1.99902E-02 1.20121E-02-8.37887E-05-7.96876E-04
 -1      4699 4.66618E-02-1.09897E-02-2.00791E-02-6.44878E-03 2.09405E-04 1.16429E-04
 -1      4700 4.46322E-02-1.02826E-02-1.95076E-02-2.06565E-03 2.95028E-04-2.90083E-05
 -1      4701 4.63137E-02-1.14097E-02-1.97867E-02-3.44872E-03 3.09139E-04-3.93738E-04
 -1      4702 3.82299E-03-1.52659E-03-1.27766E-03-1.04580E-03-2.43396E-05 5.90000E-06
 -1      4703 3.74675E-03-1.78845E-03-1.03965E-03-3.86453E-04-1.72989E-05 5.25968E-06
 -1      4704 4.47169E-02-1.06208E-02-1.93773E-02 9.23532E-04-1.58960E-04-2.11671E-04
 -1      4705 4.43664E-02-9.62393E-03-1.96306E-02 3.81382E-03-3.14138E-05 1.25331E-04
 -1      4706 4.51113E-02-1.10373E-02-1.95056E-02 1.18928E-03 2.71591E-05 2.49585E-04
 -1      4707 4.44539E-02-1.02036E-02-1.90294E-02 1.59636E-03 2.24599E-04 1.40202E-04
 -1      4708 4.25912E-02-7.55360E-03-1.95905E-02 5.41469E-03-1.01813E-04 7.93853E-05
 -1      4709 4.20388E-02-7.25230E-03-1.93226E-02 4.73749E-03 2.86616E-04 1.90829E-06
 -1      4710 5.12189E-02-1.74049E-02-1.90687E-02 2.02947E-03 1.69109E-05 5.74139E-05
 -1      4711 5.05253E-02-1.65622E-02-1.91710E-02 2.96202E-03 9.63019E-05 1.73148E-04
 -1      4712 5.13454E-02-1.74669E-02-1.91032E-02 2.88880E-03 5.43429E-05 1.16422E-04
 -1      4713 5.09115E-02-1.67802E-02-1.92589E-02 2.58625E-03 7.33905E-06 1.34192E-04
 -1      4714 5.07848E-02-1.69551E-02-1.90589E-02 1.20799E-03-1.56123E-05-5.06285E-05
 -1      4715 5.00358E-02-1.62348E-02-1.90567E-02 3.21715E-04 7.28547E-07-8.92907E-05
 -1      4716 5.24681E-02-1.92239E-02-1.86938E-02-3.36037E-03 4.00852E-05-1.78696E-05
 -1      4717 5.38289E-02-2.03430E-02-1.88513E-02-3.34646E-03 1.55749E-06-2.12184E-05
 -1      4718 5.41001E-02-2.07123E-02-1.88409E-02-4.20064E-03 7.65962E-05-1.73580E-05
 -1      4719 5.27748E-02-1.94290E-02-1.87056E-02-3.55945E-03 2.51732E-05 6.24831E-06
 -1      4720 5.25285E-02-1.94043E-02-1.86113E-02-4.05871E-03 1.09586E-04-1.18782E-05
 -1      4721-1.14165E-04 3.90390E-05 3.82483E-05 5.04920E-05 1.40397E-05-2.24450E-05
 -1      4722-1.01159E-05 2.78117E-05 6.76558E-06 2.37865E-05-3.14219E-07-6.45883E-06
 -1      4723 5.35278E-02-2.00030E-02-1.88588E-02-2.52888E-03 1.84569E-07-9.27987E-07
 -1      4724 5.26624E-02-1.92622E-02-1.87874E-02-2.81254E-03-1.18596E-05-1.26569E-05
 -1      4725 5.25344E-02-1.90012E-02-1.88377E-02-2.50290E-03 3.70566E-06-1.67452E-06
 -1      4726 4.93986E-02-1.54106E-02-1.92291E-02-3.55052E-03 1.43506E-04-2.49129E-04
 -1      4727 5.01295E-02-1.58142E-02-1.94318E-02-3.10613E-03 2.27366E-05-1.83295E-04
 -1      4728 4.87028E-02-1.45307E-02-1.95393E-02-3.22333E-03 1.81944E-04-4.09492E-04
 -1      4729 4.51780E-02-1.15075E-02-1.91483E-02 1.00258E-03 2.99356E-04 4.31424E-04
 -1      4730 4.56672E-02-1.31279E-02-1.83909E-02-8.64420E-04 3.10385E-05 4.53222E-04
 -1      4731 4.58359E-02-1.22261E-02-1.89767E-02 1.34570E-03 2.50968E-04 3.67464E-04
 -1      4732 4.68261E-02-1.22677E-02-1.96807E-02 1.69317E-03 1.12797E-04 4.55791E-04
 -1      4733 4.69516E-02-1.34535E-02-1.89704E-02-6.18009E-05 1.03211E-04 4.60740E-04
 -1      4734 4.67905E-02-1.29146E-02-1.92413E-02-3.46212E-04 5.79472E-05 5.79721E-04
 -1      4735 3.69108E-03-9.67887E-04-1.52195E-03-2.25662E-03 1.42863E-05-7.81610E-05
 -1      4736 3.80093E-03-1.19803E-03-1.44451E-03-1.92856E-03 9.32058E-06 1.62130E-05
 -1      4737 4.69013E-03-2.29354E-03-1.29214E-03-1.99110E-03 5.07630E-05-4.41891E-05
 -1      4738 4.26036E-03-1.64856E-03-1.42410E-03-2.28243E-03 1.62923E-05-4.69799E-05
 -1      4739 5.75740E-06-1.00317E-05 2.12145E-06-1.83615E-06-3.77276E-07-3.40431E-07
 -1      4740 2.00448E-06-6.26721E-06 1.99094E-06-4.35778E-06-1.51912E-07-1.34205E-09
 -1      4741 4.47360E-02-1.40139E-02-1.72765E-02-1.92864E-03 2.31034E-04-8.50924E-04
 -1      4742-8.36198E-03 8.71355E-03-1.03386E-04-1.81043E-03-9.19264E-05 3.53422E-04
 -1      4743-5.06271E-03 5.93417E-03-4.05572E-04-1.90111E-03 2.22177E-05 2.06035E-04
 -1      4744 4.97257E-02-1.57127E-02-1.92547E-02-6.56452E-05 1.63263E-05-1.10571E-05
 -1      4745 5.45224E-02-2.08859E-02-1.89865E-02 4.81538E-03-3.08595E-05-1.37001E-04
 -1      4746 5.61849E-02-2.21649E-02-1.91631E-02 3.76336E-03 5.84802E-06 4.29619E-05
 -1      4747 5.26405E-02-1.93389E-02-1.86918E-02 4.01040E-03 1.12556E-05-5.68898E-05
 -1      4748 5.38944E-02-2.03664E-02-1.88399E-02 3.37977E-03 8.29727E-06-2.72611E-05
 -1      4749 4.71147E-02-1.46978E-02-1.74020E-02-2.08980E-03 3.84615E-04 8.89495E-05
 -1      4750-2.38127E-03 3.70899E-03-6.78390E-04-3.80339E-03-6.78040E-05 2.71664E-05
 -1      4751-2.95925E-03 4.07390E-03-4.57375E-04-2.64261E-03-2.12664E-05 1.47684E-04
 -1      4752-9.21776E-04 2.15712E-03-7.21815E-04-3.39690E-03 6.32239E-05 2.00466E-05
 -1      4753 2.03711E-02-9.16687E-03-5.54799E-03-7.13131E-03 1.13262E-04 4.58159E-04
 -1      4754 2.17365E-02-5.32769E-03-9.13232E-03-8.45063E-03-5.59787E-04 9.42547E-05
 -1      4755 1.28367E-02-1.84618E-03-6.09001E-03-8.46692E-03-4.06037E-04 1.69373E-05
 -1      4756-6.26301E-04 7.91218E-04-8.71767E-05 5.58087E-04 1.36829E-06 2.39657E-07
 -1      4757-5.12517E-04 7.17217E-04-9.08436E-05 3.60610E-04-1.43762E-05 1.46062E-05
 -1      4758-2.61465E-04 5.40218E-04-1.57866E-04 4.96160E-04-5.66899E-06-7.66873E-06
 -1      4759 4.12103E-02-1.15422E-02-1.08195E-02 1.56097E-03 7.20676E-04-4.40426E-04
 -1      4760 4.13206E-02-1.09674E-02-1.11795E-02 7.75720E-04 6.66893E-05-2.16864E-03
 -1      4761 4.88175E-02-1.50643E-02-1.90508E-02 3.64335E-04-3.01849E-05-2.33091E-04
 -1      4762-3.22780E-05 2.71282E-04-1.34863E-04 1.06787E-04-1.40373E-06-8.33064E-06
 -1      4763-1.17654E-04 4.09587E-04-1.49436E-04-1.18135E-04 2.89250E-05-1.07844E-05
 -1      4764 6.88736E-05 5.35764E-05-7.18942E-05 7.91219E-06-1.08334E-05-6.40478E-07
 -1      4765-1.63381E-04 4.71676E-04-1.68886E-04-2.40994E-04 1.46260E-07 6.65782E-07
 -1      4766-1.44187E-04 4.61136E-04-1.74529E-04-2.78814E-04-1.98086E-06 1.24993E-07
 -1      4767-1.37377E-04 4.58641E-04-1.76684E-04-2.89852E-04 9.09187E-07-3.58893E-07
 -1      4768 9.92417E-04 8.29521E-04-1.01637E-03-2.78837E-03-2.90893E-05 6.08412E-06
 -1      4769-4.50551E-04 1.81046E-03-8.11479E-04-3.67715E-03-3.34283E-05-3.04270E-05
 -1      4770 1.82259E-03-3.11189E-04-8.03367E-04-1.42138E-03-1.28388E-04-1.40270E-04
 -1      4771 1.14561E-03 6.24869E-05-6.00632E-04-1.25485E-03-3.97949E-05-4.15272E-05
 -1      4772 5.01662E-02-1.53033E-02-1.98879E-02-5.39825E-04-4.55654E-05 9.43652E-04
 -1      4773 4.89092E-02-1.52995E-02-1.90497E-02-1.51540E-04-9.15150E-06 8.06779E-04
 -1      4774 4.93189E-02-1.51821E-02-1.94682E-02 2.14519E-04 1.69271E-05 7.32671E-04
 -1      4775-6.46981E-04 1.11581E-03-3.10216E-04-8.52524E-04-1.53887E-05 3.24244E-05
 -1      4776-4.49494E-05 4.84930E-04-2.09041E-04-5.32549E-04-4.87986E-05 8.30691E-06
 -1      4777-1.94315E-04 6.05497E-04-2.74605E-04-1.02562E-03 1.97957E-05 2.87723E-05
 -1      4778-5.99572E-05 1.26666E-05 3.40746E-05-6.45714E-05-1.76694E-06-1.32704E-05
 -1      4779-4.66328E-05 1.06611E-05 2.23029E-05-5.92097E-05-4.67287E-06-1.87508E-05
 -1      4780-3.19538E-05 7.00756E-06 2.12490E-05-5.68957E-05-5.33981E-06-1.00272E-05
 -1      4781 7.13037E-05-3.87535E-05-1.61383E-05-5.18669E-05-7.29981E-06 2.31632E-06
 -1      4782-5.43933E-05 2.05998E-05 3.00557E-05-5.92151E-05 1.33536E-06-9.59438E-06
 -1      4783 4.88167E-03-2.29283E-03-1.41914E-03-2.62399E-03-1.24613E-05 7.20757E-05
 -1      4784 3.99735E-03-1.27498E-03-1.56112E-03-2.77537E-03-6.51021E-05 8.12205E-05
 -1      4785 3.43588E-03-4.51772E-04-1.64833E-03-3.28392E-03-6.21305E-05 8.45718E-05
 -1      4786 5.25354E-03-1.86772E-03-1.86528E-03-4.25201E-03-2.82950E-05 3.68072E-05
 -1      4787 4.10145E-03-5.65933E-04-1.91240E-03-4.14637E-03-6.20774E-05 7.37495E-05
 -1      4788 5.59432E-03-2.63835E-03-1.76443E-03-3.86744E-03-4.58894E-05 4.19271E-05
 -1      4789 5.15662E-02-1.58932E-02-1.91118E-02 3.46742E-04 1.85161E-04-3.73126E-04
 -1      4790 4.41030E-02-1.17730E-02-1.30444E-02 1.35233E-04-3.21535E-04 2.22163E-03
 -1      4791 4.36987E-02-1.13060E-02-1.44255E-02 3.92342E-05-2.59713E-04 3.82637E-03
 -1      4792 5.04138E-02-1.54551E-02-1.85523E-02-9.51153E-04-1.94221E-04 1.99874E-05
 -1      4793 4.26694E-02-1.13209E-02-1.14702E-02 1.78829E-04-1.45069E-05 3.25841E-03
 -1      4794 5.13094E-02-1.51765E-02-1.88685E-02-5.54328E-04 1.79537E-04 1.39495E-04
 -1      4795-2.03242E-04 2.78559E-04-4.22025E-05-9.82157E-05 1.23425E-06-1.58720E-05
 -1      4796-2.29766E-04 3.43766E-04-5.18794E-05-2.87515E-05 2.48515E-06-2.49561E-06
 -1      4797-2.41068E-04 4.29675E-04-1.02230E-04 6.87407E-05 9.03634E-07-9.77677E-06
 -1      4798-2.25167E-04 3.89907E-04-8.85247E-05 1.43521E-05 7.89443E-06-6.45067E-06
 -1      4799-1.86275E-04 2.83731E-04-4.14877E-05-6.14946E-05 4.31919E-06-1.46757E-06
 -1      4800 5.27787E-02-1.94042E-02-1.87587E-02 3.20188E-03-6.76526E-05-3.11017E-05
 -1      4801 4.06875E-02-1.10297E-02-1.17122E-02-1.26180E-03-5.32572E-04-2.91296E-03
 -1      4802 4.95439E-02-1.45255E-02-1.83888E-02 2.04079E-03 1.82503E-04 1.20831E-04
 -1      4803 4.37229E-02-1.27489E-02-1.24684E-02-8.59714E-04-4.11743E-04-2.48054E-03
 -1      4804 4.19599E-02-1.15836E-02-1.15414E-02-1.07522E-03-1.95775E-04-8.57598E-04
 -1      4805 5.10393E-02-1.53980E-02-1.93733E-02 1.80591E-03-4.61989E-04 1.05447E-04
 -1      4806 2.81371E-02-1.20224E-02-7.93365E-03 5.02325E-03-3.38850E-04 1.21648E-03
 -1      4807 3.17977E-02-1.13601E-02-8.61601E-03 5.24429E-03 6.27428E-04-8.37081E-04
 -1      4808 2.18297E-02-9.14432E-03-4.46787E-03 7.75780E-03 1.61037E-04-7.00505E-04
 -1      4809 1.85187E-02-8.68755E-03-4.41368E-03 6.87287E-03-5.55892E-04 9.73666E-04
 -1      4810 4.60498E-02-1.23505E-02-1.89999E-02-1.86500E-03 2.52758E-04-3.23791E-04
 -1      4811 4.73877E-02-1.33731E-02-1.92938E-02-3.49218E-03 2.02147E-04-3.39244E-04
 -1      4812 4.52964E-02-1.12721E-02-1.92311E-02-3.88851E-03 5.55262E-04-3.59311E-04
 -1      4813 4.75687E-02-1.24235E-02-1.96498E-02-6.51556E-03 2.95548E-04-4.85706E-04
 -1      4814-4.06554E-05 1.08796E-06 2.63476E-05 4.32646E-05 4.86900E-07-4.85388E-07
 -1      4815-3.63594E-05 2.40029E-06 2.68075E-05 5.09976E-05 3.59240E-06-1.35891E-07
 -1      4816 4.25192E-05-7.68372E-06-2.41331E-05 2.15738E-05-3.73370E-07-3.29594E-06
 -1      4817 2.26174E-06 1.75986E-05-3.42929E-06 2.26734E-05 1.03777E-06-1.18489E-06
 -1      4818 5.20338E-02-1.88070E-02-1.86819E-02-2.71371E-03-1.56561E-05-4.91092E-05
 -1      4819 5.19175E-02-1.86521E-02-1.87420E-02-2.47812E-03 6.97233E-06-1.63563E-05
 -1      4820 5.20207E-02-1.87939E-02-1.86794E-02-2.71966E-03-2.07351E-05-2.47699E-05
 -1      4821-1.78875E-05-6.21054E-06 1.49422E-05-3.86236E-05-2.05040E-07 2.79025E-06
 -1      4822 2.09184E-05-2.66447E-05 3.62281E-06-3.76798E-05 9.16321E-07 6.01787E-07
 -1      4823 3.78749E-05-3.46472E-05-8.57174E-07-5.10773E-05-2.74225E-06 2.59822E-06
 -1      4824 4.30429E-02-9.95768E-03-1.40384E-02-7.55327E-04-3.60928E-04 4.77687E-03
 -1      4825 5.05687E-02-1.48460E-02-1.87351E-02 7.81981E-04 2.61477E-04 3.18234E-04
 -1      4826 4.90117E-02-1.55965E-02-1.83148E-02 2.05689E-03 3.39307E-05 2.49719E-04
 -1      4827 4.25330E-02-1.13364E-02-1.16875E-02 1.62313E-04 1.89720E-04 3.37314E-03
 -1      4828-1.79885E-03 3.01100E-03-6.87721E-04 3.37108E-03 2.97071E-05-4.08825E-05
 -1      4829-1.45277E-04 2.73165E-04-3.28874E-05-1.69296E-04 1.63547E-05-8.74080E-06
 -1      4830-2.45789E-05 5.67595E-05 1.35485E-06 2.74228E-05 5.20809E-06-6.54616E-06
 -1      4831-1.93750E-04 4.69974E-04-1.52283E-04-1.63932E-04 6.83689E-07-2.04733E-06
 -1      4832-1.80141E-04 4.68261E-04-1.60279E-04-2.00897E-04-6.60883E-07 6.04270E-07
 -1      4833 7.65101E-02-2.66574E-02-2.60763E-02-5.29453E-03-1.88623E-03 7.56844E-04
 -1      4834 6.02636E-02-2.08273E-02-2.23551E-02-1.59083E-02-1.40404E-03-2.45044E-04
 -1      4835 1.45067E-02-7.98538E-04-8.42801E-03-7.85804E-03 6.27593E-05-6.28263E-05
 -1      4836 5.53113E-03 3.03594E-03-5.00258E-03-6.89916E-03-3.83250E-05 3.02634E-05
 -1      4837 5.07777E-02-1.69510E-02-1.90748E-02 1.23180E-03 2.27180E-05 5.74222E-05
 -1      4838 5.16063E-02-1.62755E-02-1.91754E-02 9.47174E-04 3.80680E-04-3.26613E-04
 -1      4839 4.14117E-02-1.06526E-02-1.40430E-02-1.69541E-03-1.18903E-03-3.65897E-03
 -1      4840 4.68623E-02-1.39268E-02-1.80135E-02 1.47553E-03 2.76028E-04 5.51812E-05
 -1      4841 4.77034E-02-1.47355E-02-1.84628E-02 2.29408E-03-3.29320E-04-8.58539E-04
 -1      4842 4.85947E-02-1.47711E-02-1.90842E-02 1.75843E-03-7.38229E-05-5.72295E-04
 -1      4843 4.87346E-02-1.53656E-02-1.89112E-02 1.23596E-03-1.45498E-04-1.01535E-03
 -1      4844 4.70407E-02-1.44436E-02-1.85005E-02 1.55709E-03-1.67624E-04-9.19499E-04
 -1      4845 4.82909E-02-1.41226E-02-1.94907E-02 1.12112E-03-3.21547E-07-7.24514E-04
 -1      4846 4.64482E-02-1.35278E-02-1.86987E-02 2.05090E-03-1.98866E-04-5.70189E-04
 -1      4847 4.36798E-02-9.56969E-03-1.91997E-02 3.78939E-03-6.89017E-04-3.21238E-04
 -1      4848 4.24557E-02-7.96822E-03-1.95085E-02 4.59737E-03-9.03183E-04 5.78376E-05
 -1      4849 4.32986E-02-9.72415E-03-1.89169E-02 2.03454E-03-5.14390E-04 4.01823E-05
 -1      4850-2.68384E-03 3.45031E-03-3.66070E-04 9.55526E-05-3.37879E-05-3.79939E-05
 -1      4851-1.06941E-03 1.66668E-03-3.27741E-04-2.09550E-04-3.45115E-05 2.34694E-06
 -1      4852-2.18868E-04 3.35386E-04-5.13820E-05 2.24961E-05-2.23819E-06-1.13726E-05
 -1      4853-2.81358E-04 3.89128E-04-4.88933E-05 3.44727E-05 3.60535E-06 3.56362E-06
 -1      4854-2.28787E-04 3.42688E-04-4.79529E-05 7.15327E-05 3.60358E-06 6.33136E-06
 -1      4855-2.48793E-04 4.29715E-04-1.03720E-04-8.75215E-05-4.10157E-06-8.46573E-07
 -1      4856-1.81547E-04 2.75634E-04-4.60546E-05 4.18867E-05 5.42472E-08-7.14751E-06
 -1      4857 3.91954E-02-6.23607E-03-1.85582E-02-5.82836E-03-1.02566E-03-6.93097E-04
 -1      4858 4.13056E-02-9.23314E-03-1.81822E-02-4.08854E-03-2.77315E-04-5.82236E-04
 -1      4859 4.11899E-02-8.14061E-03-1.86866E-02-4.84836E-03-1.07798E-03-4.86780E-04
 -1      4860-2.30636E-04 4.63210E-04-1.27757E-04-1.36118E-04 1.07527E-06 4.75674E-06
 -1      4861-1.94868E-04 4.67732E-04-1.50215E-04-1.63713E-04-9.64772E-07 1.05708E-06
 -1      4862-1.76907E-04 4.71991E-04-1.64925E-04-1.51325E-04 3.08845E-07-6.78967E-07
 -1      4863-2.15154E-04 4.33168E-04-1.22420E-04-8.17019E-05-7.74003E-07 2.08162E-06
 -1      4864-1.87611E-04 4.46432E-04-1.43056E-04-1.05905E-04 1.71581E-06 4.32935E-07
 -1      4865 5.39442E-03 4.22357E-03-5.89866E-03-1.07945E-02-1.76605E-03 4.73301E-04
 -1      4866 6.64163E-04 6.34657E-05-3.98200E-04 9.62855E-04 5.87633E-06 1.05562E-05
 -1      4867 4.76753E-04 1.49377E-04-3.39559E-04 1.09159E-03-9.53126E-06 1.15795E-05
 -1      4868 6.40767E-04 8.83951E-05-4.06055E-04 8.59986E-04-4.50801E-06-4.93697E-06
 -1      4869 3.23398E-04 2.52043E-04-3.19359E-04 7.75451E-04-8.01495E-06-1.92274E-06
 -1      4870 1.27663E-04 3.57575E-04-2.73830E-04 8.63506E-04-6.82884E-06 7.19605E-06
 -1      4871 1.06763E-04 3.27868E-04-2.45217E-04 9.88878E-04-1.18176E-06-1.48468E-05
 -1      4872 4.74998E-02-1.40260E-02-1.88564E-02 6.62515E-04 7.17815E-05 2.91237E-04
 -1      4873 4.90719E-02-1.54049E-02-1.89931E-02-1.08576E-04 1.07086E-05-1.87920E-04
 -1      4874 5.06271E-02-1.83560E-02-1.81556E-02-3.71620E-03 8.67283E-05-1.60972E-04
 -1      4875 5.16689E-02-1.87307E-02-1.84929E-02-3.32786E-03 8.52092E-05 1.21362E-05
 -1      4876 5.18231E-02-1.89092E-02-1.84838E-02-3.43852E-03 3.46354E-06-2.40717E-05
 -1      4877 5.05591E-02-1.84556E-02-1.80779E-02-3.84941E-03 5.79577E-05-8.21506E-05
 -1      4878-2.01632E-05-1.54254E-06 1.38490E-05-2.41634E-05-5.27352E-07-2.23051E-06
 -1      4879-1.11784E-05-1.35951E-05 1.63887E-05-4.16169E-05 6.28446E-07-2.72950E-06
 -1      4880-1.64124E-04 2.46604E-04-3.97366E-05-7.01361E-05-5.10966E-06 1.27858E-05
 -1      4881-2.44617E-04 4.35048E-04-1.02382E-04 6.26676E-05 1.94412E-06 9.37008E-06
 -1      4882-1.95933E-04 3.13579E-04-4.94176E-05-1.56997E-05-3.52578E-06 1.18231E-05
 -1      4883-1.61778E-04 2.55570E-04-4.12483E-05-4.26124E-05-1.87843E-06 9.16793E-06
 -1      4884-2.18168E-04 3.72729E-04-8.77235E-05 1.11483E-05-3.53194E-06 9.19299E-06
 -1      4885 2.94198E-03-1.22777E-03-9.59338E-04 1.98224E-04-3.73882E-06-7.06751E-06
 -1      4886 2.12761E-03-1.04418E-03-6.06893E-04 1.21033E-03-2.23087E-05 9.76795E-06
 -1      4887 3.08803E-03-1.78260E-03-7.06259E-04 8.75364E-04-3.07620E-05 2.14060E-06
 -1      4888-1.31863E-04 4.71324E-04-1.91795E-04-2.90961E-04-5.28849E-07 9.68032E-07
 -1      4889-2.30765E-04 4.91475E-04-1.42613E-04-2.19363E-04-2.02172E-06-4.12496E-06
 -1      4890 5.04389E-02-1.64833E-02-1.91518E-02-1.52682E-03-1.95374E-05 6.64387E-05
 -1      4891 5.04825E-02-1.66814E-02-1.90704E-02-6.24224E-04-1.52836E-05 7.58932E-05
 -1      4892 5.06990E-02-1.69578E-02-1.89947E-02-1.22450E-03-1.30496E-05 4.03540E-05
 -1      4893 4.09125E-03-5.46255E-04-1.93629E-03-4.20504E-03 1.07473E-04-7.47858E-05
 -1      4894 3.89172E-03-2.14467E-04-2.03463E-03-4.27819E-03 7.21758E-05 3.94190E-05
 -1      4895 3.70600E-03 3.04369E-04-2.13176E-03-4.45491E-03 1.30157E-04-1.45549E-04
 -1      4896 5.02598E-02-1.56919E-02-1.90560E-02 1.19624E-03 6.07007E-05-6.76913E-04
 -1      4897 5.05535E-02-1.54132E-02-1.99420E-02 5.17857E-04 6.32965E-05-2.95929E-04
 -1      4898 4.86395E-02-1.41740E-02-1.97349E-02 1.17577E-04 9.65183E-07 1.73269E-04
 -1      4899 4.95602E-02-1.48552E-02-1.97607E-02-6.91649E-04-4.06021E-05 3.99297E-04
 -1      4900-7.46948E-03 8.11871E-03-2.90443E-04 1.23423E-04 1.31180E-05-2.30362E-04
 -1      4901-8.43252E-03 8.75239E-03-8.82578E-05-1.95437E-03 8.59386E-05-3.84745E-04
 -1      4902-4.38572E-03 5.12538E-03-4.22873E-04-1.06102E-04 2.38695E-06-8.78414E-05
 -1      4903-5.00711E-03 5.80849E-03-3.58586E-04-1.72953E-03 5.16034E-06-2.07562E-04
 -1      4904-6.34822E-03 6.69367E-03 3.32897E-05-3.16399E-05 2.88061E-05-8.65238E-05
 -1      4905 5.05468E-02-1.51771E-02-1.98273E-02 1.16488E-03 1.20696E-05 5.94069E-04
 -1      4906 4.93240E-02-1.82480E-02-1.77300E-02-6.36266E-03-8.05875E-05-2.11907E-04
 -1      4907 5.27259E-02-1.98266E-02-1.85027E-02-9.09127E-03-1.37641E-04 4.00401E-05
 -1      4908 4.48780E-02-1.62199E-02-1.61631E-02-6.32690E-03-5.98774E-05-1.75501E-04
 -1      4909 4.72799E-02-1.66116E-02-1.74639E-02-8.48580E-03-4.19313E-05-1.44570E-04
 -1      4910 5.09216E-02-1.78684E-02-1.88518E-02-1.17175E-02-3.20668E-04-9.37089E-05
 -1      4911 5.67300E-02-2.10521E-02-2.04771E-02-1.15311E-02 1.66240E-04-7.90352E-05
 -1      4912-2.71168E-03 3.44917E-03-3.88501E-04 2.14318E-05-1.85284E-05 3.11559E-05
 -1      4913-1.05262E-03 1.63117E-03-3.23923E-04-2.14178E-04 2.29065E-05-1.45207E-05
 -1      4914 4.98041E-02-1.55788E-02-1.93590E-02 2.67439E-03 1.41137E-04 2.49991E-04
 -1      4915 4.74168E-02-1.31654E-02-1.94659E-02 2.48289E-03 2.02494E-04 3.86163E-04
 -1      4916 4.82707E-02-1.44856E-02-1.90671E-02 1.85785E-03 6.20902E-05 1.98096E-04
 -1      4917 4.69745E-02-1.27792E-02-1.93376E-02 3.02059E-03 2.70006E-04 2.60527E-04
 -1      4918 4.88857E-02-1.41581E-02-1.96452E-02 4.49422E-03 3.45038E-04 4.78318E-04
 -1      4919 4.94878E-02-1.54902E-02-1.91757E-02 3.11200E-03 1.35407E-04 2.40430E-04
 -1      4920 3.78881E-02-1.06673E-02-1.46590E-02-1.31613E-03 2.21692E-04-1.11910E-04
 -1      4921 3.85699E-02-1.40220E-02-9.94539E-03-2.30166E-03-1.66692E-04-2.31627E-03
 -1      4922 3.11182E-02-1.02101E-02-7.97030E-03-5.75737E-03-6.05334E-05-1.40015E-03
 -1      4923 3.97807E-02-1.43022E-02-1.03358E-02-2.01490E-03-1.87108E-04-8.73016E-04
 -1      4924 5.12991E-02-1.74927E-02-1.90488E-02 3.46287E-03-3.34288E-05-2.25476E-04
 -1      4925 5.05417E-02-1.60899E-02-1.94962E-02 3.88034E-03-2.63154E-07-1.93997E-04
 -1      4926 5.08982E-02-1.71053E-02-1.90315E-02 2.70002E-03-3.69808E-05-1.22636E-04
 -1      4927 5.10516E-02-1.72149E-02-1.90714E-02 6.00803E-04-1.20517E-05-3.05329E-05
 -1      4928 5.10941E-02-1.73545E-02-1.89945E-02 2.64730E-04-2.35568E-06-1.49588E-05
 -1      4929 5.03362E-02-1.64920E-02-1.90985E-02-2.80676E-04 1.08318E-06-1.07179E-04
 -1      4930 5.11760E-02-1.86226E-02-1.83105E-02 4.03596E-03-7.46485E-05-7.20185E-05
 -1      4931 5.12412E-02-1.90047E-02-1.83652E-02 5.29303E-03-1.30016E-04-7.36678E-05
 -1      4932 5.31551E-02-2.00717E-02-1.85935E-02 4.13812E-03 6.05711E-05-8.04469E-05
 -1      4933 7.82121E-04-5.99053E-06-4.30437E-04 9.93142E-04 9.33701E-07 1.25792E-06
 -1      4934 4.21947E-04 1.94126E-04-3.40157E-04 8.07420E-04-1.39613E-07-1.83887E-06
 -1      4935 3.74874E-02-1.37488E-02-1.11574E-02-4.26753E-03 9.51644E-04 3.26694E-03
 -1      4936 4.52536E-02-1.43314E-02-1.69110E-02 1.48636E-03-8.48481E-04 5.02027E-04
 -1      4937 3.95139E-02-1.42042E-02-1.05192E-02 1.87101E-03 2.22946E-04-2.12294E-03
 -1      4938 5.45254E-02-2.07353E-02-1.89836E-02-2.53675E-03-2.13206E-05 3.57542E-05
 -1      4939 5.59854E-02-2.20087E-02-1.91518E-02-2.85027E-03-3.57970E-05-1.78125E-05
 -1      4940 5.46061E-02-2.12041E-02-1.89091E-02-3.24273E-03-3.26711E-05-9.19483E-07
 -1      4941-1.82161E-04 4.65681E-04-1.57177E-04 1.72890E-04 3.45446E-08 1.20466E-07
 -1      4942 1.12800E-03-1.91092E-04-5.24959E-04 8.72713E-04 8.35694E-06-3.48467E-06
 -1      4943 8.78385E-04-5.16599E-05-4.61333E-04 8.75825E-04 6.73732E-06-6.77737E-06
 -1      4944 9.09462E-04-9.34778E-05-4.46744E-04 9.83585E-04-2.24303E-06 4.68866E-06
 -1      4945 7.11384E-04-1.01471E-06-3.96654E-04 1.09701E-03-7.22555E-06 1.56882E-05
 -1      4946 1.12704E-03-1.90617E-04-5.24717E-04 8.71712E-04-7.80297E-06 5.22684E-06
 -1      4947 8.78724E-04-5.15831E-05-4.61942E-04 8.75641E-04-5.73459E-06 7.75312E-06
 -1      4948 7.10321E-04-1.59842E-06-3.93685E-04 1.09388E-03 8.78967E-06-1.56047E-05
 -1      4949 4.77884E-04 1.46900E-04-3.38744E-04 1.09135E-03 1.29887E-05-1.11658E-05
 -1      4950 9.08150E-04-9.42117E-05-4.43924E-04 9.81955E-04 2.83322E-06-4.05330E-06
 -1      4951-3.35010E-03 4.12720E-03-4.03182E-04-1.42340E-03-3.61214E-05-9.28134E-05
 -1      4952 5.88276E-03-4.67908E-03-5.11274E-04-1.46572E-03 8.57084E-05-1.32236E-04
 -1      4953 5.89420E-03-4.76804E-03-4.54423E-04-1.53453E-03-7.25007E-06 2.77190E-05
 -1      4954 7.70825E-03-5.44252E-03-9.60677E-04 5.62798E-04-2.50784E-04 6.61636E-05
 -1      4955 5.55989E-03-3.40070E-03-1.31625E-03 2.54162E-03-1.77197E-05 1.99577E-05
 -1      4956 7.70299E-03-5.74964E-03-7.54034E-04 4.59613E-04 4.20423E-05-1.28414E-04
 -1      4957-8.26453E-03 8.44847E-03-2.12079E-04 3.75955E-03-5.94601E-05 2.64495E-04
 -1      4958-5.33466E-03 5.90102E-03-1.79835E-04 4.20926E-03-6.56139E-05-1.53178E-04
 -1      4959 5.32819E-02-2.01371E-02-1.86019E-02 1.04749E-02 2.42338E-04 8.45270E-05
 -1      4960 5.84389E-02-2.39331E-02-1.94029E-02 4.17150E-03-1.70724E-05 2.04022E-04
 -1      4961 5.86623E-02-2.36539E-02-1.97194E-02 7.75434E-03 2.64547E-04 2.42737E-04
 -1      4962 4.69268E-05-3.71763E-05-3.48685E-06 5.07399E-05 2.55456E-06 1.28828E-06
 -1      4963-5.63776E-05 6.29805E-06 2.91855E-05 7.20699E-05 5.96994E-06-1.27005E-05
 -1      4964 6.69936E-05-1.13307E-05-2.84530E-05 2.66736E-05-3.12700E-06-4.54033E-06
 -1      4965 1.53341E-07-1.30273E-07 4.98852E-08-1.29158E-07 4.56532E-08 1.65379E-07
 -1      4966 6.02662E-08-1.26455E-07 5.12544E-08-1.25953E-07-1.00253E-07 1.47274E-07
 -1      4967-5.00651E-07-3.28663E-07 5.67203E-07 2.09647E-07-2.11644E-07 1.95915E-07
 -1      4968 4.76407E-02-1.43070E-02-1.89650E-02-1.04166E-03 2.36363E-05 6.53680E-04
 -1      4969 4.76805E-02-1.39961E-02-1.92030E-02-1.42055E-03-1.66811E-05 7.66851E-04
 -1      4970 4.75388E-02-1.40711E-02-1.88901E-02 3.72142E-04-4.62064E-05-2.91904E-04
 -1      4971-3.39187E-04 6.01240E-04-1.39415E-04 1.35764E-03 9.04587E-06-8.61952E-06
 -1      4972 6.03935E-06 3.52642E-04-1.53391E-04 1.90492E-03-2.79650E-05 2.02055E-06
 -1      4973-3.03207E-04 6.08616E-04-1.45269E-04 1.43764E-03-2.54047E-05 1.48848E-05
 -1      4974-2.58517E-04 4.83706E-04-1.21695E-04-1.39961E-04 1.14981E-06-7.21366E-06
 -1      4975-2.14367E-04 4.73901E-04-1.42863E-04-1.88960E-04 1.17878E-07 3.18669E-06
 -1      4976-2.52612E-04 4.79682E-04-1.22596E-04-1.43165E-04 3.90769E-06 4.60654E-06
 -1      4977 5.26377E-02-1.96589E-02-1.85115E-02-5.62408E-03 1.38542E-05 1.38695E-06
 -1      4978 3.49039E-02-1.05057E-02-1.39972E-02-5.85818E-03-6.72867E-04 8.47494E-07
 -1      4979 1.58931E-05 5.82800E-05-5.57687E-05-1.75891E-04 1.12037E-05-1.84278E-05
 -1      4980-4.67929E-05 4.73553E-04-2.15526E-04-5.32532E-04 5.44174E-05-1.44531E-05
 -1      4981-1.75906E-04 4.70808E-04-1.64980E-04-1.52022E-04-1.34864E-06 5.84641E-07
 -1      4982-1.86924E-04 4.46600E-04-1.42716E-04-1.06477E-04-8.04300E-07-7.55441E-07
 -1      4983-2.18553E-04 4.33856E-04-1.20475E-04-8.25120E-05 1.31558E-06-3.04045E-06
 -1      4984-1.92155E-04 4.35736E-04-1.32518E-04 3.20600E-05 2.22680E-07-2.59755E-07
 -1      4985 4.39194E-03-2.46214E-03-1.05076E-03 7.94991E-04 3.03999E-05-1.31534E-06
 -1      4986 4.08382E-03-1.85461E-03-1.20643E-03 1.02434E-03 2.41101E-05 1.62809E-05
 -1      4987 3.80409E-03-1.55102E-03-1.25643E-03 9.57868E-04 5.86699E-06-2.57373E-05
 -1      4988 3.53695E-03-2.00369E-03-8.60738E-04-2.87662E-04 4.07427E-05 2.93865E-06
 -1      4989 3.31908E-03-1.56191E-03-9.83358E-04 2.00575E-05 2.05464E-05-1.14024E-05
 -1      4990 3.84296E-03-2.61140E-03-7.60324E-04-3.18294E-04 8.40999E-06 1.54965E-05
 -1      4991 4.09010E-03-1.85950E-03-1.20922E-03 1.02775E-03-2.86778E-05-2.15340E-05
 -1      4992 4.41258E-03-2.47416E-03-1.06309E-03 7.99461E-04-3.52122E-05 1.56838E-06
 -1      4993 3.81815E-03-1.55957E-03-1.25868E-03 9.63991E-04-7.17364E-06 2.48475E-05
 -1      4994 3.32212E-03-1.56855E-03-9.79977E-04 1.67784E-05-1.56394E-05 1.06984E-05
 -1      4995 3.54474E-03-2.01526E-03-8.52144E-04-2.81231E-04-4.81728E-05-4.86849E-06
 -1      4996 4.15244E-03-1.72306E-03-1.30325E-03 1.63002E-03-4.75566E-06 3.88115E-05
 -1      4997 4.06350E-03-1.68332E-03-1.32044E-03 1.75009E-03-1.25013E-05 2.58226E-06
 -1      4998 3.93885E-03-1.45485E-03-1.35763E-03 2.20293E-03 6.31739E-05 2.89274E-05
 -1      4999 4.93465E-02-1.13165E-02-2.03935E-02-1.00291E-02-5.75157E-05 4.74862E-04
 -1      5000 5.11947E-02-1.17697E-02-1.94770E-02-1.47197E-02 1.84406E-04-7.69706E-04
 -1      5001 4.86502E-02-1.13578E-02-2.03160E-02-8.90914E-03-5.79101E-04 4.46847E-04
 -1      5002 4.16077E-02-8.44223E-03-1.89559E-02-3.00058E-03-4.82328E-04 1.14014E-04
 -1      5003 4.35586E-02-1.00799E-02-1.89891E-02-2.83526E-03-5.88155E-04 4.55604E-04
 -1      5004-8.97495E-05 4.57891E-04-2.06359E-04-3.53040E-04 5.18203E-09 8.31743E-07
 -1      5005-1.31408E-04 4.81265E-04-1.91186E-04-3.76763E-04 1.16062E-06-6.39606E-07
 -1      5006-3.07578E-04 5.13101E-04-1.19894E-04-2.36028E-04-5.80146E-06 3.06026E-06
 -1      5007-2.37369E-04 5.24330E-04-1.56932E-04-3.16064E-04-1.80426E-06-7.82854E-07
 -1      5008-1.46300E-06-2.30750E-06 2.26295E-06 6.11166E-06-7.63110E-07 3.27842E-07
 -1      5009-5.82996E-07-2.65250E-06 1.64825E-06 1.90014E-06-4.42148E-07-2.70976E-07
 -1      5010 3.03668E-06-6.26721E-06 1.89074E-06 4.85446E-06-3.37458E-07-3.55821E-08
 -1      5011 4.76762E-06-9.77300E-06 2.50893E-06 1.11760E-05-6.77613E-07 2.48920E-07
 -1      5012 5.01559E-06-8.87629E-06 2.07511E-06 5.66992E-06-4.65681E-07-1.27387E-07
 -1      5013-1.85432E-07-4.36271E-06 2.43966E-06 7.72831E-06-1.61339E-07 8.77272E-08
 -1      5014 4.84409E-02-1.39517E-02-1.94664E-02 5.01135E-03-3.47676E-04-4.03331E-04
 -1      5015 4.60401E-02-1.12563E-02-1.94911E-02 5.29700E-03-3.63262E-04-4.74596E-04
 -1      5016 4.47572E-02-1.10454E-02-1.90614E-02 2.52431E-03-3.11485E-04-2.46319E-04
 -1      5017 4.63764E-02-1.13241E-02-1.97703E-02 4.29598E-03-4.79336E-04-3.32926E-04
 -1      5018 4.33737E-03-1.33589E-03-1.56806E-03 3.31313E-03-5.10675E-06 1.19632E-05
 -1      5019 4.30108E-03-9.34827E-04-1.77716E-03 3.76941E-03 2.62208E-05 6.30404E-05
 -1      5020 6.08981E-05-4.40026E-05-8.65732E-06-1.24497E-05-3.00812E-06 1.20672E-06
 -1      5021 4.25666E-05-3.99184E-05-1.50092E-06-1.12944E-05-5.88051E-07 7.59939E-07
 -1      5022 5.45430E-05-4.66173E-05-3.99363E-06 1.82145E-05 1.48009E-06 1.50402E-06
 -1      5023 4.89531E-05-3.54766E-05-4.83227E-06 9.33581E-06-2.39415E-07 5.07593E-08
 -1      5024 3.50129E-03 1.62051E-04-2.08247E-03-4.27964E-03-4.87723E-05 1.37622E-04
 -1      5025-5.35640E-04 7.97503E-04-1.45205E-04 1.69870E-03-5.83600E-05 4.57705E-05
 -1      5026-2.05207E-04 4.66478E-04-1.23270E-04 2.26747E-03-3.89485E-05 3.57413E-05
 -1      5027 3.96904E-04 1.70431E-04-3.01497E-04 1.46198E-03-2.79179E-05 5.40639E-06
 -1      5028 1.38260E-03-8.55212E-04-2.16566E-04 2.62858E-03 4.59285E-05-3.90528E-07
 -1      5029 1.73992E-03-1.20986E-03-1.99230E-04 2.79069E-03-7.08727E-05-2.50311E-05
 -1      5030 3.01992E-03-2.47335E-03-2.77842E-04 2.49112E-03-4.46147E-05-3.70287E-05
 -1      5031 2.60810E-03-2.03326E-03-2.67214E-04 2.45699E-03 6.01662E-05 2.71315E-05
 -1      5032-1.55083E-04 4.63997E-04-1.72144E-04 2.00090E-04 2.11001E-07-8.61839E-07
 -1      5033-1.33406E-04 4.66749E-04-1.86803E-04 2.47906E-04 5.37492E-07-1.89079E-06
 -1      5034-1.73390E-04 4.65629E-04-1.59495E-04 2.02848E-04-8.86704E-07-6.15640E-07
 -1      5035-1.33297E-04 4.66475E-04-1.86719E-04 2.48047E-04-4.31410E-07 1.85067E-06
 -1      5036-1.55323E-04 4.64102E-04-1.72065E-04 2.00133E-04-1.92998E-07 7.19368E-07
 -1      5037-1.73361E-04 4.65414E-04-1.59356E-04 2.02937E-04 8.27949E-07 8.42418E-07
 -1      5038 2.13282E-03-8.76883E-04-6.84848E-04 8.76828E-04-1.95602E-06 6.04664E-07
 -1      5039-1.73368E-04 4.69305E-04-1.62606E-04-2.22270E-04-1.72456E-07-1.68136E-06
 -1      5040-2.78903E-05-2.92279E-06 1.82476E-05-4.17036E-05-2.16445E-07-7.27022E-06
 -1      5041 1.76033E-05-2.30330E-05 3.30268E-06-3.56287E-05-1.69399E-06-1.97860E-06
 -1      5042 4.10834E-05-3.65305E-05-2.55413E-06-4.67547E-05 1.51780E-06-2.18771E-06
 -1      5043 5.04178E-02-1.64059E-02-1.92189E-02-2.01263E-03 4.27195E-05-9.71760E-05
 -1      5044 4.52750E-02-1.20070E-02-1.87967E-02-7.61166E-04 2.37719E-04-2.80682E-04
 -1      5045 4.40551E-02-1.04291E-02-1.90128E-02-2.38999E-03 4.27363E-04-3.00119E-04
 -1      5046 3.93279E-03-1.43488E-03-1.37058E-03 2.20465E-03-8.05663E-05-2.45968E-05
 -1      5047 4.29576E-03-9.21459E-04-1.76983E-03 3.75538E-03-2.38128E-05-3.64610E-05
 -1      5048 5.18806E-02-1.88736E-02-1.85647E-02-2.85855E-03 2.84328E-05-1.72659E-05
 -1      5049 4.18310E-02-1.23367E-02-1.66516E-02-2.36392E-05-1.97787E-04-1.72421E-04
 -1      5050 4.27186E-02-1.34423E-02-1.65235E-02 5.29649E-04-2.72273E-04-5.13761E-04
 -1      5051 4.41935E-02-1.28191E-02-1.77095E-02 1.23459E-03-5.00594E-05-4.72096E-04
 -1      5052 4.52366E-02-1.39753E-02-1.76436E-02 1.96190E-03-1.84692E-04-7.02883E-04
 -1      5053 4.39696E-02-1.21898E-02-1.80189E-02 4.43762E-04-1.25079E-04-4.41599E-04
 -1      5054 4.15362E-03-1.71400E-03-1.31258E-03 1.64109E-03-6.53241E-06-3.76902E-05
 -1      5055 5.12749E-02-1.75151E-02-1.90313E-02-8.61222E-04-5.82830E-06 7.05262E-06
 -1      5056 5.18391E-02-1.81833E-02-1.89637E-02-1.36821E-03 2.30995E-06 2.53924E-06
 -1      5057 5.16622E-02-1.79084E-02-1.90039E-02-2.88656E-05 1.72306E-06-3.93307E-06
 -1      5058-1.29427E-06-2.37357E-06 2.25690E-06 5.96486E-06 7.34344E-07-1.23579E-07
 -1      5059 3.30188E-06-7.10890E-06 2.07704E-06 4.29037E-06 5.49703E-08 6.62695E-08
 -1      5060-3.08859E-07-3.44691E-06 1.85770E-06 2.08871E-06 1.02590E-07 5.79348E-07
 -1      5061-3.97743E-08-4.33133E-06 2.50616E-06 7.72661E-06-2.06014E-07 1.90492E-07
 -1      5062 5.13560E-06-1.01457E-05 2.77439E-06 1.04876E-05 1.66903E-07-7.11254E-08
 -1      5063 5.16858E-02-1.66921E-02-2.01136E-02-5.09656E-03-4.01421E-04 6.31328E-04
 -1      5064 4.89385E-02-1.53146E-02-1.81902E-02-2.09789E-03-6.70950E-05-2.41804E-04
 -1      5065 4.66246E-02-1.44279E-02-1.81704E-02-1.97370E-03 1.16510E-04-8.63850E-04
 -1      5066-4.08132E-04 7.06098E-04-1.40506E-04 1.03875E-03-2.69958E-05 5.46018E-06
 -1      5067 5.19851E-02-1.77815E-02-1.93765E-02-3.42774E-03-3.42472E-05 2.34188E-04
 -1      5068 5.07884E-02-1.65551E-02-1.93921E-02-3.80178E-03-2.85977E-05 1.48160E-05
 -1      5069 2.68785E-02-5.85873E-03-1.13607E-02 9.44365E-03-1.56518E-04 2.27945E-04
 -1      5070 7.30949E-03 3.13280E-03-7.30677E-03 9.95587E-03 2.09789E-04-5.55621E-04
 -1      5071 1.24425E-02-7.71662E-04-6.85754E-03 9.89473E-03-6.44838E-04-1.41213E-04
 -1      5072 4.89702E-02-1.46662E-02-1.94959E-02 6.45907E-04 4.92480E-05 1.98819E-04
 -1      5073 1.25196E-03-2.88440E-04-5.44744E-04 9.37809E-04 4.78228E-06 1.95755E-06
 -1      5074 1.25485E-03-2.90531E-04-5.45431E-04 9.38164E-04-4.43805E-06-1.26478E-06
 -1      5075 8.97537E-04-5.98692E-05-4.69932E-04-8.82524E-04 3.14722E-06-1.37063E-06
 -1      5076 3.93062E-04 2.05751E-04-3.25286E-04-1.05837E-03-1.39466E-06 5.77890E-06
 -1      5077 8.97261E-04-5.93266E-05-4.69984E-04-8.82272E-04-2.83904E-06 1.95589E-06
 -1      5078 3.94707E-04 2.05071E-04-3.25297E-04-1.05553E-03 1.37904E-06-7.06623E-06
 -1      5079 1.49758E-02-9.09287E-03-2.21450E-03-5.40725E-03 2.27069E-04 3.89867E-04
 -1      5080 1.55315E-02-9.32532E-03-2.33483E-03-5.70090E-03-3.78238E-04-6.75461E-04
 -1      5081 7.45151E-03-4.27069E-04-4.16288E-03-6.93449E-03 1.24066E-04 3.51269E-05
 -1      5082 5.02468E-03-3.01031E-03-1.09789E-03 1.08078E-03-9.64410E-05-8.38326E-06
 -1      5083 4.71650E-03-2.41575E-03-1.30143E-03 2.07946E-03-1.75414E-05-1.83845E-07
 -1      5084 4.47528E-03-2.22196E-03-1.21661E-03 1.51916E-03-3.97795E-05-1.35377E-05
 -1      5085 4.95669E-03-2.97232E-03-1.07790E-03 1.06441E-03 7.25142E-05-2.30037E-06
 -1      5086 4.46107E-03-2.23318E-03-1.20506E-03 1.49757E-03 3.40802E-05 2.05395E-05
 -1      5087 4.71618E-03-2.41029E-03-1.29194E-03 2.05579E-03 1.59493E-05 1.21623E-05
 -1      5088-1.26371E-04 4.62265E-04-1.88900E-04-2.56136E-04-8.89975E-07-1.58149E-06
 -1      5089-1.31794E-04 4.71056E-04-1.90313E-04-2.90220E-04 3.13273E-07 2.01283E-07
 -1      5090-2.28317E-04 4.92198E-04-1.45011E-04-2.18306E-04 9.98542E-07 2.55808E-06
 -1      5091 5.03312E-02-1.65349E-02-1.90421E-02 4.83410E-04 1.08373E-05 6.24715E-05
 -1      5092 3.63869E-03-5.96660E-04-1.65288E-03 3.33616E-03 1.46066E-05 5.51552E-05
 -1      5093 5.28127E-03-2.11264E-03-1.71372E-03 3.91474E-03 3.60800E-05-1.77552E-05
 -1      5094 7.02157E-04 1.12086E-03-9.55025E-04-2.79052E-03-5.14599E-05 1.13770E-05
 -1      5095 1.03956E-03 2.30260E-04-6.23213E-04-1.14621E-03-1.14737E-05-1.97822E-05
 -1      5096 6.82486E-02-2.77481E-02-2.24584E-02-5.40606E-03-8.73426E-04 8.50554E-04
 -1      5097 5.95018E-02-2.26876E-02-2.09317E-02-1.46307E-02-4.08627E-04 8.34442E-04
 -1      5098 1.66609E-03-8.13096E-04-4.43340E-04 1.81365E-03-5.10190E-05 9.31304E-06
 -1      5099 1.65576E-03-1.27252E-03-1.54978E-04 3.32042E-03-8.96452E-05 2.84455E-05
 -1      5100 2.64631E-03-1.73851E-03-5.16243E-04 1.62903E-03-5.49835E-05-2.86306E-06
 -1      5101 3.62938E-03-5.82352E-04-1.66105E-03 3.32511E-03 9.17633E-07-5.54037E-05
 -1      5102 5.26315E-03-2.05748E-03-1.69816E-03 3.85219E-03-1.86558E-05 2.16876E-06
 -1      5103 4.54831E-02-1.03478E-02-1.98883E-02 6.47122E-03-6.39750E-04-9.11667E-04
 -1      5104-3.89967E-04 6.27255E-04-1.32331E-04 3.29526E-04-1.05640E-05 1.25596E-05
 -1      5105-6.47145E-04 7.67124E-04-6.53193E-05 1.27743E-04-1.77075E-05 1.76615E-05
 -1      5106-3.17815E-04 6.34634E-04-1.67027E-04 5.63301E-04-5.74103E-06 1.86482E-05
 -1      5107 5.02518E-02-1.85090E-02-1.78262E-02-5.26576E-03-4.87657E-05-1.07208E-04
 -1      5108 1.35892E-03-7.03132E-04-2.50436E-04-2.14991E-03-7.35995E-05-2.21812E-06
 -1      5109 1.58895E-03-9.27102E-04-2.82165E-04-2.24628E-03 4.25064E-05-2.83014E-06
 -1      5110 4.21104E-04 7.19391E-06-1.84578E-04-2.16716E-03-2.10823E-05-4.18087E-06
 -1      5111 5.87947E-04-1.40741E-04-1.82438E-04-2.30954E-03 4.54952E-05-5.16186E-06
 -1      5112 2.00711E-03-1.17233E-03-4.96399E-04-1.40954E-03-4.30134E-06 9.54621E-06
 -1      5113 4.97184E-04 1.32826E-04-3.36837E-04 1.22075E-03 1.17800E-05-8.92255E-06
 -1      5114 4.95007E-04 1.35796E-04-3.39356E-04 1.22630E-03-9.71977E-06 1.12542E-05
 -1      5115 4.17539E-03-1.86307E-03-1.26296E-03 1.27817E-03-4.55405E-06-2.84440E-06
 -1      5116 3.42980E-03-1.62096E-03-1.01042E-03 2.28562E-04 3.43655E-06-1.12191E-06
 -1      5117 5.18467E-02-1.87863E-02-1.85025E-02 3.15699E-03-1.14773E-05 7.19227E-05
 -1      5118 4.43231E-02-1.07800E-02-1.89601E-02-1.28359E-03-4.57964E-05 1.59093E-06
 -1      5119 4.30087E-02-6.59071E-03-1.94404E-02-5.32545E-03 1.46531E-04-8.45057E-05
 -1      5120 4.48390E-02-8.52819E-03-1.95508E-02-5.94393E-03 3.62126E-04-1.88892E-04
 -1      5121 3.77959E-02-1.33128E-02-1.13065E-02 4.25546E-03-7.12875E-04 3.65997E-03
 -1      5122 4.94865E-02-1.52902E-02-1.94208E-02 1.50194E-04 1.85942E-06 1.11959E-04
 -1      5123 4.89335E-02-1.47363E-02-1.94182E-02 1.21679E-03 4.17329E-05 1.26135E-05
 -1      5124 4.94364E-02-1.54414E-02-1.93001E-02 6.14457E-04-9.83796E-06-3.18935E-05
 -1      5125 5.11647E-02-1.72293E-02-1.91634E-02 2.34595E-03-1.15092E-05-5.02776E-05
 -1      5126 5.13171E-02-1.74915E-02-1.90175E-02 2.04183E-03-3.99099E-06-2.73184E-05
 -1      5127 5.18719E-02-1.81442E-02-1.90328E-02 2.36952E-03 7.18266E-06-7.92006E-05
 -1      5128 5.15159E-02-1.76766E-02-1.90627E-02 1.67459E-03 1.03938E-05-4.44081E-05
 -1      5129 4.55807E-02-1.26537E-02-1.86225E-02-4.55326E-04-1.44002E-04-4.54979E-04
 -1      5130 4.63958E-02-1.35906E-02-1.85346E-02-1.10352E-03 1.45861E-05-5.75723E-04
 -1      5131 4.51689E-02-1.34120E-02-1.79668E-02-1.86637E-03-1.18492E-05-5.49558E-04
 -1      5132 4.68368E-02-1.32996E-02-1.90662E-02-1.13113E-03 3.50337E-05-6.62470E-04
 -1      5133 4.42505E-02-1.23691E-02-1.80547E-02-9.52100E-04-1.18108E-04-4.89693E-04
 -1      5134 5.97882E-04-2.36353E-04-1.88991E-04 2.15371E-03-3.04527E-05-1.11086E-05
 -1      5135 9.30209E-04-2.88141E-04-3.60951E-04 1.68239E-03-3.35993E-05 9.84015E-06
 -1      5136 4.90844E-02-1.53898E-02-1.89786E-02 3.30930E-04 9.07669E-07 1.67720E-04
 -1      5137 4.61173E-02-1.19526E-02-1.95179E-02 8.14646E-04-1.72823E-04-4.68673E-04
 -1      5138 4.38408E-02-1.08609E-02-1.86630E-02 1.10847E-03-3.05022E-04-2.11927E-04
 -1      5139 4.46138E-02-1.13644E-02-1.89098E-02 1.40313E-04-2.90862E-04-5.14496E-04
 -1      5140 9.91399E-03-7.37387E-03-1.01554E-03 1.62105E-03 1.23999E-05-1.96209E-04
 -1      5141 2.45774E-03-1.38778E-03-6.02449E-04 1.20156E-03 1.95886E-05-1.48370E-05
 -1      5142 1.68138E-03-8.25841E-04-4.41369E-04 1.84741E-03 5.08866E-05-1.20035E-05
 -1      5143 3.55434E-03-2.15089E-03-7.56257E-04 7.52631E-04 4.58663E-05-1.52038E-05
 -1      5144 2.64679E-03-1.80439E-03-4.93671E-04 1.67451E-03 6.21618E-05-2.47923E-05
 -1      5145 2.11283E-05-2.32322E-05 1.73289E-06 3.19814E-06-7.39677E-07 7.95822E-07
 -1      5146 2.56692E-05-2.79468E-05 1.75166E-06-1.59303E-05-1.08341E-07 8.52184E-07
 -1      5147-1.89883E-04 4.52497E-04-1.46403E-04 4.86446E-05 6.33431E-07 8.07739E-07
 -1      5148 4.67623E-02-1.25567E-02-1.94491E-02-5.54568E-04-9.32672E-06-3.10050E-04
 -1      5149 4.63592E-02-1.19993E-02-1.96031E-02 1.38330E-03-9.22899E-06-2.84187E-05
 -1      5150 4.66273E-02-1.24125E-02-1.94574E-02-1.69030E-04 2.35071E-05 1.62754E-04
 -1      5151 4.78016E-02-1.34802E-02-1.96190E-02-1.70140E-04-6.92759E-06-9.87730E-05
 -1      5152 4.89137E-02-1.54820E-02-1.88373E-02-1.55301E-03 1.24309E-04-8.59466E-04
 -1      5153 4.79843E-02-1.42233E-02-1.91463E-02-1.57256E-03 8.72867E-05-7.31085E-04
 -1      5154 4.99992E-02-1.50468E-02-1.93708E-02-1.69843E-03-3.18611E-05-4.12819E-04
 -1      5155 5.31898E-02-1.95021E-02-1.89760E-02 1.83009E-03 3.98795E-06-1.10983E-05
 -1      5156 5.29962E-02-1.93022E-02-1.89520E-02 1.40409E-03 1.08544E-05-8.17396E-06
 -1      5157 5.26638E-02-1.90827E-02-1.88615E-02 2.26981E-03 8.43953E-07-2.92043E-06
 -1      5158-4.37043E-04 7.31869E-04-1.25889E-04-1.37660E-03 1.58380E-05 2.60183E-06
 -1      5159-4.07155E-04 7.18132E-04-1.35641E-04-1.37858E-03-3.42256E-05-8.97535E-06
 -1      5160 8.38441E-05 3.62755E-04-1.84680E-04-1.61331E-03 2.41150E-05-1.01470E-06
 -1      5161 7.94567E-05 3.44250E-04-1.69116E-04-1.63980E-03-4.57271E-05-1.90137E-05
 -1      5162 6.99012E-04-1.27730E-04-3.41630E-04-1.36037E-03-3.26964E-06-2.26079E-06
 -1      5163 5.37829E-02-2.03755E-02-1.87952E-02-3.31416E-03-4.68294E-05 8.35278E-06
 -1      5164 5.28139E-02-1.94902E-02-1.87202E-02-3.45394E-03-2.12865E-05 2.32195E-05
 -1      5165-4.54599E-04 8.58735E-04-2.33112E-04-2.45880E-04-1.87854E-05 1.32378E-05
 -1      5166-3.36247E-04 7.71557E-04-2.26259E-04 1.87891E-04 8.08275E-06-3.54954E-06
 -1      5167-4.52663E-04 8.57654E-04-2.26068E-04-2.45578E-04 2.33885E-05-1.14229E-05
 -1      5168-3.41050E-04 7.63388E-04-2.12445E-04 1.80401E-04-2.23849E-05 1.49477E-05
 -1      5169 4.17385E-02-1.11058E-02-1.73327E-02-1.04778E-03 1.49418E-04 1.32696E-04
 -1      5170 4.10017E-02-1.19382E-02-1.63810E-02-1.50402E-03-1.34214E-04 2.11803E-04
 -1      5171 4.90292E-02-1.37646E-02-1.98547E-02-6.14091E-03 4.59820E-04-5.25104E-04
 -1      5172 4.05685E-05-3.45325E-05-2.62544E-06 4.90826E-05-3.94219E-06 1.87936E-06
 -1      5173-3.54753E-05-2.44179E-06 2.63967E-05 6.20603E-05-1.69505E-06 3.42308E-06
 -1      5174 6.49100E-05-1.02137E-05-2.76103E-05 2.92734E-05 3.77095E-06 5.08346E-06
 -1      5175 4.98253E-02-1.51401E-02-1.98090E-02 9.47490E-05 6.39198E-05 4.05755E-04
 -1      5176 5.03231E-02-1.53708E-02-1.98276E-02-9.02744E-05 1.49909E-05 1.04253E-04
 -1      5177 4.98990E-02-1.50843E-02-1.98143E-02 4.80080E-04-1.61153E-05 1.05261E-04
 -1      5178 4.48426E-02-1.23960E-02-1.83628E-02 7.39925E-04 1.17286E-04-4.56419E-04
 -1      5179 4.52606E-02-1.13605E-02-1.92693E-02-1.49600E-03 3.44346E-04-5.68312E-04
 -1      5180 2.67296E-05-3.03009E-05 2.04042E-06 2.33590E-05-1.26610E-07-7.99682E-07
 -1      5181 5.52593E-05-4.80234E-05-4.64421E-06 1.87361E-05-2.14886E-06-8.31591E-07
 -1      5182 3.61149E-05-3.72398E-05 9.95605E-07 9.75357E-06-2.47872E-07-1.82840E-07
 -1      5183 3.77898E-03-2.69059E-03-4.04945E-04-1.78713E-03-9.64712E-05 4.59286E-05
 -1      5184 4.22576E-03-3.06997E-03-4.75740E-04-1.69498E-03 1.12633E-04-8.50975E-06
 -1      5185 2.42218E-03-1.78294E-03-2.77530E-04-2.65163E-03-2.45484E-05 1.21905E-05
 -1      5186 2.79660E-03-2.10192E-03-2.89397E-04-2.68356E-03 6.26534E-05-4.32597E-05
 -1      5187-8.13245E-05 4.54917E-04-2.08946E-04-3.64390E-04-7.59573E-07-1.96060E-07
 -1      5188-2.43531E-04 5.25277E-04-1.55805E-04-3.22351E-04 2.27277E-06 2.81110E-06
 -1      5189-1.22739E-04 4.78735E-04-1.93147E-04-3.89748E-04-7.00039E-07 2.39263E-06
 -1      5190 1.21001E-04 8.72530E-05-1.11368E-04-2.85164E-04 4.89698E-05-4.69584E-06
 -1      5191-1.58340E-05 3.34508E-04-1.23628E-04-3.34335E-04 1.83456E-05 1.40136E-06
 -1      5192 6.52903E-04 8.29299E-05-4.10582E-04-8.69085E-04 4.02520E-07-4.67828E-06
 -1      5193 6.00834E-04 9.61955E-05-3.79642E-04-9.44373E-04-4.15285E-06-1.10499E-06
 -1      5194 3.48774E-04 2.39454E-04-3.25346E-04-7.77428E-04 3.11239E-06 3.73447E-07
 -1      5195 3.11492E-05 3.77050E-04-2.37223E-04-9.56693E-04 3.92569E-06-1.97557E-06
 -1      5196 1.38304E-04 3.56794E-04-2.77666E-04-8.59074E-04 4.16511E-06 7.76244E-06
 -1      5197-4.12818E-03 5.40395E-03-6.79509E-04-4.76246E-03 2.79914E-05 2.04090E-04
 -1      5198 4.07723E-03-1.48637E-03-1.47140E-03-2.49280E-03-1.35511E-05 1.25538E-05
 -1      5199 6.13229E-03-4.29570E-03-1.02620E-03 1.07916E-03 1.33186E-04-7.50984E-05
 -1      5200 7.48060E-03-6.34253E-03-6.08129E-04-1.71455E-03 1.55175E-04-9.62900E-05
 -1      5201 7.60114E-03-4.58728E-03-1.54164E-03 3.28947E-03 7.13273E-05-4.28635E-05
 -1      5202-6.91386E-05-4.39366E-06 6.17394E-05-8.42736E-05-1.06830E-06-3.30563E-05
 -1      5203 5.44966E-02-2.08777E-02-1.89551E-02 4.83846E-03 5.99215E-05 1.26230E-04
 -1      5204 5.30932E-02-2.00553E-02-1.85864E-02 4.21488E-03-3.19263E-05 6.40365E-05
 -1      5205 5.09820E-02-1.85558E-02-1.82666E-02 4.06533E-03 9.52516E-05 9.71024E-05
 -1      5206 5.25291E-02-1.92824E-02-1.86737E-02 3.97428E-03 1.83812E-05 6.81538E-05
 -1      5207 5.18088E-02-1.87237E-02-1.84668E-02 3.23951E-03-1.38435E-05-1.22989E-04
 -1      5208 5.15667E-02-1.78052E-02-1.89895E-02 1.34488E-03-1.85973E-06-1.00685E-06
 -1      5209 4.20858E-02-1.09193E-02-9.76580E-03 2.91582E-04-2.79498E-04 5.44568E-04
 -1      5210 5.17623E-02-1.52506E-02-1.92427E-02-4.08091E-04-1.91329E-04-7.35521E-04
 -1      5211 5.00950E-02-1.56274E-02-1.71063E-02-1.07048E-03 5.28473E-04-4.52649E-04
 -1      5212 6.11570E-06-1.03872E-05 2.31835E-06 8.71932E-07-4.96609E-07 3.13932E-07
 -1      5213-1.88553E-04 5.10952E-04-1.80614E-04 4.43831E-04-1.29105E-06 4.76897E-06
 -1      5214-7.29583E-05 4.88403E-04-2.26096E-04 6.65722E-04-6.98059E-07 5.18175E-06
 -1      5215-6.45908E-04 8.65020E-04-9.50727E-05 6.78609E-04-8.17279E-06 1.69507E-05
 -1      5216-6.30306E-04 8.71907E-04-1.02130E-04 1.01329E-03 2.39626E-05 1.45622E-06
 -1      5217 5.33845E-02-1.84691E-02-1.93055E-02 1.44851E-02-2.06468E-03 1.03939E-03
 -1      5218 5.05201E-02-1.73199E-02-1.87840E-02 1.22828E-02-6.05769E-04 1.75173E-04
 -1      5219-2.70767E-05-1.21242E-06 2.00335E-05-5.02577E-05 1.09548E-06-1.64530E-07
 -1      5220 4.97061E-04 1.53088E-04-3.55626E-04-9.08549E-04 2.56631E-07-6.14438E-07
 -1      5221 6.00687E-04 9.62232E-05-3.79579E-04-9.43554E-04 4.04866E-06 4.30106E-07
 -1      5222 2.63346E-04 2.91588E-04-3.08849E-04-7.38713E-04-7.05091E-07-3.89679E-07
 -1      5223 3.50822E-04 2.39266E-04-3.27403E-04-7.76679E-04-5.21338E-06 3.37538E-08
 -1      5224-2.58515E-04 4.24923E-04-9.40929E-05-5.33584E-05 1.62449E-06 1.00033E-05
 -1      5225-2.40428E-04 3.13141E-04-3.49665E-05 1.32832E-04-9.97938E-07 1.53438E-05
 -1      5226-2.21045E-04 3.93489E-04-9.01788E-05-1.75554E-05 2.63269E-06 6.78511E-06
 -1      5227-4.74911E-03 5.73741E-03-5.57251E-04-5.01020E-03 7.48363E-05-1.26041E-04
 -1      5228-6.40492E-03 6.87812E-03 1.75373E-05-3.28723E-03 3.14551E-05 2.57878E-04
 -1      5229 3.56055E-03 5.30388E-04-2.33066E-03-4.42924E-03 2.43969E-05-9.49294E-05
 -1      5230 3.66201E-03 1.02288E-03-2.61067E-03-4.99697E-03-3.70360E-05-2.79340E-04
 -1      5231 4.62097E-03 1.63273E-03-3.41445E-03-6.13665E-03-1.28982E-04 8.85846E-05
 -1      5232 5.19310E-02-1.86693E-02-1.87098E-02-2.48603E-03-8.97780E-06-1.66176E-05
 -1      5233 5.20343E-02-1.88381E-02-1.86697E-02-2.75283E-03-1.15797E-06-3.39637E-06
 -1      5234-1.85991E-04 5.13950E-04-1.85892E-04 4.41704E-04-1.00415E-06-6.05516E-06
 -1      5235-3.75923E-04 6.28574E-04-1.32832E-04 3.31321E-04 6.78338E-06-5.34829E-06
 -1      5236-3.29203E-04 6.26626E-04-1.66948E-04 5.58402E-04 1.10098E-05-9.52540E-06
 -1      5237-7.37092E-05 4.85356E-04-2.24113E-04 6.70219E-04 4.52144E-06-5.21623E-06
 -1      5238 4.70712E-02-1.73163E-02-1.66314E-02 6.54449E-03 1.65464E-04-1.73271E-05
 -1      5239 1.57648E-02-1.33650E-03-8.86203E-03-9.18043E-03 7.75549E-04-5.74885E-05
 -1      5240 2.09651E-02-4.32855E-03-9.41745E-03-1.03474E-02 9.14705E-04 3.63549E-04
 -1      5241 5.77240E-03 3.69490E-03-5.77784E-03-9.60373E-03 5.35330E-04 1.54240E-04
 -1      5242 6.33508E-03 2.56835E-03-5.38027E-03-8.10929E-03 6.43340E-04-1.29130E-04
 -1      5243 1.12147E-02-4.30565E-04-6.13528E-03-9.69536E-03 5.33689E-04 1.81242E-04
 -1      5244 2.12022E-02-9.33439E-03-5.85888E-03-7.31077E-03-5.22309E-04-7.00494E-04
 -1      5245 2.20080E-02-5.46143E-03-9.18521E-03-8.31874E-03 6.94285E-04-1.25720E-04
 -1      5246 1.28124E-02-1.78396E-03-6.09830E-03-8.50937E-03 4.75037E-04-8.88473E-07
 -1      5247 1.76744E-03-6.19710E-04-6.47332E-04 9.41548E-04 1.10604E-06 1.05134E-05
 -1      5248 2.11158E-03-8.09867E-04-7.25420E-04 7.99559E-04-7.72365E-06 5.43638E-06
 -1      5249 1.68050E-03-7.46554E-04-5.08913E-04 1.41146E-03 2.28318E-05-1.81317E-05
 -1      5250 2.14763E-03-8.32103E-04-7.41961E-04-8.02762E-04-1.25949E-05 1.44372E-06
 -1      5251 2.58020E-03-1.07369E-03-8.44795E-04-5.39001E-04-8.08353E-06 1.15883E-05
 -1      5252 1.92152E-03-8.85936E-04-5.75699E-04-1.21340E-03-2.38575E-05-1.19015E-05
 -1      5253 1.92335E-03-7.51966E-04-6.55815E-04-8.97077E-04-7.55781E-06-1.08428E-06
 -1      5254 1.49689E-03-6.00742E-04-4.91199E-04-1.41954E-03-7.34790E-06-1.67074E-05
 -1      5255 2.57848E-03-1.07419E-03-8.42840E-04-5.37832E-04 7.89386E-06-1.15533E-05
 -1      5256 2.14681E-03-8.32700E-04-7.41419E-04-8.02582E-04 1.32921E-05-2.47111E-06
 -1      5257 1.49236E-03-5.96748E-04-4.95240E-04-1.42027E-03 7.53251E-06 1.64045E-05
 -1      5258 1.92450E-03-7.52611E-04-6.55947E-04-8.96039E-04 7.20965E-06-2.16991E-06
 -1      5259 1.92081E-03-8.85992E-04-5.75383E-04-1.21548E-03 2.09941E-05 7.36906E-06
 -1      5260 2.33359E-03-1.37074E-03-5.01488E-04-1.71113E-03-3.76900E-05-3.57119E-05
 -1      5261 4.46445E-04-9.54072E-05-1.80948E-04-2.57102E-03-7.38010E-05-4.71230E-06
 -1      5262 1.41690E-03-6.91271E-04-4.08091E-04-1.84078E-03-4.88597E-05-5.91064E-06
 -1      5263 4.42214E-03 8.81987E-04-2.93793E-03 5.73168E-03 1.78689E-04 2.11061E-04
 -1      5264 4.59904E-03 1.15972E-03-3.13396E-03 5.91430E-03-1.36248E-05 8.21771E-05
 -1      5265 3.66438E-03-9.20660E-05-2.15341E-03 4.03899E-03 1.03544E-05 9.54897E-06
 -1      5266 7.47640E-03-1.68715E-03-3.38635E-03 6.37063E-03 1.15346E-04 1.33480E-04
 -1      5267 3.71171E-03-3.68869E-04-1.87402E-03 3.88066E-03 4.33967E-05 7.20270E-05
 -1      5268-1.68136E-04 2.40921E-04-4.05890E-05 9.68472E-05-4.04121E-06-1.28701E-05
 -1      5269-2.51712E-04 4.34546E-04-9.42896E-05-5.76354E-05 1.32053E-06-1.19783E-05
 -1      5270-2.22343E-04 3.85121E-04-9.02177E-05-1.50158E-05-1.16801E-06-1.09823E-05
 -1      5271 4.02370E-04 1.72519E-04-2.99748E-04 1.46525E-03 3.32309E-05-9.25717E-06
 -1      5272 9.19006E-04-2.80444E-04-3.56315E-04 1.67603E-03 3.65823E-05-9.67296E-06
 -1      5273-5.44295E-04 8.05067E-04-1.36021E-04-1.67467E-03-5.15440E-05-2.41574E-05
 -1      5274 2.41262E-04 2.58515E-04-2.78215E-04-1.44326E-03-3.17893E-05-1.29232E-05
 -1      5275 7.90882E-04-1.28530E-04-3.45575E-04-1.64008E-03-2.13078E-05-2.71141E-05
 -1      5276 4.92792E-02-1.55741E-02-1.89930E-02 2.98611E-05 7.22225E-06 1.25577E-04
 -1      5277 4.87439E-02-1.51424E-02-1.90055E-02-3.41020E-05 5.51819E-06 2.85392E-04
 -1      5278-2.46092E-05-3.01862E-06 1.61746E-05 5.49937E-05 4.87123E-06-5.48980E-06
 -1      5279-1.95720E-05-2.74899E-06 1.67005E-05 3.37222E-05-4.19961E-07-2.03497E-06
 -1      5280-4.24532E-04 5.55102E-04-5.54556E-05 2.37357E-06 1.17585E-05 1.14981E-05
 -1      5281-3.32693E-04 4.45967E-04-5.05192E-05 4.14969E-05 1.24471E-06-6.56962E-06
 -1      5282-4.99917E-04 6.25687E-04-5.83735E-05-1.13566E-04 5.79104E-06 1.28802E-06
 -1      5283-3.90919E-04 5.35613E-04-6.06928E-05-5.66765E-05-5.70830E-06-1.63494E-05
 -1      5284 7.52838E-06-1.30831E-05 2.87627E-06-1.44536E-05 3.43682E-07-2.84780E-07
 -1      5285 1.41656E-06-5.86146E-06 2.55813E-06-8.23945E-06 3.49592E-07-2.82024E-07
 -1      5286 6.91991E-06-1.23638E-05 2.99202E-06-1.46262E-05-5.14310E-07-1.94136E-07
 -1      5287 1.54305E-06-5.87797E-06 2.44511E-06-8.23198E-06-4.30337E-07 7.47245E-08
 -1      5288-2.68089E-05-6.57522E-06 1.76098E-05-5.49395E-05-6.45990E-06-7.09179E-06
 -1      5289-1.18102E-05-2.69585E-06 8.23945E-06 1.45495E-05-7.97213E-08 4.95949E-07
 -1      5290-3.15699E-06-4.34420E-06 4.84840E-06 9.75245E-06-1.82430E-07 2.34633E-07
 -1      5291-6.45143E-06-3.00697E-06 5.33802E-06 1.12249E-05-2.44137E-07 1.08546E-06
 -1      5292-6.57296E-06-2.96953E-06 5.13342E-06 1.13797E-05-1.28434E-07-4.74218E-07
 -1      5293-2.18303E-05 4.41028E-04-2.36420E-04 4.78548E-04-2.49366E-06 3.02639E-06
 -1      5294 8.05719E-05 3.94947E-04-2.65430E-04 5.71362E-04-3.18305E-06-1.43001E-06
 -1      5295-2.58839E-04 5.50512E-04-1.58677E-04 3.49673E-04 2.71802E-07 4.86364E-06
 -1      5296-8.06468E-05 4.51264E-04-2.04583E-04 4.26841E-04-3.77245E-06-1.00543E-07
 -1      5297 6.17547E-04 9.68818E-05-4.05898E-04-1.11328E-03-3.50671E-05-3.91636E-05
 -1      5298 1.99089E-04 3.56855E-04-2.58983E-04-9.20622E-04 2.86457E-05-1.46005E-05
 -1      5299-4.85844E-06-4.67382E-06 6.68047E-06-1.54127E-05 4.56552E-08-1.15501E-06
 -1      5300-1.47459E-04 2.47105E-04-4.32534E-05 2.89246E-05 1.86497E-06 1.34519E-05
 -1      5301-1.63631E-04 2.53362E-04-3.75783E-05 4.33439E-05 2.08414E-06-7.24149E-06
 -1      5302-2.18239E-04 3.80320E-04-9.15332E-05-1.61425E-05 1.62181E-06-2.68797E-06
 -1      5303-1.61423E-04 2.58566E-04-4.40752E-05 1.73840E-05 4.22384E-06 4.08376E-06
 -1      5304-2.61497E-03 3.87529E-03-6.30606E-04-4.02306E-03 2.87720E-05-7.85491E-05
 -1      5305 3.25714E-03-1.46621E-03-1.00450E-03 6.99068E-05-3.82625E-06-1.72881E-05
 -1      5306 3.55744E-03-2.16195E-03-7.61838E-04 6.87145E-04-4.99111E-05 2.06728E-05
 -1      5307 1.65816E-02-8.95054E-03-3.36169E-03 5.70431E-03 5.65421E-04-2.22847E-04
 -1      5308 4.47048E-02-1.01806E-02-1.93156E-02 4.24242E-03 6.20740E-04 3.08545E-04
 -1      5309 4.54404E-02-1.14574E-02-1.92470E-02 2.82102E-03 3.96193E-04 2.70126E-04
 -1      5310 4.44770E-02-1.11046E-02-1.88270E-02 1.68655E-03 3.57817E-04 2.71349E-04
 -1      5311-1.43481E-04 2.27227E-04-3.74163E-05-5.63825E-05-1.74276E-06-1.92671E-05
 -1      5312-1.51854E-04 2.37495E-04-3.94037E-05-2.42659E-05 2.33907E-06-3.43623E-06
 -1      5313-8.39199E-04 1.01974E-03-9.84714E-05 7.99317E-04-3.96442E-05 2.34379E-05
 -1      5314-8.45111E-04 1.03383E-03-8.58637E-05 1.25007E-03-2.34683E-05 2.57044E-05
 -1      5315 3.92526E-05 4.32935E-04-2.55458E-04 1.16140E-03-1.43899E-05 2.40447E-05
 -1      5316 2.12904E-03 2.71075E-03-2.81602E-03 5.11648E-03-1.53178E-04-7.55496E-04
 -1      5317 4.71437E-03 1.50414E-03-3.39578E-03 5.85411E-03-7.45712E-05-3.34095E-04
 -1      5318 4.92508E-02-1.46773E-02-1.97072E-02 1.24838E-04-8.16729E-05 6.24047E-04
 -1      5319-1.97544E-04 3.53601E-04-8.41262E-05-2.09695E-06-3.19393E-07-6.92173E-06
 -1      5320-1.25186E-04 1.95599E-04-3.45812E-05 5.43873E-05 2.07730E-06-1.14505E-05
 -1      5321-1.91408E-04 3.51557E-04-8.69023E-05-1.79627E-05-2.32497E-06-8.07202E-06
 -1      5322 2.36396E-02-6.14011E-03-9.99169E-03 7.96007E-03 8.08669E-04-3.80507E-05
 -1      5323 1.30143E-02-2.17675E-03-5.83405E-03 8.68811E-03 5.57079E-04 7.56955E-05
 -1      5324 4.45271E-02-1.38092E-02-1.72835E-02-1.81858E-03-1.50502E-04 6.99750E-04
 -1      5325 4.49683E-02-1.32267E-02-1.79262E-02-1.63382E-03-6.04536E-05 5.48462E-04
 -1      5326 4.63932E-02-1.43013E-02-1.81123E-02-1.66379E-03-1.36992E-04 8.00251E-04
 -1      5327 4.03553E-02-1.28071E-02-1.56196E-02 1.65197E-03 7.07580E-04-3.25304E-04
 -1      5328 3.73511E-02-1.07173E-02-1.50757E-02 3.79481E-03 1.46025E-04 2.13914E-04
 -1      5329 4.35954E-02-1.26377E-02-1.76849E-02 2.25208E-04 3.34364E-04-4.12787E-04
 -1      5330 6.44415E-02-2.30200E-02-2.22309E-02-1.32167E-02-2.43802E-03 4.45725E-04
 -1      5331 5.17640E-02-1.80282E-02-1.89810E-02-3.95031E-04 1.77097E-06-7.94150E-06
 -1      5332 5.26867E-02-1.89394E-02-1.89814E-02 3.44798E-04-2.01105E-06 1.91328E-05
 -1      5333 5.30569E-02-1.93425E-02-1.89634E-02 3.01690E-04 4.19896E-06 1.97208E-05
 -1      5334 5.28915E-02-1.92088E-02-1.89445E-02-8.44877E-04 2.23537E-06 1.01268E-05
 -1      5335 5.25370E-02-1.87999E-02-1.89770E-02-8.04606E-04 6.65092E-06-2.14277E-05
 -1      5336 7.99045E-05 3.96582E-04-2.65679E-04 5.72667E-04 3.50979E-06 5.28494E-07
 -1      5337-2.13784E-05 4.40245E-04-2.35867E-04 4.77970E-04 1.77352E-06-2.78086E-06
 -1      5338-2.54024E-04 5.47932E-04-1.59946E-04 3.48658E-04-3.30819E-07-1.38192E-06
 -1      5339-8.14321E-05 4.51677E-04-2.05178E-04 4.26666E-04 2.95537E-06-1.30410E-06
 -1      5340 3.40764E-02-5.77722E-03-1.54881E-02 1.32839E-02-1.37215E-03-1.00723E-03
 -1      5341 3.93914E-02-1.22756E-02-1.52755E-02 5.73870E-03-6.29994E-04-6.16644E-04
 -1      5342 2.96932E-02-3.74403E-03-1.44181E-02 1.68836E-02-1.58913E-03-1.28097E-03
 -1      5343 3.50563E-02-2.20438E-03-1.71772E-02 1.60728E-02-1.41350E-03-9.90223E-04
 -1      5344 4.15886E-02-1.06200E-02-1.74764E-02 5.41250E-03 4.63601E-05-9.24767E-04
 -1      5345 4.11067E-02-1.04532E-02-1.76104E-02 2.91264E-03-5.85355E-04-2.06862E-04
 -1      5346-8.72481E-03 8.82621E-03-9.49246E-05-3.97792E-03 6.36032E-05-4.19830E-04
 -1      5347-6.12797E-03 6.82677E-03-1.84357E-04-5.27533E-03-9.12369E-05 1.80526E-04
 -1      5348 4.30051E-02-1.18479E-02-1.76510E-02 1.05326E-03-4.57763E-04 1.14503E-04
 -1      5349 3.84473E-03-4.30034E-04-1.88598E-03-4.40553E-03-1.93244E-06-5.09904E-05
 -1      5350 3.37479E-03 3.88449E-04-2.06851E-03-4.74151E-03 2.49851E-05-2.34716E-04
 -1      5351 6.44201E-03-2.13051E-03-2.42188E-03-5.71916E-03 2.00456E-05 4.78386E-05
 -1      5352 4.76967E-02-1.45438E-02-1.88962E-02 1.04307E-03 5.75600E-05 7.73434E-04
 -1      5353 4.78959E-02-1.44587E-02-1.89448E-02 1.07742E-04-5.09597E-05 4.61593E-04
 -1      5354 4.87576E-02-1.51995E-02-1.90152E-02 3.79381E-04-5.87951E-06 7.46449E-04
 -1      5355 4.94857E-02-1.49092E-02-1.97651E-02 1.06021E-03 7.15564E-05 1.07066E-03
 -1      5356 1.79968E-03-6.35549E-04-6.54737E-04-9.30001E-04-5.80958E-06 1.18397E-06
 -1      5357 1.62083E-03-5.44197E-04-5.85067E-04-9.82582E-04 4.30578E-06-3.36407E-06
 -1      5358 1.80005E-03-6.35958E-04-6.54622E-04-9.30686E-04 7.09336E-06-8.52087E-07
 -1      5359 1.62105E-03-5.43375E-04-5.87265E-04-9.83834E-04-3.03794E-06 3.71081E-06
 -1      5360 5.14982E-02-1.86906E-02-1.84445E-02 3.37615E-03-1.10690E-04-3.71123E-05
 -1      5361 5.28949E-02-1.92193E-02-1.89371E-02 1.83654E-03-1.15336E-05 3.32613E-06
 -1      5362 5.23131E-02-1.86981E-02-1.89236E-02 1.90726E-03 7.68022E-06-1.89897E-06
 -1      5363 5.32810E-02-1.95271E-02-1.89820E-02 1.18223E-03-1.31945E-05 5.97122E-06
 -1      5364 5.29294E-02-1.91460E-02-1.89921E-02 7.12804E-04 3.00505E-06 1.13079E-05
 -1      5365 5.23099E-02-1.85629E-02-1.89804E-02 8.20606E-04-1.50913E-06 2.11195E-06
 -1      5366 5.19772E-02-1.83214E-02-1.89534E-02 1.50079E-03 1.76508E-06 2.65321E-05
 -1      5367 1.77036E-03-6.18456E-04-6.49776E-04 9.38612E-04-5.92652E-07-1.03936E-05
 -1      5368 1.69225E-03-7.49494E-04-5.13596E-04 1.40506E-03-1.97340E-05 1.90668E-05
 -1      5369 5.86173E-02-2.38216E-02-1.95940E-02-6.37643E-03 1.60616E-04-1.50825E-04
 -1      5370 5.76414E-02-2.31857E-02-1.95386E-02-4.31167E-03-2.95934E-05 8.57447E-06
 -1      5371 5.79091E-02-2.34435E-02-1.94162E-02-3.04606E-03-6.07343E-05-8.22623E-05
 -1      5372 5.58367E-02-2.20540E-02-1.90334E-02-4.97501E-03-1.16023E-04-1.28321E-04
 -1      5373 5.44376E-02-2.06768E-02-1.91011E-02-6.15760E-03-3.07965E-05-2.74582E-05
 -1      5374 2.74524E-03 1.39321E-03-2.36319E-03 5.16650E-03-4.77058E-05 3.19081E-04
 -1      5375 7.31637E-03 1.48373E-04-4.12091E-03 7.76050E-03-2.35028E-05 1.48594E-04
 -1      5376 5.65202E-03-8.37858E-04-2.62446E-03 5.93203E-03-1.49887E-04 1.35272E-04
 -1      5377-5.93574E-03 6.79668E-03-2.16648E-04-6.94175E-03 1.55522E-04 2.00958E-04
 -1      5378 9.22253E-03-2.47187E-03-3.31685E-03-7.33866E-03-1.93175E-05 4.92094E-04
 -1      5379 2.73588E-03 2.09243E-03-2.12604E-03-7.53681E-03-2.43289E-04-3.30523E-04
 -1      5380-6.24582E-03 7.01903E-03-2.58461E-04-5.65385E-03-1.15312E-04 1.63800E-04
 -1      5381 6.04658E-03-1.24261E-03-2.90847E-03-6.20404E-03 2.80905E-06-2.11027E-04
 -1      5382-8.25267E-04 2.87518E-03-1.23482E-03-6.56309E-03 1.67272E-04-5.21084E-05
 -1      5383 6.49128E-05-4.11864E-05-1.51148E-05 2.21081E-05 4.11717E-07 4.24101E-06
 -1      5384 8.25988E-05-3.91239E-05-2.20474E-05-1.19361E-05-3.68007E-06 5.03929E-06
 -1      5385 7.30316E-05-1.78582E-07-3.88167E-05-5.74280E-06 4.02590E-06 8.36416E-06
 -1      5386-9.24928E-05 4.69063E-04-2.14117E-04 4.00099E-04-1.89242E-07 1.39167E-06
 -1      5387-1.35040E-04 4.77655E-04-1.86579E-04 3.55298E-04 2.07332E-06-6.31381E-07
 -1      5388 5.21644E-02-1.70530E-02-1.97949E-02 5.55696E-03-3.55713E-04-7.28148E-04
 -1      5389 5.20606E-02-1.63993E-02-2.01808E-02 5.32135E-03-8.70943E-05-5.27716E-04
 -1      5390 4.95172E-02-1.43547E-02-2.00027E-02 5.66990E-03-6.45996E-04-6.87502E-04
 -1      5391 5.05598E-02-1.66200E-02-1.91541E-02-1.02698E-03 1.77519E-05-2.03315E-05
 -1      5392 5.11841E-02-1.74504E-02-1.90136E-02-1.27284E-03-6.49306E-06-3.99702E-05
 -1      5393 5.01572E-02-1.62822E-02-1.91108E-02-1.22338E-03 1.33203E-05-1.36135E-04
 -1      5394 2.42426E-03 2.44706E-03-2.65490E-03-5.49080E-03 7.92160E-05-4.62675E-04
 -1      5395 7.29245E-03 2.15520E-04-4.23671E-03-7.72856E-03-1.76188E-04-2.50780E-04
 -1      5396-4.50088E-05 6.22010E-06 2.21488E-05 5.00793E-05-1.69840E-06 5.61527E-06
 -1      5397-1.66610E-05-3.52722E-06 1.26943E-05 3.77893E-05-1.90806E-06 5.97237E-06
 -1      5398-1.26877E-05-6.28270E-06 1.44498E-05 3.06251E-05-2.01191E-06 3.95316E-06
 -1      5399 3.20526E-05-3.08549E-05 5.58174E-07 4.18907E-05-1.26083E-06 2.23783E-06
 -1      5400 1.26922E-03-9.32662E-04-1.67792E-04 3.14776E-03 5.45079E-05-2.13264E-05
 -1      5401 5.07537E-02-1.61959E-02-1.84946E-02 2.61073E-04-2.42194E-04 7.76473E-04
 -1      5402 5.12345E-02-1.42912E-02-2.08507E-02 2.23602E-04 1.23007E-03-1.61542E-03
 -1      5403 4.86579E-02-1.49345E-02-1.86429E-02-3.02757E-04-2.18498E-04 1.12109E-03
 -1      5404 3.83579E-03-1.05553E-03-1.56144E-03-2.69255E-03 2.82835E-06 3.18104E-05
 -1      5405 5.62550E-02-2.22015E-02-1.91578E-02 3.81649E-03 2.88937E-05-4.05932E-05
 -1      5406 5.38620E-02-2.03763E-02-1.88159E-02 3.39207E-03 9.27671E-06 8.64291E-06
 -1      5407-1.94602E-04 4.35633E-04-1.32602E-04-1.35484E-05 3.20666E-07-6.10067E-08
 -1      5408-2.08807E-04 4.09838E-04-1.10451E-04 1.09458E-05 1.50514E-06 9.74647E-07
 -1      5409-1.89898E-04 4.61205E-04-1.51553E-04-2.74395E-05-8.93263E-07-4.09610E-08
 -1      5410-1.94432E-04 4.45616E-04-1.37126E-04-5.21678E-05-1.59306E-06 1.38490E-06
 -1      5411-2.11874E-04 4.18106E-04-1.14087E-04-1.96569E-05-5.37974E-07 2.93056E-06
 -1      5412-1.08861E-04 4.72097E-04-1.93406E-04 3.85504E-04-2.39817E-07 4.96232E-07
 -1      5413 2.12836E-03-8.76118E-04-6.79985E-04 8.80876E-04-3.42670E-06 1.62756E-06
 -1      5414 5.74579E-02-2.31460E-02-1.94180E-02 1.75929E-03 1.05400E-04 2.39115E-05
 -1      5415 5.83952E-02-2.38594E-02-1.94214E-02 4.24076E-03 8.05026E-05-1.83856E-04
 -1      5416 9.51479E-03-3.55558E-03-2.91877E-03-6.73082E-03 6.16321E-05-4.42733E-04
 -1      5417 2.01581E-02-1.22632E-02-3.82754E-03-5.94805E-03-7.29413E-04-1.15621E-03
 -1      5418 1.14531E-02-2.74271E-03-4.54049E-03-7.32359E-03 1.28126E-04-2.59974E-04
 -1      5419-4.75702E-05 4.33977E-04-2.14483E-04 4.67055E-04-8.36037E-07-4.41244E-07
 -1      5420 5.02204E-02-1.52323E-02-1.97595E-02-1.21107E-03-1.58414E-04-9.66852E-05
 -1      5421-9.16455E-05 4.67762E-04-2.13580E-04 3.99422E-04-4.76063E-07-4.87864E-07
 -1      5422-1.34856E-04 4.77730E-04-1.86881E-04 3.55193E-04-2.04271E-06 5.00519E-07
 -1      5423-5.47677E-03 6.02078E-03-1.72535E-04 2.87943E-03-1.14148E-06-2.26011E-04
 -1      5424 4.10367E-02-1.00426E-02-1.75816E-02 2.39887E-03 2.50578E-04 1.72949E-04
 -1      5425 4.01620E-02-1.10984E-02-1.63482E-02 2.29630E-03 3.78521E-04 9.48189E-05
 -1      5426 4.12927E-02-1.23051E-02-1.63265E-02 6.99760E-04 3.78599E-04-1.50587E-04
 -1      5427 5.96886E-02-2.45611E-02-1.97658E-02-9.31992E-03-6.90002E-04 4.39232E-04
 -1      5428 3.01856E-03 2.08816E-04-1.76246E-03 3.68646E-03-1.29720E-04-1.55991E-04
 -1      5429 3.70297E-03-3.81004E-04-1.83787E-03 3.88905E-03-3.64007E-05-7.74547E-05
 -1      5430 4.70457E-02-1.22427E-02-1.95507E-02 5.45593E-03 3.32950E-04 4.31560E-04
 -1      5431 4.99715E-02-1.56540E-02-1.93201E-02 4.70113E-03 2.49970E-04 4.02544E-04
 -1      5432 3.02529E-03 1.85442E-04-1.74753E-03 3.69384E-03 1.48950E-04 1.46942E-04
 -1      5433 4.88331E-03-2.32457E-03-1.38610E-03-2.63437E-03 1.19267E-06-5.54364E-05
 -1      5434 5.34391E-03-3.17638E-03-1.15600E-03-1.58667E-03 8.40603E-05 4.07999E-05
 -1      5435 5.53515E-03-4.91625E-03-2.50174E-04 3.17991E-03-1.74852E-04 1.02462E-05
 -1      5436 5.00400E-03-3.53193E-03-8.61532E-04-1.13279E-04-7.08890E-05-5.08252E-05
 -1      5437 6.62789E-03-5.44738E-03-5.70369E-04 7.56808E-04-4.95578E-05-1.21658E-04
 -1      5438 5.29961E-03-4.38255E-03-3.13604E-04 2.36915E-03-1.16380E-04-9.60587E-05
 -1      5439 4.09436E-03-2.79691E-03-6.64310E-04 1.11676E-03-8.34982E-05-2.83208E-05
 -1      5440 7.61138E-02-2.60296E-02-2.75264E-02-2.49158E-03 1.01094E-03-9.62016E-04
 -1      5441 6.89729E-02-1.85574E-02-2.66051E-02-1.01891E-02 8.85674E-04-1.51812E-03
 -1      5442 6.50683E-05-4.38660E-05-1.11059E-05-6.37592E-05 4.76022E-06 2.26548E-06
 -1      5443 3.99411E-03-1.28149E-03-1.55001E-03-2.77901E-03 3.19003E-05-5.79895E-05
 -1      5444 4.65611E-02-1.31893E-02-1.89028E-02-4.97552E-04 8.86078E-05-3.78094E-04
 -1      5445 4.36893E-05 9.91780E-05-6.73475E-05-2.99520E-05 4.30127E-06-5.85421E-06
 -1      5446 6.28957E-05 3.44338E-05-4.12364E-05-1.53798E-05-5.36295E-06 3.90671E-06
 -1      5447 2.12573E-02-9.37366E-03-5.69531E-03 7.32216E-03-6.49381E-04 7.31116E-04
 -1      5448 5.19170E-02-1.82649E-02-1.89522E-02 2.45379E-03 1.27782E-05 2.83417E-05
 -1      5449 5.14911E-02-1.77583E-02-1.90355E-02 2.06579E-03 2.05614E-05 2.78431E-05
 -1      5450 5.17566E-02-1.80349E-02-1.89803E-02 1.44436E-03-1.29239E-05 2.76887E-05
 -1      5451 5.12907E-02-1.75073E-02-1.90571E-02 9.63032E-04 8.83515E-06 2.25569E-05
 -1      5452 4.76641E-02-1.33259E-02-1.96169E-02 1.51637E-03-1.73554E-04-3.34968E-04
 -1      5453 4.79914E-02-1.33233E-02-1.97588E-02 1.97554E-03-1.19367E-05 3.76410E-05
 -1      5454 5.19353E-02-1.88582E-02-1.86117E-02-2.86338E-03-1.07445E-05 8.64619E-06
 -1      5455 5.18791E-02-1.88400E-02-1.85916E-02-2.87853E-03-3.32185E-05 5.95003E-06
 -1      5456 4.28597E-02-1.53461E-02-1.54803E-02 7.06979E-03 2.82922E-04-2.26631E-04
 -1      5457 4.85789E-02-1.74127E-02-1.75454E-02 8.11161E-03 2.93355E-05-2.51141E-04
 -1      5458 4.94892E-02-1.57167E-02-1.90530E-02-1.03537E-04 3.72885E-06-1.09302E-04
 -1      5459-2.53202E-08 2.56200E-08 2.68763E-09 1.05519E-08-4.25218E-10 6.74119E-10
 -1      5460-1.74875E-08 1.91753E-08 3.58099E-09 1.64211E-08 2.98162E-11-4.57517E-09
 -1      5461-2.94662E-08 2.60247E-08 6.30346E-09 3.80985E-09-8.46070E-10-2.06342E-09
 -1      5462 5.18607E-02-1.85876E-02-1.87051E-02-2.61901E-03 1.09733E-05-2.83081E-05
 -1      5463 5.21500E-02-1.86299E-02-1.88562E-02-2.41893E-03 6.51089E-06 3.99645E-06
 -1      5464 5.42729E-02-2.08675E-02-1.88604E-02-7.67202E-03-3.51490E-05-3.80657E-05
 -1      5465 5.15116E-02-1.91489E-02-1.82830E-02-6.04574E-03 2.60649E-05-9.24908E-05
 -1      5466 2.83032E-02-1.33021E-02-7.76007E-03-5.21107E-03-1.12266E-03-1.59035E-03
 -1      5467 2.98881E-02-8.25494E-03-1.19633E-02-4.84879E-03 6.99420E-04-2.59024E-04
 -1      5468 5.21752E-02-1.86252E-02-1.88667E-02-2.42636E-03-1.54225E-05 1.02925E-05
 -1      5469 5.18309E-02-1.85568E-02-1.87656E-02-2.67932E-03-9.09117E-07-3.84045E-05
 -1      5470 5.16402E-02-1.80646E-02-1.88996E-02-2.43515E-03 6.31158E-06-3.32372E-05
 -1      5471-1.01816E-04 2.86313E-05 4.57346E-05 6.19808E-05-7.48670E-06 1.95725E-05
 -1      5472-1.09947E-04 3.84871E-05 3.79630E-05 3.66404E-05-1.25125E-05 2.77770E-05
 -1      5473-3.21507E-05 4.38742E-05 4.70067E-06 2.13428E-05 2.47103E-06 1.17479E-06
 -1      5474 6.93722E-05 4.05821E-04-2.60734E-04-6.35796E-04 1.83746E-06-1.27167E-07
 -1      5475 1.47853E-04 3.61851E-04-2.84389E-04-6.79003E-04-1.19036E-07-1.26564E-06
 -1      5476 1.92200E-04 3.36523E-04-2.88295E-04-7.03687E-04-1.42534E-06-4.99131E-07
 -1      5477 5.16493E-02-1.92449E-02-1.82804E-02-5.99726E-03-2.05053E-06-4.07661E-05
 -1      5478 5.05484E-02-1.86387E-02-1.79961E-02-3.71657E-03-3.25541E-07-2.36616E-05
 -1      5479 4.49759E-02-1.63791E-02-1.61326E-02-6.28393E-03-6.97950E-05 6.75963E-05
 -1      5480 5.25445E-02-1.97760E-02-1.84615E-02-9.07991E-03 8.09487E-05 2.41572E-06
 -1      5481 4.93733E-02-1.82881E-02-1.77621E-02-6.32392E-03 5.11962E-05 1.53321E-04
 -1      5482 4.75191E-02-1.66106E-02-1.75702E-02-8.36950E-03 9.77150E-05 8.44774E-05
 -1      5483 5.10525E-02-1.81978E-02-1.88351E-02-1.16554E-02 4.73354E-04 1.08813E-04
 -1      5484 4.74621E-03-3.23232E-03-7.80952E-04-3.87524E-04-8.67345E-05-4.84684E-05
 -1      5485 2.93891E-03-2.42228E-03-2.59711E-04-3.16038E-03-1.22737E-04 3.29668E-05
 -1      5486 3.53882E-03-2.48476E-03-5.95960E-04-1.44083E-03-7.90482E-05 2.08033E-05
 -1      5487 3.52826E-03-1.55413E-03-1.11378E-03 3.01373E-04-3.02415E-05 4.30138E-06
 -1      5488 3.18908E-03-1.84890E-03-7.33049E-04-9.01824E-04-2.84011E-05-2.18459E-05
 -1      5489 3.51799E-03-1.54833E-03-1.11167E-03 3.03387E-04 3.00829E-05-8.42535E-06
 -1      5490 3.18309E-03-1.84035E-03-7.38769E-04-8.92337E-04 2.86993E-05 1.68366E-05
 -1      5491-8.37726E-04 1.01218E-03-8.29512E-05 1.19282E-03 2.27515E-05-3.13125E-05
 -1      5492 2.56254E-05 4.22263E-04-2.51170E-04 1.14309E-03 2.35929E-05-1.21311E-05
 -1      5493-2.35656E-04 6.17522E-04-1.98556E-04 8.66294E-04 1.57112E-05-1.11020E-05
 -1      5494 5.22208E-02-1.75507E-02-1.96143E-02-4.06141E-03-1.32629E-04 5.98393E-04
 -1      5495 2.45316E-04 7.17231E-05-1.70216E-04-2.74212E-04-7.85362E-05 3.30927E-05
 -1      5496 1.54303E-02 2.86723E-03-1.11811E-02-1.87082E-02-2.46482E-03 6.11674E-04
 -1      5497 3.84188E-03-1.39444E-03-1.34646E-03 1.53844E-03-5.22640E-06-3.54029E-05
 -1      5498 3.82197E-03-1.11513E-03-1.50219E-03 2.10021E-03-8.51757E-06-5.27847E-05
 -1      5499 3.81962E-03-1.11768E-03-1.49869E-03 2.09277E-03 1.20065E-05 5.64065E-05
 -1      5500 3.83561E-03-1.39196E-03-1.34316E-03 1.52961E-03 2.46239E-06 3.77047E-05
 -1      5501 9.05175E-03-7.00744E-03-8.38681E-04-2.85068E-04 1.90004E-04 1.44128E-04
 -1      5502 1.03955E-02-8.05344E-03-7.91745E-04-1.00239E-03-2.10441E-04-2.64511E-04
 -1      5503 1.00038E-02-7.09629E-03-1.40149E-03-2.21735E-03 4.77470E-05 2.99289E-04
 -1      5504 1.12712E-02-7.97256E-03-1.55261E-03-2.96497E-03-1.78713E-04-3.01519E-04
 -1      5505 4.28002E-02-1.30813E-02-1.68694E-02 1.17335E-03 3.47068E-04 4.68479E-04
 -1      5506 4.31855E-02-1.24658E-02-1.75488E-02 3.40316E-04 5.23616E-04 4.11023E-04
 -1      5507 4.20392E-02-1.22844E-02-1.68219E-02 2.05191E-04 1.73733E-04 2.30317E-04
 -1      5508 4.50197E-02-1.33825E-02-1.78968E-02 1.59778E-03 1.36618E-04 6.83828E-04
 -1      5509 4.53387E-02-1.26895E-02-1.84967E-02 1.16410E-03 1.36220E-04 5.87984E-04
 -1      5510 6.72576E-03-4.29892E-03-1.21569E-03-2.13007E-03-8.23631E-05-1.90513E-04
 -1      5511 1.17754E-02-9.76857E-03-9.93948E-04-1.92357E-04-3.99976E-04-1.43510E-04
 -1      5512 7.14335E-03-3.96357E-03-1.72747E-03-3.65133E-03-4.08964E-06-1.92072E-04
 -1      5513 4.37837E-02-1.18465E-02-1.82314E-02 7.32551E-04 4.47208E-04 8.92962E-06
 -1      5514-1.92032E-04 3.53590E-04-8.44538E-05 4.42172E-06 1.76276E-06 8.65505E-06
 -1      5515-1.13282E-04 1.84879E-04-3.55160E-05 3.31304E-05 9.59574E-07 1.28399E-05
 -1      5516-1.99172E-04 3.53787E-04-8.62498E-05-1.38458E-05-6.34258E-07 6.60473E-06
 -1      5517 3.17943E-03-1.46453E-03-9.07256E-04-2.26044E-04 3.53734E-06-7.47608E-07
 -1      5518 4.35383E-03 9.17407E-04-2.90141E-03 5.82005E-03-1.56512E-04-2.00719E-04
 -1      5519 4.56175E-02-1.34186E-02-1.81636E-02 1.75122E-03-7.17625E-05-5.45002E-04
 -1      5520-7.00261E-05 1.69308E-05 3.17548E-05 6.96843E-05-8.23292E-06 1.73692E-05
 -1      5521 5.88717E-03-4.73086E-03-5.34396E-04 1.04067E-03 7.55272E-05 1.28581E-04
 -1      5522 4.52299E-03-3.63379E-03-3.57780E-04 2.50129E-03 9.09393E-05 2.64196E-05
 -1      5523 5.23997E-02-1.79587E-02-1.95813E-02 4.25681E-03-5.06745E-05-6.30289E-04
 -1      5524 5.25943E-02-1.83742E-02-1.95229E-02 3.64151E-03-1.65733E-04-4.37048E-04
 -1      5525-2.65484E-04 3.46226E-04-4.14316E-05-1.20614E-04-4.90062E-07 1.12890E-05
 -1      5526-2.93241E-04 4.08997E-04-5.07752E-05-4.66668E-05-1.50504E-07 7.67411E-06
 -1      5527-9.23673E-05 3.34662E-04-1.44460E-04-1.96154E-04-3.89085E-05 2.36106E-05
 -1      5528 4.73021E-03-6.33353E-04-2.19251E-03 5.29067E-03 1.25937E-04-6.25521E-05
 -1      5529 9.73796E-03-2.81315E-03-3.89502E-03 7.63939E-03 4.94462E-04-4.35611E-04
 -1      5530-2.92032E-03 4.42686E-03-1.47431E-03 1.25093E-02 3.28116E-04 5.44889E-04
 -1      5531-9.35460E-05 2.84488E-03-1.21770E-03 7.08453E-03 7.26170E-05 5.45289E-04
 -1      5532-4.94246E-03 6.39954E-03-9.25866E-04 8.53746E-03-1.25210E-04 1.53075E-04
 -1      5533 4.01937E-02-9.45484E-03-1.79888E-02 3.37335E-03-6.18246E-04 1.98030E-04
 -1      5534 4.18969E-02-8.97786E-03-1.81519E-02 2.67755E-03 1.02043E-04-2.74026E-04
 -1      5535-2.55028E-04 6.14758E-04-2.00703E-04 8.59853E-04-1.96128E-05 1.55074E-05
 -1      5536 2.42634E-02-5.98719E-03-1.00684E-02 8.81901E-03-1.28667E-03 1.87819E-04
 -1      5537 2.98114E-02-7.11167E-03-1.25843E-02 8.38343E-03-1.28185E-03-4.73292E-04
 -1      5538 7.89057E-02-2.68385E-02-2.83847E-02-1.43511E-03 6.99834E-04-1.28746E-03
 -1      5539 7.38074E-02-3.07354E-02-2.42707E-02 6.67150E-05 1.39444E-04-1.41533E-03
 -1      5540 6.97464E-02-2.79381E-02-2.36164E-02-9.56356E-03 6.20015E-06-1.75097E-03
 -1      5541 7.16973E-04 3.17353E-05-4.03628E-04-9.55749E-04-3.57447E-08-1.11202E-08
 -1      5542 7.86915E-05 2.93413E-04-1.63254E-04-3.80848E-04-2.77091E-05 5.37585E-07
 -1      5543 3.26705E-02-1.17996E-02-8.42765E-03-5.66033E-03-7.14421E-04-2.58271E-03
 -1      5544 5.14206E-02-1.86331E-02-1.85193E-02 3.76749E-03 1.22450E-05 9.95598E-05
 -1      5545 5.18352E-02-1.87906E-02-1.86011E-02 3.15411E-03 5.67406E-05 5.31243E-05
 -1      5546 5.27019E-02-1.93742E-02-1.87452E-02 3.20531E-03 8.68736E-05 6.34977E-06
 -1      5547 5.22725E-02-1.89943E-02-1.86388E-02 2.86877E-03 3.26718E-05-6.18713E-05
 -1      5548 4.22883E-02-1.06799E-02-1.79538E-02 1.47837E-03 2.54813E-05-4.88120E-05
 -1      5549 4.15910E-02-9.93297E-03-1.78218E-02 3.22940E-03 2.66307E-04-2.64849E-04
 -1      5550 4.23787E-02-9.18635E-03-1.88145E-02 3.28090E-03 2.04472E-04-2.51705E-04
 -1      5551 4.03010E-02-1.23810E-02-1.58177E-02-2.04326E-03 3.87094E-04 2.62177E-04
 -1      5552 3.66372E-02-1.06103E-02-1.47887E-02-3.53661E-03 4.28253E-04 4.10538E-05
 -1      5553 3.34384E-02-1.01315E-02-1.31532E-02-4.76883E-03 4.03522E-04 1.60439E-04
 -1      5554 3.87882E-02-1.10985E-02-1.56924E-02-5.13275E-03 5.65912E-04-3.51960E-04
 -1      5555 3.48563E-02-9.83812E-03-1.43564E-02-6.09422E-03 4.70938E-04-6.06902E-04
 -1      5556 4.14411E-02-1.02542E-02-1.75327E-02-3.54149E-03 5.66442E-04-9.10813E-05
 -1      5557-8.17641E-05 2.24746E-04-9.48531E-05-1.78643E-04-2.18993E-05 2.24352E-05
 -1      5558 6.57594E-05-3.97463E-05-1.66066E-05 2.21122E-05-6.48017E-07-3.12796E-06
 -1      5559 8.13161E-05-3.77232E-05-2.41727E-05-1.20349E-05 3.63791E-06-3.68314E-06
 -1      5560 7.55067E-05-6.61747E-07-3.98763E-05-4.77171E-06-3.36940E-06-7.54632E-06
 -1      5561-1.01242E-06-1.41585E-07 9.15241E-07 2.86100E-07-2.09618E-07-1.98406E-07
 -1      5562 2.58177E-06-5.47528E-06 1.63482E-06 5.00101E-06-1.96126E-07-1.04295E-07
 -1      5563 4.35659E-02-1.27297E-02-1.73966E-02-1.13630E-03 1.20342E-06 4.24707E-04
 -1      5564 4.32703E-02-1.14585E-02-1.79299E-02 8.26316E-05 2.12861E-04 2.58316E-04
 -1      5565 4.41072E-02-1.21328E-02-1.81160E-02-6.85551E-04 8.35027E-05 3.89516E-04
 -1      5566-2.99647E-04 4.87127E-04-1.06174E-04 1.02697E-04-3.85241E-06 1.16879E-05
 -1      5567-3.40965E-04 4.37683E-04-5.00742E-05-9.67441E-05-6.14132E-06 1.75955E-05
 -1      5568-3.44989E-04 4.85569E-04-5.51284E-05 2.46565E-05-4.41368E-06 1.92550E-05
 -1      5569-3.34037E-04 5.54636E-04-1.14183E-04 1.84381E-04-8.09597E-07 1.25468E-05
 -1      5570-2.97083E-04 4.97703E-04-1.17119E-04 1.97591E-04-1.79248E-06 4.00580E-08
 -1      5571 2.55736E-02 1.82182E-03-1.53829E-02 2.09062E-02-2.43152E-03-2.38278E-03
 -1      5572 4.23869E-02-6.45593E-03-1.90463E-02 8.72312E-03-7.10000E-05-1.00367E-03
 -1      5573 5.17224E-02-1.78482E-02-1.91164E-02 2.91943E-03 6.35727E-05 1.43947E-04
 -1      5574 6.52589E-04 8.24473E-05-4.09866E-04-8.67682E-04 1.41662E-08 5.10531E-06
 -1      5575 3.97838E-02-1.15150E-02-1.59640E-02 2.20112E-03 6.73133E-05-6.32394E-05
 -1      5576 5.80693E-03-4.19127E-04-2.92874E-03-6.62321E-03-3.07959E-04-1.92329E-04
 -1      5577 4.69874E-02-1.35518E-02-1.89017E-02-5.22353E-04-6.04170E-05-4.82883E-04
 -1      5578 6.21950E-03-4.34920E-03-1.04306E-03 1.18166E-03-1.39985E-04 1.04125E-04
 -1      5579 3.76563E-03-9.26097E-04-1.58468E-03-2.81438E-03 3.60381E-05-5.15283E-05
 -1      5580 4.88584E-02-1.40855E-02-1.98296E-02-7.23954E-03-4.38311E-04 5.00645E-04
 -1      5581 4.59851E-02-1.10141E-02-1.94982E-02-5.55403E-03-3.61960E-04 4.78840E-04
 -1      5582 4.87737E-02-1.41187E-02-1.95305E-02-5.81222E-03-1.79795E-04 4.47174E-04
 -1      5583 4.16942E-02-1.07043E-02-1.47076E-02 1.99451E-03-1.01861E-03 4.77900E-03
 -1      5584 4.29702E-02-9.90390E-03-1.42156E-02 6.10439E-04 6.16684E-04 4.80748E-03
 -1      5585 4.13662E-02-1.08352E-02-1.17276E-02 1.44232E-03-8.87601E-04 4.41111E-03
 -1      5586 4.98377E-02-1.56830E-02-1.78227E-02-1.67436E-03-1.21237E-04 2.18369E-04
 -1      5587 5.18774E-02-1.85024E-02-1.88215E-02-2.49543E-03 2.19030E-05 8.11729E-06
 -1      5588 4.62849E-02-1.33673E-02-1.86408E-02 8.89310E-04-1.57551E-05-5.67176E-04
 -1      5589 3.37667E-02-1.14351E-02-9.21073E-03 5.85197E-03-9.82991E-04 3.06783E-03
 -1      5590 2.85318E-02-1.35848E-02-7.89287E-03 5.23561E-03-9.32838E-04 1.43550E-03
 -1      5591 3.18263E-02-9.08302E-03-1.28313E-02 4.33656E-03 8.88485E-04-2.12872E-04
 -1      5592-2.86855E-04 3.52241E-04-3.52331E-05 1.41783E-04-2.62517E-06-1.02904E-05
 -1      5593-4.68219E-03 6.36648E-03-7.29925E-04 6.28992E-03-7.82084E-05 3.97056E-04
 -1      5594-6.79509E-04 2.88043E-03-1.06454E-03 6.05904E-03-1.93469E-04-1.41722E-04
 -1      5595 3.94164E-03-1.07609E-03-1.89554E-03 2.29345E-03 1.49633E-04-1.30577E-04
 -1      5596 5.33375E-03-9.22745E-04-2.37090E-03 5.09437E-03-9.19495E-05-1.69302E-04
 -1      5597 3.35196E-03-5.50978E-04-1.65374E-03 3.02628E-03-6.01146E-05 2.85048E-04
 -1      5598 9.98306E-03-8.54119E-03-9.15700E-04-6.94533E-04 1.92540E-04-1.04176E-04
 -1      5599-3.19893E-04 5.07172E-04-1.05675E-04-1.12631E-04-5.22591E-06-1.24402E-05
 -1      5600-3.89174E-04 4.78943E-04-4.83357E-05 9.95093E-05-9.64681E-06-1.75739E-05
 -1      5601-3.52306E-04 5.77253E-04-1.16816E-04-2.18989E-04-2.12919E-06-1.20376E-05
 -1      5602-4.45768E-04 7.51673E-04-1.30968E-04-9.54674E-04-1.94702E-05-1.70698E-05
 -1      5603-4.68288E-04 7.54671E-04-1.14992E-04-8.40038E-04 2.64592E-05 1.07833E-05
 -1      5604-6.34179E-04 8.57958E-04-9.41168E-05-6.68888E-04-1.33950E-05-6.69314E-06
 -1      5605-6.16818E-04 8.09714E-04-9.42165E-05-5.62738E-04 8.90349E-06 8.32869E-06
 -1      5606 2.11227E-03-8.06770E-04-7.27691E-04 7.94439E-04 7.28275E-06-6.67728E-06
 -1      5607 1.16187E-02-3.53218E-03-4.29454E-03 7.25065E-03 8.05703E-05-2.50887E-04
 -1      5608 1.79269E-02-1.16637E-02-2.98267E-03 5.00600E-03 2.58539E-04-6.87563E-04
 -1      5609 1.36473E-02-9.29558E-03-1.45702E-03 4.24043E-03-9.17342E-05-3.55153E-04
 -1      5610 9.49798E-03-4.35669E-03-2.65571E-03 6.16002E-03-6.99065E-05-3.42747E-04
 -1      5611 5.13855E-02-1.76135E-02-1.89970E-02 6.23601E-04 6.91714E-06 1.08029E-05
 -1      5612 5.08582E-02-1.70607E-02-1.90472E-02 1.97314E-04 5.48420E-07 6.25234E-05
 -1      5613-3.73853E-04 2.50408E-03-1.11672E-03 5.55153E-03 1.17849E-04 1.13183E-04
 -1      5614-5.17104E-03 6.19292E-03-4.55817E-04 6.19810E-03 3.08921E-04-6.32235E-04
 -1      5615 2.78742E-03-3.44222E-04-1.37214E-03 3.26463E-03 7.36860E-05-1.53325E-04
 -1      5616 4.53416E-02-1.43582E-02-1.72408E-02-2.18356E-03-4.42774E-04 7.57225E-04
 -1      5617 4.72152E-02-1.45352E-02-1.82504E-02-2.01728E-03-3.17418E-04 1.00243E-03
 -1      5618 4.56737E-02-1.31392E-02-1.85349E-02-1.71888E-03-2.45954E-04 7.27282E-04
 -1      5619 1.89060E-02-6.51370E-03-6.55227E-03 8.97501E-03-3.00376E-05-1.96335E-04
 -1      5620 6.06386E-03 2.27867E-04-3.28383E-03 9.11439E-03 1.28247E-04 4.80401E-04
 -1      5621 4.43445E-02-9.58054E-03-1.94508E-02-5.23550E-03 7.24559E-04-4.79616E-04
 -1      5622-6.53590E-04 8.09509E-04-6.75212E-05-3.21119E-04 1.74522E-05 3.27827E-06
 -1      5623-5.55585E-04 7.02549E-04-6.21728E-05-1.54012E-04-3.51044E-06-1.13114E-05
 -1      5624-4.95266E-04 7.12574E-04-9.67818E-05-3.60995E-04-1.46080E-05-3.24809E-06
 -1      5625-2.37687E-04 5.36272E-04-1.69329E-04-5.34299E-04-1.06435E-06 8.51312E-06
 -1      5626 3.44344E-03-1.53028E-03-1.06885E-03-2.34664E-04-5.94741E-06 9.53319E-07
 -1      5627 3.19012E-03-1.45507E-03-9.68029E-04 1.51896E-04 9.43709E-06 6.08220E-06
 -1      5628 3.63899E-03-1.76549E-03-1.02441E-03-2.25511E-04-2.29064E-06-9.17651E-06
 -1      5629 5.17925E-02-1.80549E-02-1.90043E-02 7.18947E-04-8.31740E-06-2.48201E-05
 -1      5630-2.11230E-08 2.77814E-08-2.29387E-09 4.56602E-09-2.70122E-09-4.71439E-09
 -1      5631-2.26389E-08 2.67287E-08 6.61531E-11-6.41455E-10-3.34572E-09-4.69182E-09
 -1      5632-1.54164E-08 2.31010E-08-1.85539E-09 1.17070E-08-1.32625E-09-3.62491E-09
 -1      5633-1.84362E-04 4.55951E-04-1.52848E-04-1.05203E-04 1.22713E-06-1.45237E-07
 -1      5634-1.92065E-04 4.53124E-04-1.47151E-04-5.19371E-05 2.72690E-07 2.88591E-08
 -1      5635-2.16023E-04 4.20053E-04-1.12767E-04-4.35553E-05-2.20000E-07 3.11583E-06
 -1      5636-9.45749E-07-1.69749E-07 9.01366E-07 4.18785E-07 6.18397E-08 3.85830E-07
 -1      5637 4.13219E-04 2.21616E-04-3.56107E-04 7.95634E-04 5.55346E-06-6.14995E-07
 -1      5638 2.35866E-04 3.21624E-04-3.12414E-04 7.18871E-04 6.56474E-07 1.24861E-06
 -1      5639-4.86142E-05 4.84743E-04-2.37882E-04 7.73418E-04 2.43969E-06-7.52013E-06
 -1      5640 1.71408E-04 3.44543E-04-2.82939E-04 7.02354E-04-4.19088E-06-1.35415E-06
 -1      5641 3.22971E-04 2.52708E-04-3.20227E-04 7.75232E-04 7.71690E-06-2.34069E-06
 -1      5642 4.12131E-04 2.22237E-04-3.55646E-04 7.96825E-04-6.42821E-06 1.66299E-06
 -1      5643 2.33924E-04 3.23789E-04-3.13171E-04 7.20464E-04-1.78155E-06 5.58398E-07
 -1      5644 1.69810E-04 3.46807E-04-2.84297E-04 7.02482E-04 3.69846E-06 1.44825E-06
 -1      5645-5.69625E-05 4.89959E-04-2.37655E-04 7.75863E-04-3.29419E-06 1.36948E-05
 -1      5646 4.85938E-02-1.41364E-02-1.95683E-02 2.58572E-03 5.54544E-05 6.17629E-05
 -1      5647 4.97870E-02-1.54919E-02-1.94425E-02 2.66010E-03-8.34461E-05-1.05038E-04
 -1      5648 2.31945E-05-2.69982E-05 2.44340E-06-1.52504E-05 9.66296E-08 8.06807E-09
 -1      5649 4.14041E-02-1.46432E-02-1.53460E-02-5.96635E-03-1.22274E-04-1.04304E-04
 -1      5650 4.36997E-02-1.45747E-02-1.70470E-02-7.99309E-03 4.66234E-06-3.36510E-05
 -1      5651-3.12444E-04 5.15766E-04-1.05393E-04-1.15090E-04 6.96512E-06 9.06216E-06
 -1      5652-5.15083E-04 6.09404E-04-4.44400E-05 5.87802E-05 3.11733E-06 2.09223E-05
 -1      5653-3.62363E-04 5.68153E-04-1.17702E-04-2.14975E-04 6.23669E-06 1.00631E-05
 -1      5654 4.99550E-02-1.56637E-02-1.93652E-02-5.11853E-03 3.27740E-04-4.21573E-04
 -1      5655 5.57426E-02-2.17304E-02-1.91431E-02 6.09591E-03-7.30872E-05 8.12540E-05
 -1      5656 4.34639E-02-1.14170E-02-1.28112E-02 4.10503E-04 3.10747E-04-2.97185E-03
 -1      5657 4.14797E-02-1.02638E-02-1.04195E-02-2.50470E-04 5.99032E-04-4.14067E-03
 -1      5658 4.88327E-02-1.42810E-02-1.96713E-02-1.00861E-03-6.83520E-05-3.62401E-05
 -1      5659 4.77276E-02-1.35411E-02-1.94832E-02-1.33617E-03 5.78446E-05 2.72367E-04
 -1      5660 4.15351E-02-1.20024E-02-1.66294E-02-1.18452E-03 1.03441E-04-2.07161E-04
 -1      5661 4.02580E-02-1.02374E-02-1.70190E-02-4.10593E-03 1.21547E-04-6.76025E-04
 -1      5662 2.53418E-04 3.13516E-04-3.17338E-04-7.32322E-04-1.43668E-06-4.00837E-07
 -1      5663 4.27462E-04 2.11534E-04-3.57940E-04-8.03883E-04-3.52681E-06-5.97138E-07
 -1      5664-4.64213E-05 4.85784E-04-2.43860E-04-7.72098E-04-2.87864E-06-9.69448E-06
 -1      5665 1.92304E-04 3.37742E-04-2.91406E-04-7.04404E-04 2.94647E-07-1.97952E-06
 -1      5666 5.11225E-02-1.56185E-02-1.98519E-02-1.77124E-04-6.02914E-06-3.04860E-04
 -1      5667 5.08788E-02-1.55591E-02-1.98660E-02 3.94832E-04-2.96719E-05 4.79619E-04
 -1      5668 3.53587E-03-1.51310E-03-1.11303E-03-4.15126E-04 6.55311E-06 2.31187E-07
 -1      5669-1.19840E-03 3.23903E-03-2.03608E-03-1.46567E-02-1.13639E-03 8.12695E-04
 -1      5670-4.76697E-03 6.05652E-03-1.29293E-03-1.02852E-02-2.77771E-04-6.69515E-05
 -1      5671 4.62518E-03 1.29968E-04-2.84867E-03-1.05420E-02-2.27062E-04-2.48635E-06
 -1      5672 8.30500E-03-2.23233E-03-2.99580E-03-6.97027E-03-1.02430E-04 7.20002E-05
 -1      5673 1.39539E-02-4.95582E-03-4.65280E-03-8.77017E-03-3.32155E-04 3.75937E-05
 -1      5674-1.97716E-08 2.34175E-08 6.47627E-10-2.11583E-09-2.81954E-09-1.42049E-09
 -1      5675-8.55733E-09 1.92331E-08-8.41992E-10 1.21193E-08 1.04858E-09-3.71653E-09
 -1      5676 7.17625E-05 1.38652E-05-4.93185E-05-2.77827E-05-2.39684E-06-4.11315E-06
 -1      5677 7.59406E-09 3.70266E-09-3.06827E-09 2.74780E-08-1.80146E-09-4.37348E-09
 -1      5678-1.24286E-08 2.11357E-08-2.44920E-09 1.67835E-08-2.41539E-09-4.25842E-09
 -1      5679-7.90555E-09 1.35527E-08-2.78385E-09 1.79431E-08-3.43794E-09-1.15329E-09
 -1      5680-3.45519E-06-5.05231E-06 5.68244E-06-1.57249E-05 2.60847E-07 3.83093E-07
 -1      5681-2.69961E-06-5.75015E-06 5.71238E-06-1.46048E-05 3.69568E-07 1.15814E-07
 -1      5682-4.68410E-06-1.06886E-06 3.45535E-06-5.01568E-06-6.23218E-08 7.97769E-08
 -1      5683-6.22944E-06-1.85386E-07 4.07015E-06-7.08367E-06-2.73546E-08 5.40757E-07
 -1      5684-5.79904E-06 5.33585E-08 3.96052E-06-6.85851E-06-3.64434E-07-7.81851E-07
 -1      5685 1.37467E-03-1.11873E-03-1.54742E-04-3.21731E-03-3.21558E-05-2.44370E-05
 -1      5686-9.45876E-05 4.69811E-04-2.11914E-04-3.97438E-04-8.02329E-07-1.33399E-06
 -1      5687-2.57549E-04 5.54670E-04-1.61178E-04-3.80964E-04 5.63431E-07-5.84279E-06
 -1      5688 5.06455E-02-1.67929E-02-1.90926E-02-1.32299E-04 2.84283E-06 3.98561E-05
 -1      5689 5.60664E-02-2.21025E-02-1.91469E-02-2.82618E-03 4.29963E-05 2.88498E-06
 -1      5690 5.42641E-02-2.07437E-02-1.88686E-02-4.27554E-03-9.52454E-05 2.84387E-05
 -1      5691 4.16578E-02-1.43586E-02-1.61991E-02 1.07756E-02-6.25760E-04-6.90090E-04
 -1      5692 4.21210E-02-1.49366E-02-1.55796E-02 1.03648E-02-9.23107E-04 5.00428E-04
 -1      5693 4.22790E-02-1.68531E-02-1.41596E-02 9.11480E-03-3.76845E-05 1.00168E-03
 -1      5694 1.63023E-05-2.00457E-05 2.56430E-06 1.41223E-05-2.16680E-07 4.13971E-07
 -1      5695 4.77685E-02-1.43384E-02-1.89595E-02 6.06787E-04 2.23112E-05-5.43809E-04
 -1      5696 4.75281E-02-1.46026E-02-1.86284E-02-1.24961E-03 6.96490E-05-8.02106E-04
 -1      5697 5.21648E-02-1.84583E-02-1.89686E-02 6.92889E-04-5.75921E-06-4.73488E-06
 -1      5698 3.87964E-03-4.52366E-05-2.01586E-03-4.87915E-03-6.49356E-05-2.14400E-04
 -1      5699 2.19034E-03 5.80683E-04-1.62425E-03-3.89159E-03 1.60961E-04-1.09674E-04
 -1      5700 4.27314E-04 2.12055E-04-3.58642E-04-8.04421E-04 3.69083E-06 1.44996E-06
 -1      5701 2.52444E-04 3.14102E-04-3.17184E-04-7.31648E-04 1.44359E-06-2.23419E-07
 -1      5702-4.91269E-05 4.81882E-04-2.36856E-04-7.71073E-04 2.54336E-06 9.88092E-06
 -1      5703-1.87880E-04 4.43698E-04-1.41063E-04-9.22069E-05 6.58292E-07-1.61625E-07
 -1      5704 2.45664E-04 3.10061E-04-2.98576E-04 7.46724E-04-8.47996E-07-8.83568E-08
 -1      5705 4.63177E-02-1.38764E-02-1.84250E-02 1.88207E-03 9.37932E-05 8.04544E-04
 -1      5706 4.61775E-02-1.44239E-02-1.78449E-02 1.93629E-03 4.02364E-04 1.06010E-03
 -1      5707-9.64532E-04 1.52718E-03-3.25112E-04 3.88603E-04-4.54225E-05-4.44222E-05
 -1      5708-1.25057E-05 4.07123E-04-2.22844E-04 5.50075E-04-4.59563E-05 6.70225E-06
 -1      5709-1.06410E-03 1.57870E-03-3.05293E-04 3.34835E-04-1.55229E-06 3.82259E-05
 -1      5710 5.02838E-03-4.68005E-03-2.40226E-04-3.19894E-03-8.60826E-05-3.61702E-05
 -1      5711-1.09979E-04 1.80223E-04-4.04963E-05-3.90257E-05 4.47420E-06-1.43042E-05
 -1      5712-3.02067E-04 3.82516E-04-4.10104E-05-1.15962E-04 2.81597E-06-1.41504E-05
 -1      5713-3.24710E-04 4.42551E-04-5.05976E-05-4.01834E-05 5.67791E-06-9.45892E-06
 -1      5714-3.93574E-04 6.38364E-04-1.37281E-04-3.70467E-04-1.14651E-05-1.14121E-05
 -1      5715-6.51150E-04 7.81855E-04-6.79643E-05-1.32978E-04-2.08212E-05-2.14694E-05
 -1      5716-3.01378E-04 6.27179E-04-1.73397E-04-5.67481E-04-3.63553E-06-1.61142E-05
 -1      5717 6.35556E-04-2.90091E-04-1.86336E-04-2.73579E-03 9.65872E-05 2.01490E-05
 -1      5718 2.32628E-03-1.36011E-03-5.15006E-04-1.67216E-03 4.19184E-05 2.10092E-05
 -1      5719 1.42126E-03-6.72516E-04-4.11954E-04-1.82329E-03 4.16081E-05 1.51217E-06
 -1      5720 5.18912E-02-1.86299E-02-1.87450E-02-2.48386E-03 1.30572E-06 3.50382E-05
 -1      5721-4.09976E-09 1.39282E-08-1.22097E-09 1.61617E-08 1.11954E-09-9.05737E-10
 -1      5722 4.63013E-04-1.74237E-04-1.87338E-04 2.59112E-03-7.60583E-05 2.69999E-05
 -1      5723-1.35098E-08 2.08024E-08-9.84843E-10 7.48288E-09-3.75247E-09 8.51580E-10
 -1      5724-1.27020E-08 2.33300E-08-3.12850E-09-3.62899E-09-3.53082E-09 4.42413E-10
 -1      5725-1.21244E-08 2.20406E-08-3.21043E-09-9.90464E-10-3.01539E-09-9.86502E-10
 -1      5726 5.18656E-02-1.85562E-02-1.87338E-02-2.59894E-03 1.65851E-05 3.70955E-05
 -1      5727 5.14846E-02-1.78699E-02-1.89667E-02-3.10488E-03-6.50639E-05 2.59178E-04
 -1      5728 5.14672E-02-1.78679E-02-1.89745E-02-2.86822E-03-2.93235E-05 9.34751E-05
 -1      5729 5.14990E-02-1.77629E-02-1.90166E-02-2.73393E-03-5.70367E-05 1.03072E-04
 -1      5730 9.77600E-05 3.89167E-04-2.72739E-04-5.86977E-04 2.89825E-06-1.81711E-06
 -1      5731-5.24041E-05 4.43098E-04-2.17496E-04-4.73465E-04 8.31043E-07 4.36519E-06
 -1      5732-1.74736E-04 5.16099E-04-1.93539E-04-4.76283E-04-7.35171E-07 5.24045E-06
 -1      5733-6.14971E-05 4.78366E-04-2.27515E-04-6.66417E-04 2.67072E-06 3.01776E-06
 -1      5734 8.39507E-05 3.92284E-04-2.66738E-04-5.73764E-04-3.44570E-06 1.33899E-06
 -1      5735-1.79403E-04 5.14125E-04-1.86464E-04-4.81478E-04-2.60018E-06-3.97775E-06
 -1      5736-6.44180E-05 4.47548E-04-2.11911E-04-4.59715E-04-2.34107E-06-8.30678E-07
 -1      5737 5.26130E-05 4.13193E-04-2.56339E-04-6.22107E-04 8.43202E-07-2.77144E-06
 -1      5738-6.15041E-05 4.80317E-04-2.30600E-04-6.65303E-04-4.54034E-08-5.23712E-06
 -1      5739-2.93907E-04 4.84023E-04-1.05313E-04 1.02476E-04 3.26908E-06-1.03286E-05
 -1      5740 5.13015E-02-1.72771E-02-1.92097E-02-3.84485E-03 5.35488E-05-2.20972E-04
 -1      5741 5.16807E-02-1.82628E-02-1.88312E-02-3.06412E-03-2.35719E-05-1.34727E-04
 -1      5742 5.12098E-02-1.74317E-02-1.90061E-02-2.91697E-03-4.80915E-05-9.36148E-05
 -1      5743 4.39749E-02-1.08801E-02-1.86968E-02 1.37414E-03 4.01749E-06 1.04230E-04
 -1      5744 7.82245E-03-6.78069E-03-6.22998E-04 1.68721E-03-2.09728E-04-1.00619E-04
 -1      5745 4.91106E-02-1.45759E-02-1.96987E-02-7.23079E-04-4.66364E-05-7.11869E-04
 -1      5746 4.13062E-02-9.50833E-03-1.79942E-02-3.78462E-03 8.11249E-05 6.75072E-04
 -1      5747 4.15552E-02-1.10481E-02-1.71645E-02-3.63790E-03-6.85658E-04 3.36954E-04
 -1      5748 4.06614E-02-1.04724E-02-1.70099E-02-3.86633E-03-2.27079E-04 5.47140E-04
 -1      5749 1.32243E-04 3.62115E-04-2.82225E-04 8.59513E-04 1.97066E-06-1.01522E-05
 -1      5750-3.90370E-04 5.25437E-04-5.64232E-05 3.81110E-05 6.00506E-06-2.58507E-06
 -1      5751-3.37907E-04 4.22036E-04-4.88297E-05 1.02545E-04 2.85926E-06 1.55770E-05
 -1      5752-4.73197E-03 5.51542E-03-9.03625E-04 8.71475E-03-1.19953E-05-3.02774E-04
 -1      5753-9.91232E-09 1.92028E-08-4.68127E-09-8.85664E-09-2.80927E-09-1.15988E-09
 -1      5754-1.06830E-08 2.12677E-08-4.13386E-09-6.20505E-09-3.15268E-09 2.99672E-10
 -1      5755-1.48333E-08 2.45417E-08-2.21674E-09 2.01216E-10-2.31378E-09 6.86164E-10
 -1      5756-1.24174E-08 2.51409E-08-4.01679E-09-4.51867E-09-4.72224E-09 2.29972E-10
 -1      5757-5.56882E-03 6.36409E-03-6.78549E-04-8.64755E-03-1.01843E-04 4.43859E-04
 -1      5758 5.24328E-02-1.87284E-02-1.89683E-02 1.48429E-03-1.18084E-05-8.65313E-06
 -1      5759 6.82850E-02-2.77630E-02-2.25560E-02-5.76828E-03 3.47829E-04-8.77570E-04
 -1      5760 5.94874E-02-2.42837E-02-1.98492E-02-9.54006E-03 5.55962E-04-5.54506E-04
 -1      5761 5.96421E-02-2.29041E-02-2.09193E-02-1.40752E-02 6.82924E-04-6.99242E-04
 -1      5762 4.52703E-02-1.22800E-02-1.88239E-02-1.08361E-03 1.20426E-04 4.62676E-04
 -1      5763 4.24901E-02-1.18702E-02-1.74384E-02 7.94168E-04-3.75316E-04 4.12347E-04
 -1      5764 4.41355E-02-1.06789E-02-1.86919E-02 1.60381E-03-1.56491E-05-1.17717E-04
 -1      5765 3.36077E-03-2.88345E-03-2.72680E-04-3.21709E-03 1.49522E-04-1.05487E-05
 -1      5766 5.07934E-03-4.57468E-03-3.06630E-04-3.18378E-03 9.31361E-05 2.63608E-05
 -1      5767 4.71029E-03-3.18817E-03-7.89741E-04-3.36149E-04 9.60663E-05 1.58252E-05
 -1      5768-2.93705E-05 4.93420E-07 1.85168E-05 4.29323E-05 3.16038E-06-7.55898E-06
 -1      5769 2.77109E-05-3.19597E-05 1.43036E-06 4.33075E-05-1.23350E-06-1.24311E-06
 -1      5770-1.20297E-05-8.39693E-07 7.84576E-06-1.74703E-05-6.92017E-07 9.12577E-07
 -1      5771-2.37969E-05 2.83285E-06 1.21441E-05-2.40811E-05-1.55272E-06 3.67173E-06
 -1      5772 6.39809E-06-1.43923E-05 4.52246E-06-2.63153E-05-3.45982E-07 7.60714E-07
 -1      5773 4.57873E-02-1.44400E-02-1.73052E-02 2.46830E-03-4.40364E-04-3.63133E-04
 -1      5774 4.89402E-02-1.45201E-02-1.93510E-02-1.92641E-03-1.76703E-04 5.69668E-04
 -1      5775 4.86946E-02-1.53749E-02-1.88265E-02-1.69439E-03-1.65861E-04 1.07604E-03
 -1      5776 4.97756E-02-1.59447E-02-1.90560E-02-6.49345E-04 2.24006E-05-1.11431E-04
 -1      5777 5.08326E-02-1.70805E-02-1.90040E-02-7.48112E-04 1.34269E-05-3.62971E-05
 -1      5778 2.76188E-03-1.47975E-03-7.00959E-04-9.65867E-04 5.70348E-06 3.30335E-06
 -1      5779 2.76051E-03-1.47773E-03-6.99327E-04-9.70624E-04-3.28585E-06 1.11811E-06
 -1      5780-2.51621E-05 3.25068E-06 1.45004E-05 2.42777E-05-8.31696E-07 6.13098E-06
 -1      5781 1.23022E-05-2.09431E-05 4.59137E-06 3.08324E-05 2.97285E-07-9.78131E-08
 -1      5782 3.54360E-03-2.43116E-03-6.06194E-04-1.39721E-03 6.58353E-05-2.75302E-05
 -1      5783 4.09387E-02-1.28995E-02-1.57091E-02-8.30836E-04 5.17286E-04 3.27933E-04
 -1      5784 4.07880E-02-1.28754E-02-1.57745E-02-5.86721E-04-4.06624E-04-4.43044E-04
 -1      5785 4.17651E-03-7.18325E-04-1.82941E-03 3.76794E-03 1.04883E-05 1.19636E-05
 -1      5786 5.39682E-02-2.02325E-02-1.89752E-02 5.51543E-04 2.51044E-05 2.35074E-05
 -1      5787 5.38411E-02-2.01333E-02-1.89659E-02-6.47672E-04 1.16044E-05 1.25515E-05
 -1      5788 1.51377E-02-1.07821E-02-2.40209E-03-2.90358E-03-5.38678E-04-3.10599E-04
 -1      5789-9.62589E-09 2.14562E-08-4.01003E-09 1.23684E-08-3.09275E-09-1.75131E-09
 -1      5790-1.33511E-08 2.40732E-08-2.78637E-09-1.84006E-09-2.72627E-09-2.04607E-09
 -1      5791-1.21629E-08 2.22862E-08-2.93434E-09 8.12248E-09-1.42376E-09-7.15358E-10
 -1      5792-1.49966E-08 2.54339E-08-2.58514E-09-3.22695E-09-3.01341E-09-4.00425E-10
 -1      5793-3.52017E-09 6.02029E-09 3.85850E-09 2.22377E-08-2.65292E-09-1.00827E-09
 -1      5794 9.90128E-09-4.39659E-09 9.83575E-10 1.86265E-08 9.20710E-12-2.44274E-09
 -1      5795 4.70311E-03 7.00349E-04-2.43802E-03 9.10677E-03-1.75873E-04 1.76152E-04
 -1      5796-1.65325E-08 2.78821E-08-5.24532E-09 6.59470E-09-3.76412E-10 4.18435E-10
 -1      5797-1.32699E-08 2.48231E-08-4.58413E-09-1.07333E-09-2.59254E-09 9.87010E-10
 -1      5798-1.62914E-08 2.69778E-08-4.80714E-09 1.58329E-09-1.79394E-09-3.30863E-10
 -1      5799-1.29519E-08 2.40097E-08-4.55081E-09-6.17174E-09-3.05277E-09 1.23306E-09
 -1      5800-6.60702E-05 2.16960E-05 3.19573E-05-5.34066E-05 1.78354E-06 8.14619E-06
 -1      5801 1.40685E-02-7.87093E-03-3.21015E-03 4.51036E-03-6.01176E-05 5.43387E-04
 -1      5802 1.10852E-02-7.98919E-03-1.31780E-03 2.55579E-03-3.13006E-04 3.10014E-04
 -1      5803 5.04106E-02-1.50794E-02-2.00598E-02 5.69225E-03 5.96931E-04 7.07807E-04
 -1      5804 5.19579E-02-1.70715E-02-1.96771E-02 5.36729E-03 2.81356E-04 6.40359E-04
 -1      5805 5.27294E-02-1.79659E-02-1.97109E-02 4.14645E-03 4.77553E-05 5.20445E-04
 -1      5806 6.41492E-04 8.98865E-05-4.07752E-04 8.61469E-04 4.65871E-06 4.27770E-06
 -1      5807-1.42877E-08 2.38105E-08-3.15914E-09 5.11672E-09-1.55283E-09 4.54478E-10
 -1      5808-4.47795E-05-5.08678E-06-2.27932E-05-4.40425E-05-3.84170E-05-3.86881E-05
 -1      5809 1.45453E-04 1.32711E-04-1.96246E-04 4.03141E-04-9.00451E-05-7.72553E-06
 -1      5810-2.16125E-05 1.95506E-04-7.54807E-05 2.02825E-04 5.07618E-06 2.20882E-05
 -1      5811 8.96582E-06 1.96083E-04-8.38639E-05 2.07292E-04-1.46091E-05-7.75991E-06
 -1      5812 1.33681E-02-9.43534E-03-2.14946E-03 1.99344E-03 5.74471E-04-1.08612E-04
 -1      5813-3.22172E-05 4.86065E-04-2.38950E-04-1.10582E-03-1.27658E-05-2.02314E-05
 -1      5814-8.37026E-04 1.00794E-03-9.31134E-05-7.90789E-04-3.18759E-05-2.78666E-05
 -1      5815-2.41709E-04 6.09080E-04-2.02320E-04-8.61642E-04-1.65583E-05-1.15004E-05
 -1      5816 4.24946E-06-1.12735E-05 3.99672E-06 1.95250E-05-2.51580E-07-5.79516E-07
 -1      5817 1.35719E-05-2.21509E-05 4.55237E-06 3.27956E-05-2.92264E-06-2.22586E-07
 -1      5818 4.58778E-06-1.16379E-05 4.07116E-06 1.86369E-05-4.34771E-07 7.11638E-07
 -1      5819 6.82428E-03-4.39223E-03-1.19656E-03-2.02527E-03 1.37271E-04 1.83582E-04
 -1      5820 1.02509E-02-8.62443E-03-9.44813E-04 5.38748E-04 1.68462E-04 1.01077E-04
 -1      5821 7.34544E-03-4.20630E-03-1.74145E-03-3.65102E-03 8.73828E-05 1.15918E-04
 -1      5822 2.15869E-03-1.05686E-03-6.15411E-04 1.20410E-03 2.07181E-05-1.51678E-05
 -1      5823-1.38017E-08 2.15409E-08-1.49549E-09-7.85860E-10-2.21495E-09 3.38087E-09
 -1      5824 5.20028E-02-1.88169E-02-1.86587E-02-2.75548E-03 3.05578E-05 4.17877E-05
 -1      5825-1.92463E-05 4.38103E-04-2.35663E-04-4.79695E-04-7.34229E-07-1.21943E-06
 -1      5826 3.95270E-02-1.23292E-02-1.53145E-02 5.60702E-03 6.98977E-04 5.84691E-04
 -1      5827 4.88701E-02-1.53760E-02-1.90696E-02 1.16290E-04-2.22089E-05 7.20383E-04
 -1      5828 4.86095E-02-1.51396E-02-1.88856E-02-1.02206E-05 7.38492E-06 3.82020E-04
 -1      5829 4.71089E-02-1.18723E-02-1.98682E-02 4.67989E-03 3.35715E-04 1.63340E-04
 -1      5830 5.02096E-02-1.55619E-02-1.96445E-02 4.20207E-03-6.30531E-05-1.04492E-05
 -1      5831 5.18337E-02-1.85588E-02-1.87149E-02-2.62139E-03-1.11106E-05 3.30477E-05
 -1      5832-4.59892E-05 4.97302E-04-2.36298E-04-1.11394E-03 8.07440E-06 1.97729E-05
 -1      5833-8.13843E-04 9.90490E-04-9.21545E-05-6.70537E-04 3.05003E-05 1.73532E-05
 -1      5834-2.55750E-04 6.16132E-04-1.98647E-04-8.59369E-04 1.87718E-05 1.73749E-05
 -1      5835-2.00072E-08 2.13167E-08 2.20264E-09-1.92166E-08 2.44439E-09 3.87713E-09
 -1      5836-3.32948E-08 3.23405E-08 2.63344E-09-1.38281E-08-1.28710E-09 7.73114E-09
 -1      5837-1.41100E-08 1.85845E-08 1.87926E-09-2.67509E-08 3.79495E-10 7.80696E-09
 -1      5838-8.82999E-05 4.60321E-04-2.07872E-04 3.57874E-04 4.36617E-07-1.82046E-06
 -1      5839-2.38581E-04 5.16257E-04-1.53321E-04 2.88302E-04-1.68951E-06 6.56605E-07
 -1      5840-6.70476E-07-5.25212E-07 8.92731E-07-3.15563E-07 3.07930E-07-1.51057E-08
 -1      5841 2.31345E-07-5.21183E-07 2.37355E-07 4.24154E-08 7.35701E-08 1.46859E-07
 -1      5842-4.49924E-07-8.01414E-07 9.82440E-07-2.94978E-07-4.55734E-08-9.06901E-08
 -1      5843 3.42906E-03-4.61145E-04-1.64269E-03-3.28853E-03 6.81702E-05-7.62460E-05
 -1      5844 7.47764E-03-6.38439E-03-5.78588E-04-1.71668E-03-1.18058E-04 1.07155E-04
 -1      5845 7.41015E-03-4.37527E-03-1.51632E-03 3.23512E-03-1.89658E-04 7.23443E-05
 -1      5846 1.49698E-02 2.95813E-03-1.11842E-02-1.90612E-02 2.28892E-03-3.19555E-04
 -1      5847 6.97936E-03 3.68411E-03-6.65797E-03-1.10152E-02 1.50620E-03-3.41363E-04
 -1      5848 2.60320E-02-2.96168E-03-1.30149E-02-1.48202E-02 8.99218E-04-1.25290E-04
 -1      5849 2.56540E-02-6.06436E-03-1.09177E-02-1.15139E-02 1.48656E-03-2.76611E-04
 -1      5850 7.84921E-08-2.28946E-08-5.62682E-08-4.31332E-10 1.56659E-09 6.81697E-09
 -1      5851 8.22445E-08-2.09409E-08-6.93021E-08 2.57764E-08-1.88389E-08-3.58185E-08
 -1      5852 5.72307E-08-3.38529E-08-2.83376E-08-2.81559E-08-2.01267E-09-1.30411E-08
 -1      5853-8.47917E-04 9.61430E-04-5.81265E-05-4.15131E-04-1.16586E-05-1.86124E-05
 -1      5854 5.28225E-02-1.92859E-02-1.88444E-02 2.58015E-03-2.20710E-05-2.09107E-05
 -1      5855 5.24689E-02-1.88716E-02-1.89273E-02 1.99897E-03-2.71946E-07-7.03982E-06
 -1      5856-8.46419E-04 9.73057E-04-6.33463E-05 4.19859E-04-1.45299E-05 1.80449E-05
 -1      5857 5.77299E-03 1.95448E-03-4.52180E-03 6.06559E-03 2.19204E-05 1.01122E-04
 -1      5858 5.85728E-03 1.96390E-03-5.92722E-03 6.25541E-03-3.66501E-04 2.28773E-04
 -1      5859-2.67645E-04 4.83241E-04-1.28013E-04-2.23895E-03-2.05818E-05-2.71512E-05
 -1      5860 3.62331E-03 2.11042E-04-2.20067E-03 4.77170E-03-8.50520E-05-1.91030E-04
 -1      5861 6.55574E-03-2.73494E-03-2.03927E-03 5.04884E-03-5.26199E-05-1.17199E-06
 -1      5862-1.19075E-06-1.41812E-06 1.97715E-06-3.78950E-06-1.14685E-07-9.23470E-09
 -1      5863 4.67719E-02-1.11616E-02-1.98729E-02 6.90469E-03 6.09850E-04 7.26751E-04
 -1      5864 4.30884E-02-9.01672E-03-1.92538E-02 4.76144E-03 6.53867E-04-3.89329E-04
 -1      5865 4.58885E-02-8.70098E-03-2.01775E-02 7.24762E-03 8.42306E-04 3.61236E-05
 -1      5866 4.34519E-02-8.09777E-03-1.97965E-02 4.09392E-03 5.98137E-04 7.72819E-05
 -1      5867 4.85368E-02-1.40070E-02-1.96223E-02 7.26747E-04-2.57069E-07-8.33733E-05
 -1      5868 3.11489E-02-1.20179E-02-1.31232E-02 1.11886E-02 3.57450E-04-1.78567E-03
 -1      5869 3.47712E-02-1.44774E-02-1.07878E-02 1.07734E-02 4.87605E-04-5.61961E-04
 -1      5870 2.66978E-02-6.40207E-03-1.14754E-02 1.15322E-02-9.59735E-04-5.22006E-04
 -1      5871 1.52395E-02 2.62766E-03-1.14975E-02 1.58936E-02-1.34474E-03-6.10878E-04
 -1      5872-8.88866E-05 4.60515E-04-2.07682E-04 3.57659E-04-4.36889E-07 1.66813E-06
 -1      5873-2.39005E-04 5.15703E-04-1.52714E-04 2.89716E-04 2.74561E-06-1.27929E-06
 -1      5874 5.24764E-02-1.94139E-02-1.86103E-02-4.13757E-03-1.03221E-04 2.87152E-05
 -1      5875 5.51558E-02-2.14793E-02-1.91191E-02 9.07215E-03-5.61099E-05-1.63824E-05
 -1      5876 5.88392E-02-2.37547E-02-1.97740E-02 7.88086E-03-2.00844E-04-2.47935E-04
 -1      5877-3.74196E-06 4.32313E-04-2.40708E-04-4.94697E-04 1.99001E-06 1.01990E-06
 -1      5878-8.31250E-05 4.64519E-04-2.15110E-04-4.09201E-04 1.11653E-06-1.16858E-07
 -1      5879-2.48701E-04 5.50437E-04-1.64340E-04-3.84201E-04 1.72530E-06 2.68155E-06
 -1      5880 5.78573E-02-2.33685E-02-1.94297E-02-3.01163E-03 4.98395E-05 8.86686E-05
 -1      5881 5.71752E-02-2.29016E-02-1.92889E-02-6.76857E-04-2.19145E-06 1.25736E-05
 -1      5882-1.44571E-04 2.13539E-04-4.04267E-05 7.25824E-05 9.89073E-07 1.24309E-05
 -1      5883 3.86225E-02-1.22053E-02-1.48992E-02 3.20631E-03-3.69236E-04-4.05565E-05
 -1      5884 2.51362E-03 3.30032E-03-3.70191E-03 5.22597E-03-1.00682E-04 3.88545E-04
 -1      5885 2.10630E-03 2.57543E-03-2.67157E-03 5.47888E-03 7.22726E-05 6.13799E-04
 -1      5886 7.46005E-03 1.03314E-03-4.71215E-03 8.26556E-03-2.73039E-04 2.58777E-04
 -1      5887 4.58753E-03 1.37132E-03-3.42091E-03 5.84452E-03 1.24302E-05 2.75543E-04
 -1      5888 5.16433E-02-1.79248E-02-1.89887E-02 2.67857E-03-2.36571E-05-9.49626E-05
 -1      5889 5.20062E-02-1.82388E-02-1.89843E-02 2.09061E-03 3.88240E-06-2.72132E-05
 -1      5890 1.06205E-07-4.59576E-09-9.97050E-08-4.14534E-08-8.68739E-08 1.30444E-07
 -1      5891 1.29267E-07-1.02393E-07-1.10566E-08-1.82689E-08-2.76212E-08 1.56349E-07
 -1      5892 1.92849E-07-3.93812E-08-9.74397E-08 3.94883E-08 1.90246E-08 1.66735E-08
 -1      5893 1.60676E-07 5.73248E-08-2.40810E-07 2.05784E-08-1.64052E-08-2.11156E-09
 -1      5894-1.56711E-04 4.58890E-04-1.66880E-04 2.36845E-04 1.10708E-07 1.54587E-07
 -1      5895 3.60654E-03 2.39921E-04-2.20436E-03 4.74923E-03 5.71848E-05 1.80047E-04
 -1      5896 6.51694E-03-2.59887E-03-2.10900E-03 5.12336E-03-7.69342E-05-2.15611E-05
 -1      5897 2.95751E-07-3.39648E-07 9.30422E-08 5.70981E-08 9.73878E-08 1.12336E-07
 -1      5898 2.50322E-04 2.46360E-04-2.75860E-04-1.45503E-03 3.31499E-05 8.97590E-06
 -1      5899-5.57978E-04 7.98759E-04-1.25318E-04-1.66401E-03 5.21086E-05 2.03482E-05
 -1      5900 7.79542E-04-1.27983E-04-3.48677E-04-1.62780E-03 1.69238E-05 1.97294E-05
 -1      5901 3.81498E-03-1.48156E-03-1.31707E-03-1.29436E-03 4.42334E-05 3.20406E-06
 -1      5902 3.72483E-03-1.53757E-03-1.23266E-03-8.67583E-04 2.26485E-05-4.82977E-06
 -1      5903 3.97726E-03-2.30570E-03-9.32171E-04-5.56946E-06 2.69448E-05-2.98729E-05
 -1      5904 5.20469E-02-1.88174E-02-1.86943E-02 2.99384E-03 1.22149E-05-3.93299E-05
 -1      5905 5.22726E-02-1.89553E-02-1.87345E-02 2.70261E-03 2.16261E-05-4.38674E-05
 -1      5906 4.82991E-02-1.49834E-02-1.88172E-02 1.26054E-04 6.46411E-06 4.11150E-04
 -1      5907 4.82141E-02-1.41042E-02-1.94136E-02 3.40280E-04-9.31697E-05-4.49498E-04
 -1      5908 3.96076E-02-1.48362E-02-1.35824E-02-8.28837E-03 4.72419E-04 2.98985E-04
 -1      5909 4.71663E-02-1.58080E-02-1.65933E-02-7.46114E-03-5.55512E-04-5.41793E-04
 -1      5910 5.66949E-02-2.15813E-02-1.91653E-02-1.76346E-02 1.13668E-03 7.72360E-04
 -1      5911 4.01129E-02-1.24351E-02-1.60172E-02-7.17734E-03 7.35426E-05-5.63317E-04
 -1      5912 3.96382E-02-1.24670E-02-1.53689E-02-2.34279E-03-4.38129E-04-6.34857E-05
 -1      5913 4.09089E-02-6.84868E-03-1.91390E-02 4.25984E-03 1.13117E-03-9.82000E-04
 -1      5914 5.16461E-02-1.32413E-02-2.06009E-02 1.08234E-02 2.02061E-04 2.44517E-04
 -1      5915 5.15501E-02-1.46228E-02-2.04243E-02 7.36104E-03 1.68625E-04 4.76906E-04
 -1      5916 5.35262E-02-1.26209E-02-1.94732E-02 1.38342E-02-4.92722E-05-6.27374E-04
 -1      5917 5.13658E-02-1.27153E-02-1.97535E-02 9.28201E-03 1.92311E-04-2.10462E-04
 -1      5918 2.70584E-06-6.14326E-06 1.89355E-06-4.10526E-06-3.43983E-07 6.30381E-08
 -1      5919 3.88745E-02-1.09570E-02-1.57862E-02-2.24128E-03-6.25271E-05-1.91611E-05
 -1      5920 4.44508E-02-1.19019E-02-1.84883E-02 3.51510E-04 3.85146E-04 1.26894E-04
 -1      5921 4.30545E-02-1.09351E-02-1.79513E-02-2.47034E-03 3.08172E-04 7.71813E-05
 -1      5922 3.65260E-02-1.06523E-02-1.47769E-02-3.97279E-03 7.04524E-06-1.32617E-04
 -1      5923 1.89849E-03-7.28810E-04-6.46230E-04-9.00374E-04 4.68487E-07-1.21337E-06
 -1      5924 3.93836E-02-1.30891E-02-1.51716E-02-6.81097E-03-1.99973E-04-3.50900E-04
 -1      5925 4.92640E-02-1.52670E-02-1.91052E-02-1.28963E-02-4.60805E-04-8.65886E-04
 -1      5926 5.33667E-02-1.81613E-02-2.02653E-02 5.81072E-03-4.72398E-04-1.32469E-03
 -1      5927-3.89513E-04 4.79718E-04-4.84464E-05-8.80803E-05 5.74860E-06-1.81856E-05
 -1      5928-3.38036E-04 5.51416E-04-1.14420E-04 1.87329E-04 3.48132E-06-9.91692E-06
 -1      5929 2.89167E-02-5.29595E-03-1.34450E-02 1.38051E-02-3.99164E-04-1.78258E-04
 -1      5930 3.85179E-02-1.15278E-02-1.57229E-02 3.13645E-03 1.29376E-04 2.32223E-04
 -1      5931 3.53071E-02-2.80556E-03-1.74728E-02 1.81303E-02-4.57470E-04-1.00556E-03
 -1      5932 4.12652E-02-1.11998E-02-1.70386E-02 2.67423E-03-3.15053E-04 1.75332E-04
 -1      5933-2.40763E-08 2.18857E-08 5.31836E-09 2.77729E-08-1.00710E-09-3.02336E-09
 -1      5934-1.48127E-08 1.27238E-08 5.84100E-09 2.60819E-08-1.39878E-09-2.53176E-09
 -1      5935-1.84658E-04 4.56296E-04-1.52499E-04-1.05221E-04-6.01465E-07-7.11879E-07
 -1      5936-1.92413E-04 4.53384E-04-1.47139E-04-5.17132E-05-2.12964E-07-2.57013E-07
 -1      5937-1.94409E-04 4.45191E-04-1.36638E-04-5.22128E-05 1.11512E-06-1.15928E-06
 -1      5938-2.17770E-04 4.20454E-04-1.10614E-04-4.15559E-05 1.52803E-06-3.97733E-06
 -1      5939 4.86209E-02-1.42461E-02-1.97084E-02-1.42362E-04-8.23848E-06-2.91298E-04
 -1      5940 5.12007E-02-1.54842E-02-1.99153E-02-6.20809E-04-6.03244E-05 5.58971E-04
 -1      5941 4.11950E-02-1.51053E-02-1.40562E-02-8.48062E-03 3.70467E-04 1.48601E-03
 -1      5942 3.89537E-02-1.60044E-02-1.32712E-02-1.17494E-02-2.51585E-05 9.79350E-04
 -1      5943 4.37090E-02-1.47478E-02-1.65581E-02 8.29148E-03-1.29064E-04-1.32655E-03
 -1      5944 4.82690E-02-1.76156E-02-1.73955E-02 7.70005E-03-1.52915E-04-4.78575E-04
 -1      5945 4.97514E-02-1.59674E-02-1.90423E-02 1.63425E-05 5.93325E-06 8.34020E-05
 -1      5946 5.32438E-02-1.96086E-02-1.89458E-02 1.78745E-03-6.55480E-06 3.76332E-06
 -1      5947 5.24006E-02-1.88134E-02-1.88973E-02 2.39055E-03-5.28398E-06 3.81740E-06
 -1      5948 4.14278E-03 1.18429E-03-3.11175E-03-5.62922E-03-1.85093E-04 1.59930E-04
 -1      5949-1.34482E-08 2.37491E-08-2.57526E-09-1.72000E-09-3.60084E-09-3.34785E-09
 -1      5950-1.72774E-03 2.72745E-03-5.52255E-04-2.27011E-03-7.55557E-06-8.56288E-05
 -1      5951 9.33296E-03 1.14385E-03-6.00972E-03 1.02314E-02-6.75045E-04 6.74248E-04
 -1      5952 2.99216E-03-1.39112E-03-8.81471E-04-3.74627E-04 1.83441E-05 1.38680E-06
 -1      5953 2.99354E-03-1.39150E-03-8.83712E-04-3.72781E-04-1.53422E-05-9.84884E-07
 -1      5954 2.62618E-06-4.97261E-06-4.69077E-05-7.75940E-07 4.46087E-05 3.66030E-05
 -1      5955-1.11770E-05 1.89769E-04-8.31862E-05 1.72405E-04 1.92347E-05 1.30497E-05
 -1      5956-8.17024E-04 9.77105E-04-9.22232E-05 6.76427E-04 2.02368E-05-2.87650E-05
 -1      5957-2.95045E-03 3.82856E-03-4.57540E-04 1.24329E-03 1.47672E-05-9.65838E-05
 -1      5958 5.57837E-02-1.66480E-02-2.10704E-02 1.29597E-02-4.06876E-04 4.76054E-04
 -1      5959 5.26528E-02-1.31168E-02-1.98915E-02 1.18968E-02 4.38417E-04-2.70283E-04
 -1      5960 3.95635E-02-1.05172E-02-1.28230E-02 3.24729E-03-1.04055E-03 5.78081E-03
 -1      5961 3.36105E-02-9.58007E-03-1.37093E-02-9.58631E-03 7.27613E-04-6.38133E-04
 -1      5962 4.00389E-02-1.11388E-02-1.65510E-02-8.34948E-03 3.61522E-04-9.53332E-04
 -1      5963 4.06690E-02-1.06893E-02-1.40499E-02-2.57421E-03 1.08013E-03 3.06123E-03
 -1      5964 4.10051E-02-1.13082E-02-1.11845E-02-1.38659E-03 6.01739E-04 3.10888E-03
 -1      5965-7.09995E-09 1.03052E-08 2.34031E-10 2.39666E-08 1.17372E-09 1.17686E-09
 -1      5966-2.56963E-08 2.65616E-08 3.37658E-10 1.14549E-08 1.58365E-09-1.92993E-10
 -1      5967-8.90658E-03 8.54237E-03 1.41256E-04-4.24646E-03-9.01830E-05 2.17357E-04
 -1      5968-2.38536E-09 1.77692E-08-5.98275E-09 3.62688E-08 2.83028E-10-1.02996E-09
 -1      5969-2.21951E-08 3.48991E-08-5.17194E-09 2.20866E-08-4.30488E-10-2.89574E-09
 -1      5970 5.15328E-02-1.65676E-02-1.97925E-02 4.42851E-03-1.65297E-05-1.19548E-04
 -1      5971 5.21942E-02-1.79680E-02-1.94497E-02 3.38219E-03 7.61464E-05 2.30043E-04
 -1      5972 5.23009E-02-1.82754E-02-1.93260E-02 3.05092E-03-1.37206E-05-1.33395E-04
 -1      5973 5.15107E-02-1.73411E-02-1.92971E-02 3.38882E-03 4.00515E-05 2.07285E-05
 -1      5974 4.09128E-02-1.09287E-02-1.31027E-02 2.52818E-03 2.20426E-04-2.58615E-03
 -1      5975 4.77363E-02-1.46160E-02-1.84123E-02-1.79340E-03-1.32547E-04 1.49663E-04
 -1      5976 4.12514E-02-1.15360E-02-9.88765E-03 2.52890E-03 2.44304E-04-2.86314E-03
 -1      5977 4.95981E-02-1.48740E-02-1.78450E-02-1.77227E-03-3.59033E-04-9.99289E-04
 -1      5978 4.98898E-02-1.50847E-02-1.88075E-02-9.73662E-04-1.11740E-03-7.91367E-04
 -1      5979 1.37506E-02 4.39200E-03-1.08201E-02 1.91790E-02-2.09889E-03-1.15693E-03
 -1      5980-5.29252E-09-1.89738E-09 9.56185E-09 2.55819E-08-4.71531E-09 1.61685E-10
 -1      5981 1.10755E-08-1.52656E-08 5.64815E-09 2.10127E-08 8.54791E-10 2.67286E-09
 -1      5982-1.03012E-08 2.10109E-08-3.00946E-09 1.34868E-08-1.85569E-09-2.63600E-09
 -1      5983 4.55338E-02-1.25303E-02-1.86869E-02-5.04104E-04-1.65637E-04 3.56898E-04
 -1      5984 4.64329E-02-1.26947E-02-1.89497E-02-2.33908E-03-3.09714E-04 3.27016E-04
 -1      5985 4.49259E-02-1.13973E-02-1.89072E-02-2.18052E-03-2.17111E-04 3.52549E-04
 -1      5986-8.53012E-03 8.54821E-03-2.53363E-04 5.24332E-03 2.76823E-05-3.40274E-04
 -1      5987-8.36499E-03 8.76488E-03-1.92755E-04 2.05238E-03-5.03139E-05-2.90347E-04
 -1      5988-3.54901E-03 5.02349E-03-7.69223E-04 4.34169E-03-3.74748E-05-2.12811E-04
 -1      5989 2.46211E-07-1.40279E-07-5.95257E-08 1.15032E-08-1.25767E-07-9.81539E-08
 -1      5990-1.83401E-07-4.17711E-07 4.22502E-07 9.28523E-08 9.22439E-08-2.06360E-08
 -1      5991 1.80569E-07-1.64615E-07-2.59100E-08 5.24384E-08 4.05290E-08-1.33577E-07
 -1      5992 4.70334E-02-1.36536E-02-1.89411E-02 5.55233E-05-6.74850E-05 3.63658E-04
 -1      5993 4.68982E-02-1.37881E-02-1.88585E-02 1.03854E-03 5.86655E-05 6.63846E-04
 -1      5994 3.82486E-02-1.18878E-02-1.48878E-02-1.62133E-03 6.56058E-04 2.41826E-04
 -1      5995 4.43637E-02-1.40916E-02-1.68575E-02 1.98329E-03 5.08511E-04 6.60273E-04
 -1      5996 2.28745E-08 2.65805E-08-2.56898E-08-7.93531E-08-1.65396E-09 9.75278E-10
 -1      5997-3.01700E-09 4.59545E-08-2.10577E-08-6.41272E-08-7.81422E-10 4.69799E-09
 -1      5998-6.08237E-08-1.00073E-08 3.89001E-08 4.19221E-08-3.64531E-09-1.35926E-09
 -1      5999-1.87815E-08 2.01927E-08 2.28881E-09-1.07030E-08-1.14152E-09-4.96390E-10
 -1      6000-3.83470E-09 6.09714E-09 2.28588E-09-2.01138E-08-4.61290E-09-1.05179E-09
 -1      6001 5.22292E-02-1.88247E-02-1.88069E-02 2.51915E-03-2.49933E-05 2.20223E-05
 -1      6002 5.19685E-02-1.86215E-02-1.87758E-02 2.57972E-03 9.91671E-06 2.70658E-05
 -1      6003 5.20365E-02-1.86864E-02-1.87311E-02 2.66401E-03-3.31979E-06 4.59760E-05
 -1      6004 5.22690E-02-1.89235E-02-1.87669E-02 2.61326E-03-1.61922E-05 3.85933E-05
 -1      6005 4.22860E-07-3.66124E-07 4.66291E-09-1.19264E-07-7.92120E-08-2.68607E-08
 -1      6006-1.11817E-08 2.14380E-08-3.24034E-09 7.31733E-09-2.37954E-09-1.38568E-09
 -1      6007 3.44193E-03 4.69018E-04-2.49452E-03 9.23273E-03-6.69650E-05-6.46354E-04
 -1      6008-3.88040E-03 5.38986E-03-1.57830E-03 1.11129E-02-1.45495E-05 1.77514E-04
 -1      6009 1.06713E-02-3.51183E-03-3.85591E-03 7.04720E-03-3.91895E-04-1.40890E-04
 -1      6010 1.78019E-03 1.14452E-03-2.37216E-03 1.65667E-02-6.40475E-04-8.87789E-04
 -1      6011 9.12444E-05 3.95008E-04-2.68150E-04 6.67880E-04 1.61218E-08 6.46217E-07
 -1      6012 1.53581E-08-3.55711E-09-1.11462E-09 2.59201E-08 2.54297E-09-8.51626E-09
 -1      6013-1.54700E-08 3.13620E-09 8.05736E-09 4.75112E-08 3.99425E-09-7.11683E-09
 -1      6014 1.62086E-09-8.83015E-09 7.20462E-09 4.39907E-08 5.57931E-09-5.18390E-09
 -1      6015 2.29939E-08-1.69828E-08 3.11663E-10 1.49765E-08 2.58092E-09-1.97133E-09
 -1      6016 4.06733E-02-1.19765E-02-1.62453E-02 1.03399E-03-1.90946E-04 3.02314E-04
 -1      6017-9.82999E-08 9.20738E-09 4.51601E-08 5.01246E-08 2.52163E-09-5.54105E-09
 -1      6018-2.39573E-08 2.26859E-08 5.86028E-09-2.12636E-08-2.26629E-09-1.24271E-10
 -1      6019 4.37989E-02-1.18179E-02-1.81761E-02 5.75105E-05-5.19930E-04-1.28841E-04
 -1      6020 3.16422E-03-1.43211E-03-9.74521E-04-1.64973E-04 1.56805E-05-3.84650E-06
 -1      6021 3.16883E-03-1.43395E-03-9.77066E-04-1.70578E-04-1.60469E-05 1.88093E-06
 -1      6022 1.04614E-02-3.10997E-03-4.60954E-03-1.33035E-02 4.27396E-04-4.31040E-04
 -1      6023 3.22214E-06-7.44405E-06 2.24011E-06-3.91773E-06 2.85927E-07 1.45283E-07
 -1      6024 4.12975E-03-2.81944E-03-6.71932E-04 1.19852E-03 9.00250E-05 1.10226E-05
 -1      6025-1.24225E-04 1.94674E-04-4.21429E-05-5.75890E-05-2.50086E-06 1.03067E-05
 -1      6026 4.78694E-02-1.74996E-02-1.70333E-02-5.71777E-03-3.30352E-05-3.16259E-04
 -1      6027 3.97813E-02-1.24831E-02-1.53772E-02 1.33001E-03-4.91973E-04 2.19912E-04
 -1      6028-1.47113E-07 1.09565E-08 3.67567E-08-1.18416E-07-1.41125E-08-2.51012E-08
 -1      6029 2.02953E-07-1.05560E-07-4.83789E-08 1.56041E-08 3.57102E-09-1.00153E-08
 -1      6030 1.94465E-07-8.84678E-08-5.32363E-08 7.20406E-08-5.01222E-09-2.06774E-08
 -1      6031 3.45545E-02-1.00893E-02-1.42329E-02-8.53399E-03-5.57292E-04 8.44324E-04
 -1      6032 3.15053E-02-2.33384E-03-1.60519E-02-1.71953E-02-1.56273E-03 1.19226E-03
 -1      6033 3.12554E-02-6.07886E-03-1.41097E-02-1.29965E-02-8.35116E-04 6.63779E-04
 -1      6034 4.32390E-02-7.74711E-03-1.99039E-02-6.30672E-03 9.78120E-04-1.79314E-04
 -1      6035 4.35036E-02-9.13674E-03-1.91303E-02-3.42556E-03 7.66704E-04-1.36305E-04
 -1      6036-1.14370E-08 2.10929E-08-2.60662E-09 7.93154E-09-3.53190E-09-1.51504E-09
 -1      6037-7.61349E-07 1.19796E-07 2.70820E-07-8.72709E-07 3.54603E-08 3.00121E-07
 -1      6038-2.32812E-09-1.68293E-07 9.30011E-08-2.24331E-07-5.91538E-09 1.49179E-07
 -1      6039-1.62838E-06 2.44188E-07 1.18226E-06 1.67660E-07-3.37080E-07-4.38162E-08
 -1      6040 5.20480E-02-1.88260E-02-1.86945E-02 3.09249E-03-5.10211E-05 9.30055E-06
 -1      6041 5.23664E-02-1.90110E-02-1.87228E-02 2.75769E-03 7.01058E-06 2.76796E-05
 -1      6042-1.30721E-06-2.30360E-06 2.34653E-06-5.75314E-06-8.06222E-07-1.78360E-07
 -1      6043-7.02710E-07-3.94353E-07 8.07887E-07-2.50002E-07-3.94330E-07-2.14344E-07
 -1      6044 1.12078E-06-3.26062E-06 1.23596E-06-3.63906E-06-5.05270E-07-1.19610E-07
 -1      6045 1.15679E-07-2.63529E-06 1.22298E-06-2.74199E-06-3.12222E-07 1.34800E-07
 -1      6046 4.29370E-02-9.81606E-03-1.85506E-02-2.51593E-03 2.75901E-04-1.60825E-04
 -1      6047 5.54110E-02-2.14664E-02-1.90885E-02-1.86240E-03-1.12923E-05 5.63374E-05
 -1      6048 5.34752E-02-2.00058E-02-1.88523E-02-2.56542E-03 3.77677E-06 7.68294E-06
 -1      6049 2.17245E-02-7.91795E-03-8.25293E-03-1.02827E-02-8.92513E-05 1.35862E-04
 -1      6050 2.01722E-02-7.35358E-03-7.75855E-03-1.05657E-02-3.00818E-04-7.88535E-04
 -1      6051 2.19049E-03 2.18515E-03-2.39743E-03 5.14307E-03-9.79014E-05-5.43122E-04
 -1      6052 2.70324E-03 1.45175E-03-2.36668E-03 5.23179E-03 5.63110E-05-3.06188E-04
 -1      6053 7.33577E-03 9.43663E-05-4.09526E-03 7.95891E-03 1.06075E-04-1.53247E-04
 -1      6054 5.20328E-02-1.83249E-02-1.89960E-02 1.06478E-03 1.50305E-05-1.57089E-05
 -1      6055 5.14552E-02-1.91127E-02-1.82526E-02-6.04087E-03-4.37524E-05 9.43438E-05
 -1      6056 5.04255E-02-1.84470E-02-1.80147E-02-3.80862E-03-1.09815E-04 1.05041E-04
 -1      6057 1.59679E-03-4.82326E-04-6.23691E-04-8.65315E-04-7.22330E-06-6.36314E-06
 -1      6058 1.25976E-03-3.98774E-04-4.71308E-04-1.29425E-03 9.60677E-07 4.68179E-06
 -1      6059 1.59701E-03-4.83226E-04-6.23872E-04-8.66393E-04 6.91182E-06 6.80131E-06
 -1      6060 1.25981E-03-4.05107E-04-4.67230E-04-1.29888E-03-1.97443E-06-2.25469E-06
 -1      6061-2.72032E-08 2.84475E-08 2.07798E-09 6.08998E-10-1.62028E-09 1.11962E-09
 -1      6062-2.35795E-08 2.84277E-08 1.82395E-10-4.36852E-09-1.71085E-09 2.02724E-09
 -1      6063 5.13997E-08-3.35958E-08-4.12258E-08 2.39879E-08-5.01380E-08 9.16377E-08
 -1      6064 3.32102E-08-1.42600E-08-1.08167E-08-1.75498E-08-1.11188E-08 2.81304E-08
 -1      6065-1.83359E-07 2.90133E-08 8.07740E-08 8.91734E-08 4.17135E-09 1.91222E-09
 -1      6066 2.02852E-07-9.01996E-08-6.10382E-08-6.81604E-08-5.32362E-09 1.68556E-08
 -1      6067-1.68002E-07-7.56733E-09 7.14627E-08 1.63743E-07-2.70422E-08 6.47775E-08
 -1      6068 3.10073E-02-9.07329E-03-1.21824E-02 8.15329E-03 9.98784E-04 2.47928E-04
 -1      6069 4.40994E-02-1.11243E-02-1.85998E-02-4.94614E-04-2.12143E-04 3.18168E-04
 -1      6070-1.87711E-08 2.35002E-08 4.62513E-10 8.96168E-10-2.72281E-09 6.18965E-10
 -1      6071-1.55777E-04 4.28097E-05 5.83940E-05-3.58176E-05 1.96365E-05 3.02167E-05
 -1      6072-8.17239E-05 1.94031E-04-2.81238E-05 1.43879E-04 1.99042E-06-7.83558E-07
 -1      6073-3.80464E-04 6.46705E-04-1.37549E-04-3.77958E-04 1.07393E-05 8.70622E-06
 -1      6074-7.91028E-04 9.15989E-04-6.16435E-05-3.25370E-04 8.73863E-06 2.14982E-05
 -1      6075-3.15423E-04 6.21757E-04-1.66864E-04-5.52759E-04 8.73987E-06 1.05641E-05
 -1      6076 1.09635E-02-2.29478E-03-5.01850E-03 1.17293E-02-4.62278E-04-1.68155E-04
 -1      6077 1.82142E-02-6.69926E-03-5.86957E-03 8.08425E-03 1.41191E-05 2.65235E-04
 -1      6078 2.14535E-08-2.24859E-08 3.58497E-09 3.11024E-08 4.37519E-09-5.18621E-09
 -1      6079 3.17576E-03-2.71787E-03-2.90210E-04 3.20505E-03-1.58529E-04 2.00693E-06
 -1      6080 4.43150E-03-2.89547E-03-8.69620E-04-1.25698E-04 3.67327E-05-2.33908E-06
 -1      6081 4.04341E-02-1.31629E-02-1.57742E-02-7.22504E-03 1.83425E-04 6.32210E-06
 -1      6082 4.96797E-02-1.49808E-02-1.89864E-02-1.79615E-03-1.88070E-04 4.10368E-04
 -1      6083 2.06285E-04 3.30140E-04-2.99749E-04 6.40303E-04-3.41385E-06 3.28889E-06
 -1      6084 2.06359E-04 3.30586E-04-2.99721E-04 6.38770E-04 4.18358E-06-3.88269E-06
 -1      6085-1.52129E-04 4.79890E-04-1.81502E-04 3.22369E-04-7.11689E-08 8.79438E-08
 -1      6086 4.80114E-02-1.75272E-02-1.70634E-02-5.69410E-03-4.31197E-06 2.85501E-04
 -1      6087 5.42462E-02-2.08430E-02-1.88875E-02-7.69082E-03 1.42791E-05 6.09406E-05
 -1      6088-2.20146E-08 3.34133E-09 1.17211E-08 4.22216E-08 2.59942E-09-5.10421E-10
 -1      6089 5.27730E-02-1.65172E-02-2.05366E-02 6.33591E-03-3.91969E-05-1.29166E-04
 -1      6090 1.38162E-02-4.24461E-03-4.96305E-03 1.37586E-02 4.04183E-04 6.64423E-04
 -1      6091 1.38292E-02-3.49874E-03-4.97849E-03 1.32853E-02 4.35671E-04 1.00127E-03
 -1      6092-2.34269E-08 3.58716E-08-4.81818E-09-2.49656E-08 5.20026E-10 2.17293E-09
 -1      6093-2.44249E-09 1.68047E-08-3.95673E-09-3.18350E-08 1.92055E-10 2.18788E-09
 -1      6094 4.36856E-02-1.32159E-02-1.72350E-02-1.58984E-03-1.74410E-05-4.62617E-04
 -1      6095-3.64609E-09 2.35484E-09 5.64315E-09-3.16766E-08 2.53344E-09 6.21791E-09
 -1      6096 2.36119E-08-1.51870E-08 5.55848E-10-2.22340E-08 2.78128E-10 4.42431E-09
 -1      6097-1.52378E-09 8.15468E-09 1.79620E-09-5.06583E-08 2.30044E-09 9.64551E-09
 -1      6098 4.53760E-02-1.29833E-02-1.84604E-02 1.07979E-03-2.97368E-05 6.39605E-04
 -1      6099 4.29865E-02-1.16080E-02-1.76776E-02 1.28898E-04-1.23637E-05 2.10434E-04
 -1      6100 4.40586E-02-1.13737E-02-1.84084E-02-5.23824E-04-2.80304E-04 2.92015E-04
 -1      6101 6.15872E-05-4.26913E-05-1.00497E-05-1.25756E-05 2.18282E-06-1.00954E-06
 -1      6102 4.91051E-02-1.57354E-02-1.88664E-02 1.86901E-04-4.20648E-05 9.25077E-04
 -1      6103 4.95298E-02-1.61728E-02-1.87394E-02 3.15920E-04-3.23113E-05 8.98054E-04
 -1      6104 4.88624E-02-1.55925E-02-1.87671E-02-5.52218E-04-5.45007E-05 1.16697E-03
 -1      6105-1.17855E-08 2.50060E-08-4.57815E-09-1.25758E-08-2.37105E-09 3.11737E-09
 -1      6106 8.69104E-08-2.82850E-08-5.58285E-08-2.19093E-08-1.78711E-08 3.02448E-08
 -1      6107-8.42777E-04 1.01769E-03-9.03183E-05-1.21830E-03-1.93356E-05-2.34432E-05
 -1      6108 1.17197E-08-4.87204E-09 2.83312E-10 2.94521E-08 2.65342E-09-1.74573E-09
 -1      6109-1.17257E-08 5.33885E-08-2.24016E-08-4.86056E-08-1.09159E-09 4.74347E-09
 -1      6110-2.70195E-08 6.49273E-08-2.00209E-08-3.26367E-08-4.57576E-09 1.91098E-09
 -1      6111-3.74885E-08-1.42453E-08 2.94527E-08 4.18334E-08 2.76831E-09-6.04447E-09
 -1      6112-5.47782E-04 6.33023E-04-4.70793E-05-3.46258E-05-1.57968E-06 1.27577E-05
 -1      6113 4.68154E-03 1.81254E-03-3.66610E-03-6.16580E-03 3.40987E-05 2.25092E-04
 -1      6114 1.62182E-04 4.07913E-04-2.65216E-04-9.30036E-04 3.75445E-05-1.44595E-05
 -1      6115-2.86630E-06-9.55034E-06 8.93664E-06 2.65582E-05-7.30217E-07 4.24470E-07
 -1      6116-2.89717E-09 1.85179E-08-5.61982E-09-2.52188E-08-2.78143E-09 4.20201E-09
 -1      6117-1.03760E-06-2.16495E-08 1.05484E-06-1.50068E-07-2.86294E-07 5.08683E-08
 -1      6118-7.56044E-07 1.70882E-07 3.85407E-07 5.43236E-07-1.99780E-07-1.55789E-07
 -1      6119 5.00874E-02-1.84409E-02-1.77997E-02-5.22258E-03 1.82082E-05 1.03979E-04
 -1      6120 5.26025E-02-1.96456E-02-1.85072E-02-5.74938E-03-1.33469E-06 8.83230E-06
 -1      6121-2.10231E-04 4.11409E-04-1.10989E-04 1.00385E-05-3.61447E-07-1.71817E-06
 -1      6122-2.09942E-04 4.17992E-04-1.14718E-04-1.97820E-05-9.22407E-07-2.56603E-06
 -1      6123 1.22821E-07 2.63866E-08-1.41548E-07 1.95418E-08-4.50707E-08-1.05095E-07
 -1      6124 8.05583E-08-3.12189E-09-7.95532E-08-7.89913E-08-8.05039E-08-1.37437E-07
 -1      6125-4.88542E-05 2.65157E-04-1.24118E-04 1.68539E-04-1.01261E-05-1.77495E-05
 -1      6126-1.32794E-08 1.43505E-08 4.28221E-09 2.55405E-08-2.68252E-09-4.16712E-09
 -1      6127-1.15753E-06-1.46132E-06 1.99800E-06-3.87037E-06-5.02915E-08-3.12380E-07
 -1      6128 4.02505E-02-7.33488E-03-1.85051E-02 3.11433E-03 6.24193E-04-1.38728E-04
 -1      6129-1.92080E-04 4.35970E-04-1.32990E-04 3.22742E-05 8.15628E-08 1.64870E-08
 -1      6130-1.91776E-04 4.38793E-04-1.35388E-04 2.10228E-05 9.13741E-08-7.12626E-08
 -1      6131 2.12579E-02-7.29103E-03-8.86123E-03-9.59186E-03 1.47547E-04-1.47365E-05
 -1      6132 2.09111E-02-7.77906E-03-7.25827E-03-1.12747E-02 8.79843E-04 4.52898E-04
 -1      6133 2.23929E-04 3.21746E-04-3.04022E-04-6.48521E-04-2.67199E-06-3.27699E-06
 -1      6134-1.18261E-08 2.01564E-08-1.80139E-09-9.16480E-09-2.79245E-09 7.92837E-10
 -1      6135-6.82609E-09 1.66844E-08-3.22577E-09-1.35947E-08 4.04195E-10 2.44299E-09
 -1      6136 3.65833E-02-1.41438E-02-1.01572E-02 4.19638E-03 8.29766E-04-2.09941E-03
 -1      6137 3.87239E-02-1.03345E-02-1.12076E-02 3.35905E-03 7.44379E-04-3.10658E-03
 -1      6138 4.45397E-02-1.41739E-02-1.71495E-02-1.67353E-03-6.03612E-04-4.92988E-04
 -1      6139 4.38426E-02-1.36933E-02-1.65956E-02 1.26059E-03-6.42443E-04-1.76737E-04
 -1      6140 4.77796E-02-1.49679E-02-1.85351E-02 1.68092E-03 1.21026E-04 1.12584E-03
 -1      6141 4.86361E-02-1.54455E-02-1.87168E-02 8.35313E-04 5.05956E-05 1.02864E-03
 -1      6142 4.73233E-02-1.13870E-02-2.01519E-02-8.02689E-03 4.25275E-04-9.11023E-04
 -1      6143 5.24748E-02-1.89712E-02-1.88413E-02-2.44380E-03 1.09890E-05 1.41880E-06
 -1      6144 5.25297E-02-1.88611E-02-1.89057E-02-1.97403E-03 2.96220E-05 1.95813E-05
 -1      6145-2.08300E-07 2.68147E-08 9.12848E-08 9.22773E-08 1.31878E-08-3.29976E-08
 -1      6146-1.89943E-07 4.03524E-08 8.11310E-08 2.39144E-08-3.54429E-09-1.87370E-08
 -1      6147 2.73120E-08-3.37827E-08 5.34135E-09 2.83176E-08 8.61520E-09-1.92020E-08
 -1      6148 2.17058E-08-1.85816E-08 4.56212E-09-1.98861E-08-1.21029E-09-1.04770E-08
 -1      6149 1.87701E-07-9.73304E-08-4.86654E-08-2.98824E-08-2.89410E-09-4.53989E-10
 -1      6150-8.61345E-04 1.00816E-03-8.25844E-05-1.21370E-03 1.92659E-05 2.24687E-05
 -1      6151 5.20921E-02-1.77435E-02-1.94615E-02 4.28935E-03-6.88747E-05 5.82671E-04
 -1      6152 5.22942E-02-1.84661E-02-1.92287E-02 3.31678E-03-1.38105E-05 4.77140E-04
 -1      6153 5.16429E-02-1.78298E-02-1.90662E-02 3.26967E-03-2.36999E-05 1.33848E-04
 -1      6154 5.08795E-02-1.68705E-02-1.92145E-02 3.74831E-03 6.36035E-05 3.29553E-04
 -1      6155 5.28247E-02-1.93061E-02-1.88405E-02 2.61726E-03 2.46836E-05 2.24439E-05
 -1      6156 5.24844E-02-1.89820E-02-1.88428E-02 2.54715E-03 2.18214E-05 1.07087E-05
 -1      6157-9.49256E-09 1.74823E-08-1.67971E-09 8.94084E-09-1.37302E-09-9.80464E-10
 -1      6158 2.69539E-03-2.27071E-03-2.66045E-04 3.13432E-03 7.60786E-05 2.54486E-05
 -1      6159-3.44516E-07 3.76811E-08 1.23727E-07-8.51902E-07-1.08456E-07-2.45560E-07
 -1      6160-1.24369E-06 3.64051E-08 1.14486E-06 2.49855E-07 3.68581E-07 2.69771E-07
 -1      6161 8.64641E-08-1.90733E-07 3.86935E-08-2.16735E-07-3.74824E-08-1.69183E-07
 -1      6162 4.24058E-02-1.11731E-02-1.74137E-02-2.48374E-03-4.53988E-04-1.95915E-04
 -1      6163 5.19796E-02-1.85750E-02-1.88125E-02 2.51446E-03-1.56980E-05-7.91184E-07
 -1      6164 5.20198E-02-1.86143E-02-1.87913E-02 2.54372E-03 1.64763E-05-1.35388E-05
 -1      6165 5.22232E-02-1.89395E-02-1.87406E-02 2.67218E-03 1.72616E-05-2.20368E-05
 -1      6166-8.19152E-08-3.13460E-08 3.82233E-08 2.00277E-07-5.55902E-08 1.99907E-07
 -1      6167-4.79410E-08-2.46057E-07 1.76889E-07 3.03109E-07 9.47250E-08 1.71704E-07
 -1      6168-7.27567E-07-2.49684E-07 4.96311E-07 6.37912E-07 2.57439E-07 2.45357E-07
 -1      6169 5.22934E-02-1.74345E-02-1.96303E-02-5.02390E-03 2.95546E-04-7.20257E-04
 -1      6170 5.29991E-02-1.81146E-02-2.01171E-02-5.35872E-03 3.71448E-04-1.16978E-03
 -1      6171 5.09144E-02-1.56407E-02-2.01943E-02-5.95576E-03 5.13983E-04-8.21575E-04
 -1      6172 5.39327E-02-1.32997E-02-2.08776E-02 1.46004E-02-4.63303E-05 1.18126E-03
 -1      6173 4.99708E-02-1.15921E-02-2.05678E-02 1.04841E-02-6.18989E-04 3.13987E-04
 -1      6174 4.62553E-02-1.15984E-02-1.81900E-02 1.08020E-02 3.49178E-04 1.03804E-03
 -1      6175-1.89868E-04 4.61728E-04-1.51821E-04-2.82549E-05 8.58502E-07-6.41267E-09
 -1      6176 1.26693E-08-1.90287E-08 3.98302E-09-9.71733E-09-2.76033E-09 1.23355E-08
 -1      6177 1.38580E-08-1.67031E-08 3.09668E-09-2.48749E-08 3.64107E-09 8.54644E-09
 -1      6178 1.89557E-08-1.08476E-08-1.51254E-08 9.45211E-09 7.99611E-09 1.43455E-08
 -1      6179 5.65152E-02-1.64398E-02-2.08207E-02 1.25925E-02 1.47921E-04-7.69571E-04
 -1      6180 5.50170E-02-1.86380E-02-2.05315E-02-1.36989E-02-1.92539E-03-1.14179E-03
 -1      6181-1.09355E-08 1.05434E-09 9.14909E-09-5.47218E-08 9.66094E-09 2.29128E-09
 -1      6182 6.34263E-09-1.05745E-08 7.52322E-09-4.62068E-08 9.93485E-09 3.53389E-09
 -1      6183 1.88552E-08-8.47271E-09 6.48736E-10-3.09463E-08 1.38706E-09 7.68689E-09
 -1      6184 3.39829E-08-2.08176E-08 1.01572E-09-1.58565E-08 2.66004E-09 8.42871E-09
 -1      6185 1.46362E-02-4.80025E-03-6.04353E-03 9.48256E-03-9.50017E-04 1.71776E-04
 -1      6186 2.62104E-02-1.12513E-02-7.19120E-03 5.33822E-03-1.49816E-03 1.49768E-03
 -1      6187 9.88251E-04-1.57695E-04-4.66250E-04-9.77636E-04 1.16786E-07-6.30073E-07
 -1      6188 5.19294E-02-1.71515E-02-1.96656E-02-4.98948E-03-1.98455E-04 6.46726E-04
 -1      6189 4.97701E-02-1.56282E-02-1.92425E-02-4.40566E-03-1.57252E-04 2.98236E-04
 -1      6190-8.11903E-05 6.16418E-04-3.07166E-04-1.14584E-03-9.78588E-06-3.66452E-05
 -1      6191-3.12739E-08 2.10962E-08 1.14552E-08-3.43207E-08-1.12868E-09 3.31444E-09
 -1      6192 2.91498E-10 3.53712E-09 1.52103E-09-2.65859E-08-1.88880E-09 3.12645E-09
 -1      6193 5.30131E-02-1.79336E-02-1.98906E-02-4.16578E-03 7.69867E-05-6.35935E-04
 -1      6194 2.97184E-03 3.60768E-04-2.64372E-03 1.83406E-02 9.67679E-04 1.33765E-03
 -1      6195 4.74891E-08-3.61308E-08-1.94030E-08 2.51823E-08 5.25820E-08-8.81826E-08
 -1      6196 6.80589E-08-2.22062E-08-5.14869E-08-1.97376E-08 2.64733E-08-4.54586E-08
 -1      6197 1.13982E-08-1.37819E-08 8.85721E-10-1.11799E-08 2.18179E-08-3.31683E-08
 -1      6198 4.19021E-02-6.76886E-03-1.91348E-02-5.96999E-03 3.25486E-04 1.28565E-04
 -1      6199 3.70426E-02-1.36811E-02-1.04441E-02-3.84958E-03-8.79677E-04-2.40540E-03
 -1      6200 4.31555E-02-1.40755E-02-1.64781E-02 1.07490E-03 6.45860E-04-3.53058E-04
 -1      6201 2.27952E-03 2.03830E-03-2.42493E-03 5.22017E-03 4.11938E-05 5.21531E-04
 -1      6202 3.41040E-02-1.46701E-02-1.10491E-02 9.94293E-03 1.03572E-04-1.09078E-04
 -1      6203 3.12947E-02-1.22041E-02-1.32278E-02 1.11575E-02 4.37747E-04-2.02939E-04
 -1      6204 3.54797E-02-1.13954E-02-1.41296E-02-4.87489E-03-7.18710E-04 5.88700E-04
 -1      6205-3.61839E-09-1.62995E-08 1.12596E-08 1.23472E-08 1.03066E-09-8.00229E-10
 -1      6206-3.16357E-08 6.67133E-08-1.89917E-08-9.12574E-09-2.87381E-09 7.46663E-10
 -1      6207-6.70710E-09-1.96919E-08 1.69556E-08 2.14853E-08 1.56581E-09-7.35577E-10
 -1      6208-1.38519E-08-2.71034E-08 2.25196E-08 2.85260E-08 1.73453E-09-2.17685E-09
 -1      6209 5.21972E-02-1.85319E-02-1.89602E-02 2.13717E-03-1.04360E-05 1.19553E-05
 -1      6210 4.10680E-02-1.16711E-02-1.66880E-02-7.55654E-03-4.00077E-04 6.73785E-04
 -1      6211 4.21373E-02-8.38642E-03-1.81391E-02-1.04234E-02-6.86757E-04 1.20098E-03
 -1      6212-8.28054E-09 1.06257E-08 1.44020E-09-2.26397E-08 2.67002E-09 1.32557E-09
 -1      6213 6.28661E-09-6.14016E-09 3.27888E-09-1.62365E-08 1.00241E-10 1.91246E-10
 -1      6214-1.31597E-08 8.14255E-09 9.69443E-09-3.54477E-08-2.85559E-09-9.80041E-10
 -1      6215 4.85638E-04-1.37953E-04-2.07823E-04 2.59021E-03 6.32931E-05-1.92445E-05
 -1      6216 6.19018E-04-2.34438E-04-1.88074E-04 2.16564E-03 4.11800E-05-2.77343E-06
 -1      6217 2.55428E-03 1.61749E-03-2.32757E-03-5.14908E-03 5.60128E-05 3.71526E-04
 -1      6218 5.54097E-03-2.81458E-04-2.89422E-03-6.45408E-03 2.04783E-04 2.48910E-04
 -1      6219 7.24518E-03 3.21324E-04-4.29718E-03-7.88456E-03 1.11796E-04 2.15561E-04
 -1      6220 1.72306E-03-1.42708E-03-1.70465E-04-3.31515E-03 6.56264E-05 2.71411E-05
 -1      6221 5.85560E-02-2.38819E-02-1.95445E-02-6.32708E-03-1.51974E-04 1.58252E-04
 -1      6222 4.96508E-02-1.46271E-02-1.88149E-02-8.78996E-04-1.69845E-04-1.06091E-04
 -1      6223 8.44411E-06-1.47731E-05 3.40738E-06-2.58077E-05-3.59170E-07-9.17616E-07
 -1      6224 5.74943E-08-3.77478E-08-2.74525E-08 2.95714E-08 9.69656E-09-2.21664E-08
 -1      6225 3.15296E-02-7.21073E-03-1.33400E-02 1.01629E-02 9.23823E-04 7.02115E-04
 -1      6226 3.43699E-02-1.06485E-02-1.35731E-02 7.54630E-03 8.33635E-04 4.61246E-04
 -1      6227 1.51123E-03-1.99669E-04-7.40212E-04-1.61815E-03 6.90765E-05 3.34661E-06
 -1      6228-1.79603E-04 1.90406E-03-8.87421E-04-4.02459E-03 1.72574E-04 5.94185E-05
 -1      6229 1.02017E-03 8.90017E-04-1.05181E-03-2.91130E-03 1.69603E-04-1.45685E-05
 -1      6230 1.09421E-03 1.37816E-04-6.35895E-04-1.24732E-03 4.55255E-05 9.25813E-05
 -1      6231 1.40267E-04 9.09194E-04-5.57866E-04-2.30481E-03 1.57916E-05 6.01348E-05
 -1      6232 1.41906E-07-2.76461E-06 1.35510E-06-3.08713E-06 1.55056E-08-8.94265E-08
 -1      6233 2.90116E-03 3.96162E-03-4.38088E-03-6.85750E-03 5.85428E-04 4.86614E-04
 -1      6234 7.38827E-03 1.33673E-03-4.88867E-03-8.64600E-03 2.11527E-04 3.34545E-04
 -1      6235 1.15622E-02-9.64677E-03-1.09318E-03 1.32236E-05-3.27290E-04 1.60684E-04
 -1      6236-2.64774E-08 6.26590E-08-1.98147E-08 1.00885E-08-3.25950E-09-6.05835E-10
 -1      6237-1.13305E-09-1.88546E-08 1.18878E-08-1.91407E-10-8.35168E-11-1.49263E-09
 -1      6238-1.27879E-08 1.41539E-08 9.17114E-10-1.58675E-08-7.38732E-10 5.98789E-10
 -1      6239 1.92004E-02-1.20143E-02-3.46524E-03-5.66113E-03 4.23422E-04 9.47100E-04
 -1      6240 1.35256E-02-9.82597E-03-2.14852E-03-2.03854E-03 3.94043E-04 1.62534E-04
 -1      6241 9.66326E-03-3.65732E-03-3.04180E-03-6.74888E-03 3.06755E-05 4.40598E-04
 -1      6242-5.06008E-03 6.68321E-03-7.16704E-04-6.91145E-03-3.41929E-05-5.08979E-04
 -1      6243-1.27218E-03 3.24450E-03-1.07409E-03-7.27371E-03-1.79243E-04 1.04606E-04
 -1      6244 1.63832E-08-1.46297E-08 4.33950E-09-2.18491E-08 2.79728E-09 2.39214E-09
 -1      6245-5.34280E-04 6.29859E-04-4.63251E-05-4.03687E-05 5.23729E-06-1.74054E-05
 -1      6246 3.23423E-03-5.96858E-04-1.61235E-03-2.28321E-03-4.95187E-05 2.20797E-04
 -1      6247 2.35167E-03 5.60051E-04-1.68133E-03-3.93531E-03-8.86340E-05-7.21830E-05
 -1      6248 3.06394E-08-2.25759E-08-3.11955E-09-1.05612E-08 1.20480E-09-1.37628E-09
 -1      6249-6.29730E-04 7.52734E-04-6.92321E-05 1.20300E-04 8.88950E-06-3.04386E-05
 -1      6250-8.67410E-08 1.44672E-08 3.85899E-08 3.21994E-08 8.35254E-11 1.12118E-08
 -1      6251 3.15529E-08 3.26742E-08-3.32526E-08-9.04351E-08 1.45372E-09-7.96379E-10
 -1      6252 6.44373E-08-8.49927E-09-2.93082E-08-8.17531E-08 1.74763E-09-1.81999E-09
 -1      6253-1.17923E-04 3.50507E-04-1.19665E-04-2.40670E-03 5.25745E-05 2.99195E-05
 -1      6254 2.05320E-02-1.24118E-02-3.87219E-03 5.87823E-03-7.44293E-04 1.40420E-03
 -1      6255 1.51186E-02-1.05064E-02-2.41560E-03 2.92880E-03-3.70180E-04 4.64883E-04
 -1      6256 1.19907E-02-3.31857E-03-4.44335E-03 7.75978E-03-1.40972E-04 3.58228E-04
 -1      6257-5.70236E-04 6.62337E-04-4.52188E-05 3.07885E-05-8.02301E-06-1.61367E-05
 -1      6258 3.77305E-03-3.13192E-05-2.06721E-03-5.08464E-03 5.45713E-06 2.17241E-04
 -1      6259 3.96958E-02-1.15920E-02-1.59929E-02-4.82704E-03-6.70116E-04 3.84801E-04
 -1      6260 2.86613E-02-4.81511E-03-1.35431E-02 1.41499E-02 1.22526E-03 6.79764E-04
 -1      6261 1.37781E-02 3.44638E-03-1.11799E-02 1.42430E-02 1.62151E-04-2.96555E-04
 -1      6262 5.40038E-02-2.03433E-02-1.89405E-02-1.69386E-03-2.37077E-05 5.89081E-06
 -1      6263 5.31699E-02-1.97101E-02-1.88717E-02-2.16967E-03 7.06296E-07 2.88266E-05
 -1      6264 2.86692E-02-8.23417E-03-1.12767E-02-8.02264E-03 8.47065E-04-2.27403E-04
 -1      6265 3.97947E-02-1.04443E-02-1.18495E-02-3.11084E-03-7.99010E-04-4.23330E-03
 -1      6266-1.89571E-04 4.52300E-04-1.46424E-04 4.89159E-05-3.59007E-07-2.61530E-07
 -1      6267-1.88853E-04 4.59746E-04-1.51763E-04 2.57929E-05-2.43979E-07 1.03256E-06
 -1      6268-1.04822E-08 5.69163E-08-2.55587E-08-5.92074E-08-2.02432E-09-6.21877E-10
 -1      6269-2.44452E-08-7.25941E-09 2.00930E-08 2.43124E-08-1.27433E-09 2.78616E-09
 -1      6270 4.99664E-02-1.60148E-02-1.88396E-02-8.33107E-04 1.72855E-04 9.69828E-04
 -1      6271 2.54727E-03-1.05680E-03-8.37591E-04 5.46368E-04 1.03467E-05-3.31598E-06
 -1      6272-1.49354E-07-5.30098E-09 6.04996E-08 1.73923E-07-5.18778E-08 7.65521E-08
 -1      6273 1.66796E-07-7.55520E-08-5.64388E-08-5.95079E-08-2.24680E-08 4.69038E-08
 -1      6274-2.67174E-08 2.35387E-08 6.36244E-09 2.59904E-08-2.08397E-09-7.22611E-09
 -1      6275 1.53563E-07-8.02127E-08-3.94820E-08 2.74671E-08 1.35623E-09 3.86675E-09
 -1      6276-8.95096E-09-8.58988E-09 1.34679E-08 3.24447E-08-2.41704E-09-1.81389E-09
 -1      6277 4.92162E-02-1.55782E-02-1.91089E-02 3.31307E-04-3.16730E-06-1.11024E-03
 -1      6278 4.96110E-02-1.58595E-02-1.91652E-02-3.96786E-04 1.21774E-04-1.11657E-03
 -1      6279 5.11557E-02-1.73466E-02-1.90432E-02-1.77768E-03 1.19227E-05-2.06657E-05
 -1      6280 5.22231E-02-1.88576E-02-1.87707E-02 2.56461E-03 1.91205E-05-4.56382E-05
 -1      6281-1.28811E-08 2.30292E-08-3.27473E-09-1.02915E-08-3.87378E-09 2.37841E-09
 -1      6282-1.89141E-08 2.59758E-08-1.27631E-09-1.69238E-09-4.26050E-09 3.43964E-09
 -1      6283 1.45179E-02-5.24920E-03-4.82013E-03-8.22314E-03 2.61384E-04-6.21871E-04
 -1      6284 6.60421E-02-2.27812E-02-2.37347E-02-1.30839E-02 2.71031E-03-1.07720E-03
 -1      6285-7.92530E-04 9.21186E-04-6.16014E-05 3.28991E-04 8.64721E-06-2.39156E-05
 -1      6286 2.21205E-03-4.16672E-04-2.73515E-03-2.01543E-02-1.07034E-03 1.77102E-03
 -1      6287 2.30519E-02-9.09293E-03-6.57588E-03-7.11212E-03-5.28265E-04-1.18107E-03
 -1      6288 2.07018E-02-8.45014E-03-6.68231E-03-1.20153E-02-3.63344E-04 1.14161E-03
 -1      6289 1.31420E-02-2.76421E-03-4.80156E-03-8.91644E-03-4.48142E-04 5.60375E-04
 -1      6290 5.14111E-02-1.76958E-02-1.89779E-02-1.63337E-03 2.21408E-06 2.60488E-05
 -1      6291 5.24645E-02-1.90644E-02-1.87267E-02 2.87129E-03 1.73291E-05-3.31493E-05
 -1      6292 5.28256E-02-1.79408E-02-2.02213E-02-4.95546E-03-3.40422E-04 1.47519E-03
 -1      6293 5.03993E-02-1.65200E-02-1.91060E-02-2.82564E-03-6.62310E-05 1.20335E-04
 -1      6294 5.11500E-02-1.73227E-02-1.90682E-02-2.50800E-03-1.29133E-05 8.40752E-05
 -1      6295 5.08665E-02-1.69637E-02-1.91135E-02-2.22755E-03-2.18318E-05 7.91977E-05
 -1      6296 5.07412E-02-1.69656E-02-1.89994E-02-1.87939E-03-2.51241E-05 6.42878E-05
 -1      6297 5.17943E-02-1.84970E-02-1.87825E-02 2.79290E-03-1.91002E-05 5.68759E-05
 -1      6298 5.17454E-02-1.80303E-02-1.90326E-02 3.06507E-03 5.21935E-05 2.52100E-04
 -1      6299 2.09323E-07-1.11687E-07-7.92819E-08 5.25665E-08 6.36785E-08 7.51566E-08
 -1      6300 5.22857E-02-1.92370E-02-1.86490E-02 1.12825E-02-1.27142E-04-1.19036E-04
 -1      6301 5.28968E-02-1.78401E-02-2.02735E-02 5.29692E-03 2.74096E-04 1.28043E-03
 -1      6302 4.20638E-02-1.09210E-02-1.75663E-02-1.03119E-03-1.12358E-04-1.10016E-04
 -1      6303 3.90984E-02-1.22130E-02-1.52412E-02 3.54366E-03 5.80376E-04 1.75181E-04
 -1      6304-2.68596E-08 2.69260E-08 3.24629E-10-1.11891E-08 1.25551E-09-3.54680E-10
 -1      6305 1.28141E-07-7.30795E-11-1.34660E-07 5.93102E-08 5.09583E-08 7.58384E-08
 -1      6306-1.88218E-04 4.59127E-04-1.51536E-04 2.59533E-05 4.55692E-08-9.37964E-07
 -1      6307 9.93182E-08-2.93068E-08-3.72767E-08-8.40141E-08-2.97692E-10 1.05118E-09
 -1      6308-1.09678E-07 9.01532E-09 4.95341E-08 3.99857E-08-1.04981E-09-5.05219E-09
 -1      6309-2.15900E-04 4.88461E-04-1.21594E-04 2.26458E-03 4.72925E-05-3.29393E-05
 -1      6310 1.31870E-02-2.29369E-03-5.88996E-03 8.97703E-03-6.53692E-04-2.01926E-04
 -1      6311 1.56434E-02-2.58060E-03-7.55169E-03 1.07103E-02-1.17462E-03 2.47837E-04
 -1      6312 9.43293E-08-1.53111E-08-7.47686E-08-2.46572E-09 6.80120E-08 9.72229E-08
 -1      6313 7.88495E-08-2.02990E-08-6.68368E-08 2.67752E-08 2.46381E-08 3.58019E-08
 -1      6314 1.05436E-07-4.78567E-09-9.61897E-08 6.87643E-08 6.34323E-10 2.55976E-09
 -1      6315-6.03188E-04 7.20473E-04-6.82976E-05-9.31359E-05 6.08078E-06 2.08224E-05
 -1      6316 2.78491E-08-2.66936E-08 4.65238E-09-4.87161E-09 1.52381E-09-2.34534E-09
 -1      6317 6.90683E-03-5.97544E-03-5.62697E-04 1.91082E-03 6.24136E-05 8.57861E-05
 -1      6318 4.79152E-08-3.75797E-08-6.90553E-09 2.65966E-08 3.25743E-09-6.56221E-09
 -1      6319 1.32685E-07-5.57635E-08-4.23933E-08 5.82306E-08 3.43814E-10 6.03223E-09
 -1      6320-1.15748E-07 2.18862E-08 5.29136E-08 2.56967E-08 5.51292E-09-1.89581E-08
 -1      6321 3.98789E-02-1.42941E-02-1.47830E-02 9.45624E-03-1.06298E-03 1.69907E-03
 -1      6322 2.71478E-02-1.27194E-02-8.35818E-03 1.07054E-02 8.24786E-04 1.26842E-03
 -1      6323 4.99848E-02-1.58611E-02-1.91143E-02-1.35511E-02 7.67124E-04 5.55889E-04
 -1      6324 4.37636E-02-1.49718E-02-1.65216E-02-8.66209E-03 2.80190E-04 2.26753E-04
 -1      6325 2.78626E-07-1.57535E-07-6.65992E-08-1.06524E-07 5.05139E-08-4.92244E-08
 -1      6326 7.54274E-08-9.76388E-09-3.74179E-08-9.15411E-08-3.41861E-09 3.11182E-09
 -1      6327 1.91985E-02-8.69165E-03-5.84696E-03 6.82101E-03 7.51726E-05 1.37193E-04
 -1      6328 5.20104E-02-1.84392E-02-1.88846E-02 2.72551E-03-2.71940E-05 3.25807E-05
 -1      6329-1.44208E-07 3.22591E-08 6.36647E-08 1.29080E-08-9.31105E-09 2.17756E-10
 -1      6330 9.84405E-08-3.63314E-08-3.27434E-08 8.60977E-08 6.02117E-09 5.82163E-09
 -1      6331 1.70820E-07-8.15878E-08-4.39002E-08-7.85143E-08 2.94645E-09-1.55138E-10
 -1      6332 8.98033E-08 1.85645E-08-1.12379E-07 2.80035E-08 9.24918E-08 1.36765E-07
 -1      6333-2.66564E-08 6.39262E-08-2.17480E-08-2.47270E-08-2.08359E-09 2.42519E-09
 -1      6334-1.17907E-06 3.27467E-07 1.08430E-06-2.68812E-07 4.14252E-07-1.10519E-07
 -1      6335 1.92743E-02-7.80638E-03-7.02782E-03 1.09049E-02 8.78152E-04 4.65816E-04
 -1      6336 8.43954E-03-1.66680E-03-3.55966E-03 1.21289E-02-9.99917E-05-3.23906E-04
 -1      6337 2.32808E-03 2.31846E-03-2.43542E-03-5.40193E-03-5.83738E-05 5.28992E-04
 -1      6338 2.51822E-08-3.11188E-08 9.17931E-10 3.42572E-08 4.81567E-09 4.10516E-09
 -1      6339 3.13581E-08-4.15626E-08 7.12238E-09 7.48887E-10 4.26184E-09-6.72655E-09
 -1      6340 1.74428E-08-2.27625E-08 4.43892E-09-4.73479E-09 4.06396E-09-8.73117E-10
 -1      6341 3.14460E-02-1.10117E-02-1.10044E-02-8.82065E-03-1.00636E-03 1.94289E-03
 -1      6342 2.35287E-02-6.84352E-03-9.51401E-03-9.37126E-03 1.34037E-04-3.17899E-04
 -1      6343 4.07813E-08-3.30051E-08-1.07454E-09-1.07748E-09 5.18629E-10-1.48752E-08
 -1      6344-1.77546E-07 3.17929E-08 7.86471E-08-4.13443E-08 9.69207E-09 7.74082E-09
 -1      6345 4.35410E-02-1.04918E-02-1.84911E-02-1.15181E-03-3.68877E-04-1.48334E-04
 -1      6346 2.64866E-03 1.64523E-03-2.40120E-03-5.05731E-03 1.91310E-05-4.39584E-04
 -1      6347-2.51533E-08 6.31415E-08-2.14187E-08-3.58137E-08-1.63564E-09 1.40543E-09
 -1      6348 5.19270E-02-1.85936E-02-1.87812E-02 2.66146E-03 1.93891E-05-4.15719E-05
 -1      6349 5.19254E-02-1.85149E-02-1.88307E-02 2.88108E-03 4.21089E-05-1.31750E-04
 -1      6350 5.18068E-02-1.82413E-02-1.89580E-02 2.87330E-03-9.83352E-06-1.91540E-04
 -1      6351 5.18754E-02-1.81693E-02-1.89637E-02 3.01955E-03 3.40683E-05-1.18248E-04
 -1      6352 5.19768E-02-1.84118E-02-1.88985E-02 2.72549E-03 1.65830E-05-5.51145E-05
 -1      6353 3.44353E-03 3.37887E-04-2.10601E-03-4.76841E-03-6.72107E-05 2.18667E-04
 -1      6354 6.39003E-03-2.11479E-03-2.33626E-03-5.60188E-03-5.04268E-06 1.01444E-05
 -1      6355 5.10987E-02-1.73452E-02-1.89912E-02-4.06471E-04 9.51363E-08 2.41990E-05
 -1      6356 4.19521E-02-9.33807E-03-1.43305E-02-3.81260E-04 3.15007E-04-4.78606E-03
 -1      6357 4.61315E-02-9.99509E-03-1.43653E-02-2.37136E-04 5.09657E-04-9.82908E-03
 -1      6358 2.23726E-04 3.21183E-04-3.03231E-04-6.48416E-04 2.94685E-06 2.79344E-06
 -1      6359 1.83042E-07-9.41291E-08-5.04137E-08-3.59448E-08 2.17527E-09-1.53375E-09
 -1      6360 3.02705E-02-1.11705E-02-1.06334E-02-8.64680E-03 6.66104E-04-2.25669E-03
 -1      6361 5.19235E-02-1.83222E-02-1.89035E-02 2.75833E-03 4.37217E-06-7.09758E-05
 -1      6362-9.40106E-05 4.53926E-04-2.03871E-04 3.16267E-04 7.87143E-07-2.18126E-06
 -1      6363-9.38205E-05 4.53734E-04-2.03891E-04 3.16205E-04-6.00386E-07 2.17315E-06
 -1      6364 5.40749E-09-1.89392E-08 9.03105E-09 3.17635E-08-1.44544E-09 4.31131E-09
 -1      6365 4.77212E-02-1.43739E-02-1.89342E-02-6.05989E-04 7.65296E-06-6.09299E-04
 -1      6366 4.90877E-02-1.52677E-02-1.90697E-02-7.59515E-04 4.63582E-05-6.26081E-04
 -1      6367 1.76002E-07-2.30622E-08-9.26086E-08-1.38395E-07 8.15927E-09-4.82738E-08
 -1      6368-6.87240E-08-1.94083E-08 5.82038E-08 1.21379E-07 8.82964E-08-1.53416E-07
 -1      6369 5.56262E-02-1.57881E-02-2.09843E-02-1.25494E-02 3.45738E-06 6.17373E-04
 -1      6370 5.24017E-02-1.49603E-02-2.04825E-02-1.04542E-02-3.87004E-04 2.31138E-04
 -1      6371-2.87226E-08 6.38085E-08-1.81726E-08 6.82652E-09-3.00827E-09-3.12580E-10
 -1      6372-3.94395E-09-2.56958E-08 1.53956E-08-1.90601E-08 1.06802E-09 1.15221E-09
 -1      6373-2.49754E-08 5.64129E-08-1.73582E-08 2.16528E-08-6.00919E-10-5.65433E-10
 -1      6374 1.58808E-07-7.33558E-08-4.29201E-08-5.30339E-08 1.49639E-09-6.36078E-09
 -1      6375 2.46495E-08-2.95298E-08-1.15356E-09 2.16093E-08 2.66685E-09 1.74772E-08
 -1      6376 2.11259E-07-1.04711E-07-5.58191E-08-1.63191E-08 3.53161E-09 1.43031E-08
 -1      6377 5.19645E-02-1.85020E-02-1.88752E-02 2.55748E-03-1.43324E-05 6.96083E-05
 -1      6378 1.62200E-02-9.66631E-04-8.76345E-03 1.35377E-02-1.52762E-03 2.87873E-05
 -1      6379 2.21988E-02-4.99712E-03-9.73509E-03 1.14765E-02-1.17910E-03 1.59816E-04
 -1      6380-8.05276E-08 1.83454E-08 3.86490E-08-2.49906E-08-2.96232E-09-1.31602E-08
 -1      6381 3.65094E-08 2.78022E-08-3.71304E-08 9.95015E-08 5.71443E-09 3.68254E-09
 -1      6382 2.54862E-03-1.05812E-03-8.35876E-04 5.56757E-04-1.37206E-05-8.13584E-07
 -1      6383 4.70529E-03-4.19590E-03-2.46860E-04 3.29952E-03 1.19992E-04 1.51537E-05
 -1      6384 3.95185E-02-8.81136E-03-1.75794E-02-3.66809E-03 6.38488E-04-9.80109E-04
 -1      6385-1.40443E-06-2.30686E-06 2.30592E-06-5.73495E-06 7.94281E-07-3.69409E-08
 -1      6386 1.31751E-06-3.27065E-06 1.26194E-06-3.67174E-06 6.13818E-07-5.40953E-08
 -1      6387 5.22075E-02-1.84779E-02-1.91591E-02 2.69249E-03-3.65043E-05 2.43911E-05
 -1      6388 5.19948E-02-1.82238E-02-1.90247E-02 2.71642E-03-3.77918E-05-9.58339E-05
 -1      6389 7.27199E-10-2.82118E-08 1.58380E-08-5.95757E-09-4.95090E-10 1.31670E-09
 -1      6390-1.54518E-08 2.50085E-08-3.81024E-09-2.42273E-09-8.28803E-10-3.85700E-10
 -1      6391-2.33426E-08 6.45295E-08-2.15340E-08-2.87335E-08-3.68373E-09 7.06336E-10
 -1      6392-4.82827E-09-1.33793E-08 1.09236E-08 9.27866E-09-3.49276E-10 3.94212E-09
 -1      6393-2.72549E-08 5.95475E-08-1.93746E-08-1.25103E-08-2.25726E-09-9.14899E-10
 -1      6394-3.65032E-09-1.76274E-08 1.19795E-08-1.20091E-08-1.65844E-09-2.02582E-09
 -1      6395 4.22504E-02-1.34036E-02-1.60639E-02 7.11396E-04 6.34049E-04 3.43867E-04
 -1      6396 1.53016E-07-6.79927E-08-4.54486E-08-6.48351E-08-1.18792E-09-2.06508E-09
 -1      6397-1.29453E-07 3.32192E-08 5.55321E-08-1.26888E-08 5.42819E-09 1.42926E-08
 -1      6398 1.15277E-07-3.14483E-08-4.55534E-08-9.81152E-08 2.81861E-09-3.77740E-09
 -1      6399 5.15855E-02-1.82353E-02-1.88189E-02-3.03933E-03 5.10612E-05 9.35965E-05
 -1      6400 5.10793E-02-1.71669E-02-1.91119E-02-3.43830E-03-1.26233E-05 1.42592E-04
 -1      6401-7.93558E-08-9.30767E-09 4.24763E-08-4.87565E-08-2.00311E-09 4.98147E-09
 -1      6402 3.37301E-08 2.68243E-08-2.96681E-08 8.73827E-08-2.16959E-09-3.41369E-09
 -1      6403 1.77141E-07-4.88606E-08-9.73865E-08-1.04720E-07-6.25306E-08 8.52936E-08
 -1      6404 5.19753E-02-1.86317E-02-1.87390E-02 2.61911E-03 1.74238E-05-7.86422E-05
 -1      6405 5.21408E-02-1.86275E-02-1.88720E-02 2.51931E-03-9.52092E-06 4.92788E-06
 -1      6406 3.09490E-02-6.44621E-03-1.35979E-02-1.33411E-02 1.01052E-03-9.18326E-04
 -1      6407-1.64015E-03 2.96054E-03-7.50557E-04 3.35618E-03-4.94200E-05 4.79847E-05
 -1      6408-2.47617E-08 6.09727E-08-2.05671E-08 2.69961E-08-1.63176E-09-7.36473E-10
 -1      6409-1.84616E-07 2.05592E-09 8.28310E-08 1.89466E-07 5.63109E-08-1.07753E-07
 -1      6410 5.87574E-08-1.47315E-08-5.20764E-08-1.06147E-08 7.49398E-08-1.08711E-07
 -1      6411 1.46719E-07-5.45711E-08-4.96093E-08-7.89040E-08 1.42347E-08-2.22248E-08
 -1      6412 5.67611E-02-1.72732E-02-2.08132E-02-1.25643E-02-5.85617E-05-4.57400E-04
 -1      6413 5.28567E-02-1.35202E-02-2.06401E-02-1.19658E-02 1.11453E-04-1.47590E-04
 -1      6414 2.75343E-02-1.26333E-02-8.27914E-03 1.09094E-02-7.71753E-04-1.76258E-03
 -1      6415 5.16093E-02-1.79311E-02-1.89212E-02 3.43811E-03 8.94734E-05-1.77031E-04
 -1      6416 4.01445E-02-9.17772E-03-1.78851E-02 1.65088E-03 1.02251E-03 6.39676E-04
 -1      6417-9.04291E-05 3.53081E-06 6.53770E-05-4.35327E-05-1.95125E-05-6.19274E-05
 -1      6418 2.86459E-03-1.18825E-03-9.37977E-04-2.81398E-04 1.07659E-05 1.84789E-06
 -1      6419 2.86406E-03-1.18962E-03-9.36550E-04-2.80152E-04-9.52181E-06-8.77080E-07
 -1      6420 5.85942E-04 2.69905E-04-4.34433E-04-1.11322E-03 2.59802E-05 1.58268E-06
 -1      6421-1.03135E-07 1.33276E-08 4.64417E-08-3.88494E-08-1.04536E-09 4.63041E-09
 -1      6422 1.45820E-07 9.19973E-08-2.06652E-07-2.14515E-08 5.51098E-08-9.20297E-08
 -1      6423 7.15634E-08-3.33043E-09-9.74675E-08-5.25354E-08 4.24578E-08-6.40678E-08
 -1      6424-1.93955E-07 4.65927E-08 7.57548E-08 4.97025E-09-3.90964E-09-4.63143E-09
 -1      6425 1.39140E-07-5.86120E-08-4.06379E-08 5.12275E-08 2.43053E-09 7.01295E-09
 -1      6426 2.45627E-02-1.15681E-02-7.57254E-03-1.17215E-02-6.13537E-04 1.87369E-03
 -1      6427 1.48727E-03-4.63248E-04-5.60578E-04-1.03421E-03 3.41670E-07 7.22697E-07
 -1      6428 4.86185E-02-1.49750E-02-1.90376E-02 6.76823E-04 1.07158E-05-5.18217E-04
 -1      6429 2.02229E-02-7.45271E-03-6.79195E-03-1.17145E-02 7.81756E-05 4.07964E-04
 -1      6430 3.23645E-02-2.33369E-03-1.67844E-02-1.61324E-02 3.58031E-04-6.87036E-04
 -1      6431 3.15937E-02-2.22823E-03-1.67621E-02-1.74336E-02-6.31384E-04 5.10764E-04
 -1      6432 4.19091E-02-8.37175E-03-1.81349E-02-1.04617E-02 8.07691E-04-1.72703E-03
 -1      6433 3.51396E-02-1.17034E-02-1.41194E-02-4.85036E-03 6.29351E-04-6.07173E-04
 -1      6434 5.00777E-02-1.75693E-02-1.80837E-02-1.49163E-02 7.30492E-04 1.58360E-03
 -1      6435 4.07328E-02-5.96396E-03-1.92891E-02-4.53682E-03 1.05783E-03 7.71726E-04
 -1      6436-2.36274E-08 6.78613E-08-2.47000E-08 3.87460E-08 1.50912E-10-1.09865E-09
 -1      6437-2.77775E-08-5.05541E-09 1.94130E-08-2.43745E-08-4.45332E-09-5.36830E-09
 -1      6438-7.99880E-09 5.73371E-08-2.77172E-08 5.49592E-08 7.36554E-10 1.50902E-09
 -1      6439 8.67151E-08-4.44043E-09-7.89508E-08-3.98136E-08 9.32823E-09-1.14149E-08
 -1      6440 4.35961E-02-5.80868E-03-2.11951E-02 1.59402E-02 1.18071E-04-1.84238E-03
 -1      6441-9.14844E-09-1.62779E-08 1.38576E-08-1.38583E-08-1.50543E-09-3.08473E-09
 -1      6442 4.93878E-08-4.04151E-08-2.03291E-08 4.26382E-08 1.75876E-09-9.44434E-09
 -1      6443 5.21934E-02-1.81100E-02-1.93203E-02-3.78710E-03 4.47581E-05 5.57107E-04
 -1      6444 2.17455E-03 2.91331E-03-2.95315E-03-5.34821E-03-8.41720E-05 7.93896E-04
 -1      6445-1.18412E-08-2.30387E-08 1.84096E-08-2.15176E-08 3.16440E-10 8.34584E-11
 -1      6446-2.37203E-08 6.14818E-08-2.09144E-08 3.27026E-08-1.77573E-09-1.09764E-09
 -1      6447 6.67992E-08-3.89940E-08-3.46299E-08 2.04909E-08-1.20731E-09 9.06269E-09
 -1      6448 3.82283E-02-1.03840E-02-1.19839E-02-3.87685E-03 8.29163E-04 3.47264E-03
 -1      6449 2.46872E-02-1.13978E-02-7.71484E-03-1.18882E-02 4.65596E-04-1.75695E-03
 -1      6450 5.20053E-02-1.87881E-02-1.86685E-02-2.69370E-03 6.45698E-06 2.61340E-05
 -1      6451 5.26531E-02-1.92774E-02-1.87613E-02-2.81034E-03 1.38948E-05 1.07333E-05
 -1      6452 5.19729E-02-1.88473E-02-1.86433E-02-2.81500E-03 6.17758E-06 2.59423E-06
 -1      6453 4.97510E-02-1.83834E-02-1.76460E-02 6.10744E-03 3.92408E-05-8.23472E-05
 -1      6454 5.10672E-02-1.89495E-02-1.83069E-02 5.38809E-03 1.26427E-04 5.88143E-05
 -1      6455-2.73299E-08-1.38561E-08 2.49877E-08-3.27335E-08-5.52046E-10 7.89874E-10
 -1      6456-1.08248E-08 5.20644E-08-2.19420E-08 5.14412E-08-2.09290E-10-2.40493E-09
 -1      6457-2.91387E-08-3.02905E-08-3.12949E-09-2.07353E-07-8.05731E-08-1.56392E-07
 -1      6458 7.25615E-08-9.61046E-09-3.31737E-08 8.13500E-08 2.67927E-09 2.76566E-09
 -1      6459 5.18749E-02-1.89114E-02-1.85158E-02-3.48269E-03-5.75535E-05 5.91012E-05
 -1      6460 3.07695E-08-2.47158E-08-1.40752E-09-4.47766E-08 9.00800E-10 4.21480E-09
 -1      6461 3.87185E-02-1.37649E-02-1.43036E-02 7.46837E-03 2.14563E-04-1.38090E-04
 -1      6462 1.35524E-02-1.76372E-04-7.75308E-03 1.21616E-02-1.01625E-03 5.04124E-04
 -1      6463 8.49730E-08-9.06353E-09-4.02017E-08 9.51865E-08 2.05548E-09 4.10480E-09
 -1      6464-1.54922E-04 4.68692E-04-1.77683E-04-1.96976E-04 1.46597E-06-2.41372E-06
 -1      6465 8.46499E-08-2.68583E-08-2.86179E-08 7.36074E-08 2.22080E-09 5.56076E-09
 -1      6466-1.27246E-07 1.62694E-08 6.00400E-08-3.34323E-08-8.65617E-09-2.93295E-09
 -1      6467 2.31288E-02 2.41159E-03-1.52770E-02-2.14798E-02-2.64158E-03 2.57825E-03
 -1      6468 5.18422E-02-1.85438E-02-1.87867E-02 2.61524E-03-2.27602E-05 2.09566E-05
 -1      6469-9.62556E-10-1.47135E-08 1.14609E-08-4.64377E-08 5.10472E-09 1.44309E-09
 -1      6470 2.20685E-02-8.52485E-03-6.54131E-03-6.50222E-03 5.26519E-04 5.85185E-04
 -1      6471 4.12370E-03-9.56056E-04-3.26550E-03-1.87011E-02 1.23021E-03-4.89351E-04
 -1      6472 3.57894E-03-6.78772E-04-1.61811E-03 2.72833E-03-9.42643E-05-5.08199E-05
 -1      6473 4.33737E-02-1.36811E-02-1.66006E-02-1.34064E-03-5.80820E-04 4.61011E-04
 -1      6474-1.96786E-07 5.70733E-08 7.34714E-08-2.77973E-08-6.30212E-09 1.92726E-09
 -1      6475 5.31378E-02-1.96358E-02-1.88624E-02-2.05574E-03 5.49190E-06 2.48511E-05
 -1      6476 5.16140E-02-1.87113E-02-1.84922E-02-3.29896E-03-7.22131E-05 2.16775E-05
 -1      6477 5.13758E-02-1.76487E-02-1.89890E-02-2.08469E-03-2.83580E-07-7.20412E-06
 -1      6478 5.21016E-02-1.78825E-02-1.92806E-02-3.90034E-03-3.69116E-05-4.27107E-04
 -1      6479 3.04585E-02-1.94001E-03-1.58526E-02-1.76523E-02 1.69131E-03-1.10002E-03
 -1      6480 1.99072E-02-7.47310E-03-6.59803E-03 1.15966E-02 1.41790E-04 1.29781E-04
 -1      6481 1.14154E-08-2.69927E-08 8.60826E-09-2.74617E-08-8.74309E-10 4.99448E-09
 -1      6482 3.30728E-02-1.12196E-02-1.28421E-02 8.37673E-03-3.65144E-04-2.25931E-04
 -1      6483 4.13164E-02-1.63277E-02-1.56841E-02 1.55086E-02 2.08261E-03-1.26576E-03
 -1      6484 5.31798E-02-1.95652E-02-1.89163E-02-1.50277E-03-2.12758E-06 2.16193E-05
 -1      6485 1.76645E-07-8.81486E-08-4.28889E-08 1.74485E-08-4.02646E-09-1.53885E-09
 -1      6486-1.99557E-07 3.28441E-08 9.06568E-08-4.77925E-08-4.01311E-09 1.16884E-08
 -1      6487-2.58689E-07-2.50599E-09 1.40607E-07-2.07679E-07 1.12290E-07 1.07226E-07
 -1      6488-1.60164E-07 2.16042E-08 1.63890E-08-1.89712E-07 1.13774E-07 1.57801E-07
 -1      6489 1.33721E-07-1.83400E-08-5.00930E-08 8.75465E-08 1.71354E-08 4.25722E-08
 -1      6490 3.59383E-02-1.17183E-02-1.38857E-02 8.15080E-03 5.79528E-04 4.08377E-04
 -1      6491 5.47478E-02-1.18954E-02-1.98474E-02 1.49539E-02-6.33898E-04-3.80602E-04
 -1      6492-1.23130E-05-9.78558E-07 8.06136E-06 1.77882E-05-5.03981E-07-2.63501E-07
 -1      6493-3.34876E-05 5.88112E-06 1.88308E-05 2.54250E-05 2.69730E-06-5.39112E-06
 -1      6494 5.11684E-02-1.86781E-02-1.82849E-02-3.70804E-03-9.81266E-05 4.62210E-05
 -1      6495-1.69217E-07 1.63803E-08 4.32791E-08-1.18852E-07 2.30302E-08 5.39856E-08
 -1      6496 3.54064E-02 6.24189E-04-1.81766E-02 2.01792E-02 1.73929E-03 1.48762E-03
 -1      6497 3.33770E-02-4.80592E-03-1.60545E-02 1.42699E-02 1.18021E-03 1.06111E-03
 -1      6498-5.67609E-04 7.76472E-04-1.29127E-04 1.64890E-03 3.52481E-05-2.75099E-05
 -1      6499-8.15775E-05 3.42496E-05 2.32683E-05-6.15253E-05 8.11801E-06 2.34235E-05
 -1      6500 7.69991E-03 3.47360E-03-6.77611E-03 1.12891E-02-1.85770E-03-3.56915E-04
 -1      6501 6.29927E-03 3.71044E-03-6.15621E-03 9.79371E-03-7.33039E-04-2.26350E-04
 -1      6502 7.85591E-03 2.40906E-03-7.05036E-03 8.60107E-03-1.11337E-03-2.43457E-04
 -1      6503 3.16991E-02-1.19158E-02-8.15386E-03 6.10992E-03 5.45221E-04-2.14801E-03
 -1      6504 2.88496E-03-1.20155E-03-9.41684E-04 2.54099E-04 1.07695E-05 1.21638E-05
 -1      6505 3.93611E-02-8.30150E-03-1.75482E-02-4.03670E-03-5.39942E-04 5.72233E-04
 -1      6506 1.72249E-07-7.83370E-08-4.88697E-08 7.94897E-08-2.60779E-10 7.44613E-09
 -1      6507 4.27002E-02-6.62820E-03-1.95926E-02-1.70310E-02-6.74729E-04 1.85513E-03
 -1      6508 4.66234E-02-1.00305E-02-2.13264E-02 9.80934E-03 1.49347E-03 6.19690E-05
 -1      6509 1.50354E-07-6.82561E-08-4.84027E-08 6.40618E-08-2.08819E-08-4.73137E-08
 -1      6510-1.07796E-07-2.02784E-07 1.66489E-07 8.36034E-08-5.48940E-08-9.19211E-08
 -1      6511 1.22865E-07-4.66097E-08-4.60839E-08 6.87333E-08 1.96565E-08 2.36366E-08
 -1      6512 5.13167E-02-1.30397E-02-1.91015E-02-1.25052E-02-1.91950E-04 3.25510E-04
 -1      6513 5.14336E-02-1.31775E-02-1.90834E-02-1.44696E-02-1.85382E-04 8.97202E-04
 -1      6514 1.38438E-07-3.61070E-08-7.26125E-08 7.94911E-08-4.65166E-08-7.77231E-08
 -1      6515-1.66498E-07-6.57334E-09 3.64866E-08-1.47719E-07-3.72131E-08-7.13116E-08
 -1      6516-1.65609E-07 1.93413E-08 4.35613E-08-2.00357E-07-1.40766E-07-1.35712E-07
 -1      6517-1.07597E-04 3.88699E-05 4.05038E-05-2.94517E-05 1.21283E-05 3.99716E-05
 -1      6518-1.15658E-05-8.71948E-07 7.77518E-06 1.69539E-05 6.61060E-07 1.12111E-06
 -1      6519 4.31699E-02-1.53689E-02-1.56294E-02 7.03308E-03-1.26555E-04 1.64236E-04
 -1      6520 1.60446E-02 2.53742E-03-1.16539E-02 1.92241E-02 2.17219E-03 8.14588E-04
 -1      6521 2.49258E-02 2.20042E-03-1.48999E-02 2.22886E-02 3.16102E-03 2.78394E-03
 -1      6522 6.61169E-03 3.60240E-03-6.63405E-03 1.09066E-02 1.30725E-03 3.60650E-04
 -1      6523 5.17561E-02-1.17724E-02-1.94797E-02-1.26963E-02 2.56763E-04-1.75072E-04
 -1      6524-1.41480E-05 3.21190E-08 8.36938E-06-1.74844E-05 2.89186E-07-2.42133E-06
 -1      6525 3.65839E-02-3.47338E-03-1.70853E-02 1.75518E-02 5.44892E-04 1.03844E-03
 -1      6526 4.17601E-02-5.68631E-03-1.98285E-02-1.78831E-02 1.04405E-03-3.19757E-03
 -1      6527 4.70757E-02-9.83167E-03-2.05546E-02-1.12301E-02-5.75502E-04-9.63124E-04
 -1      6528 3.72138E-02-1.17401E-02-1.44969E-02 6.37504E-03-5.50003E-04-3.33025E-05
 -1      6529 4.77346E-02-1.35675E-02-1.93491E-02 1.63457E-03 4.17708E-05-1.58019E-04
 -1      6530 4.92610E-02-1.45945E-02-1.97726E-02 1.14898E-03 1.47494E-04-4.57247E-05
 -1      6531 4.09294E-03-2.24173E-03-1.04606E-03-6.48150E-04 3.06795E-06-6.20634E-06
 -1      6532 5.68635E-02-1.60740E-02-2.04418E-02 8.31196E-03-2.31934E-04 2.83100E-04
 -1      6533 4.80223E-02-1.40739E-02-1.92314E-02-1.69965E-03 1.87376E-04-5.29818E-05
 -1      6534 5.28537E-02-1.92068E-02-1.89210E-02-1.78493E-03 2.43797E-05 9.96950E-06
 -1      6535 4.85698E-02-1.48465E-02-1.92114E-02-2.22083E-04-6.64582E-06-4.28444E-04
 -1      6536 4.69673E-02-1.47330E-02-1.81333E-02 1.47761E-03 3.88211E-04 9.65199E-04
 -1      6537-1.56724E-03 1.93222E-03-2.30792E-04 1.08255E-04-1.86828E-05-4.38512E-05
 -1      6538 5.56977E-02-2.16507E-02-1.90821E-02 3.89288E-04 2.66885E-05-1.23644E-04
 -1      6539 4.96630E-02-1.59233E-02-1.89818E-02-1.66062E-03 6.59370E-05-1.29805E-04
 -1      6540-1.97115E-04 4.65446E-04-1.47208E-04-1.46048E-04-1.28703E-07-8.42293E-07
 -1      6541 5.58378E-05-2.29861E-05-8.99341E-06-4.04300E-05 1.05301E-05 3.47031E-06
 -1      6542 5.99341E-02-2.48467E-02-1.99350E-02-8.93613E-04 2.30594E-05 1.18695E-04
 -1      6543 6.00961E-02-2.49880E-02-1.99642E-02-9.27093E-04-1.97432E-05-1.35834E-04
 -1      6544 7.95180E-06 1.38664E-04-9.50291E-05 1.01957E-04-1.21802E-05-7.22824E-06
 -1      6545 3.15497E-06 3.61788E-04-1.55207E-04 1.90314E-03 4.39573E-05-4.17776E-06
 -1      6546 5.19284E-02-1.83011E-02-1.89472E-02-1.89491E-03 1.83482E-05-1.06239E-05
 -1      6547 5.15858E-02-1.78364E-02-1.89785E-02-1.29918E-03 2.52104E-06-3.21525E-05
 -1      6548-1.94608E-04 4.35866E-04-1.32721E-04-1.39109E-05 5.37878E-07-4.87064E-07
 -1      6549 2.69724E-03-1.23850E-03-7.97443E-04-6.48370E-04-4.61470E-06 3.03016E-06
 -1      6550 2.66449E-03-1.23072E-03-7.87659E-04-6.59641E-04 4.66646E-08 1.35826E-06
 -1      6551 2.69618E-03-1.23846E-03-7.97801E-04-6.48083E-04 4.51055E-06 6.40096E-07
 -1      6552-3.14912E-05 1.68922E-04-4.43082E-05 1.51195E-04-4.17659E-05-2.05479E-05
 -1      6553 4.11208E-05-3.70588E-05-2.05411E-06-2.14237E-05 2.30528E-06-5.55420E-07
 -1      6554 4.48283E-02-1.55171E-02-1.63373E-02 8.75362E-03 2.37672E-04 6.09476E-04
 -1      6555 5.72904E-02-1.65085E-02-2.05414E-02 8.95230E-03 1.61730E-03 2.01212E-04
 -1      6556 2.00373E-02-4.84328E-03-8.18711E-03 7.26553E-03-6.73793E-04-2.75475E-04
 -1      6557 6.23975E-02-2.54191E-02-2.06807E-02 6.01932E-03 3.36798E-04 4.83041E-04
 -1      6558 5.20860E-02-1.86156E-02-1.88483E-02 2.31212E-03 8.39343E-06 2.78269E-05
 -1      6559 6.28288E-02-2.56737E-02-2.09996E-02 6.23209E-03-4.86985E-05-3.42764E-04
 -1      6560 4.28629E-02-8.56045E-03-1.92057E-02-2.60030E-03 2.35967E-05 6.77777E-05
 -1      6561-1.92885E-03 2.89082E-03-4.61393E-04 1.97499E-03 3.03751E-05 2.99471E-05
 -1      6562 5.21658E-02-1.84965E-02-1.89720E-02 2.51856E-03 9.45182E-06-4.93141E-05
 -1      6563 4.62974E-02-1.22712E-02-1.91625E-02-4.02326E-03-2.95822E-04 4.15285E-04
 -1      6564 4.84268E-02-1.47153E-02-1.91851E-02 7.72520E-06 2.25007E-05-4.44731E-04
 -1      6565 4.63139E-02-1.28312E-02-1.89784E-02 7.04142E-04-1.46355E-04-5.04911E-04
 -1      6566-4.97870E-03 5.77371E-03-4.15650E-04 1.46121E-03-4.20905E-05-2.05139E-04
 -1      6567 2.45548E-03 7.39043E-05-1.45829E-03-3.87145E-03 1.16616E-04-2.36080E-05
 -1      6568-4.81856E-08 1.16751E-07-4.85901E-08-1.34946E-07 7.57370E-08 2.14769E-07
 -1      6569-1.41926E-04 4.56855E-04-1.73653E-04 2.67779E-04-1.82602E-06-2.04580E-06
 -1      6570 4.24978E-02-1.15269E-02-1.74744E-02-9.67614E-05 2.55163E-05-1.12362E-04
 -1      6571-1.56007E-05-1.02931E-05 1.80981E-05-4.88721E-05-3.05751E-07 3.11999E-06
 -1      6572-2.08272E-06-9.17513E-06 6.31901E-06 2.41597E-05 7.56275E-07 1.89210E-06
 -1      6573-7.05542E-06-1.22429E-06 4.92177E-06-9.34743E-06-5.67258E-07 5.54559E-07
 -1      6574 3.54331E-02-1.03288E-02-1.44279E-02-5.52952E-03-3.11224E-04 5.09043E-04
 -1      6575 6.64621E-04 6.24496E-05-3.98265E-04 9.63016E-04-3.11846E-06-8.69041E-06
 -1      6576 4.99680E-02-1.60451E-02-1.91344E-02-2.08910E-03-5.53934E-05 1.11364E-04
 -1      6577-1.54081E-08 2.33268E-08-6.80977E-10-1.89454E-08-2.09453E-09 2.54542E-10
 -1      6578 5.21349E-02-1.65490E-02-2.01653E-02 5.22306E-03-1.03206E-04 1.48013E-04
 -1      6579 5.06628E-02-1.59628E-02-1.92534E-02 2.04642E-04 1.17090E-04-6.65528E-04
 -1      6580 2.20370E-07-1.42707E-07-4.29877E-09-1.08833E-07-1.25556E-07-8.27026E-08
 -1      6581 8.00452E-08-2.79658E-08-6.78995E-08 1.52927E-07 8.09399E-08-1.98304E-07
 -1      6582 5.04900E-02-1.38636E-02-2.02877E-02 7.11483E-03-1.39473E-04-5.31549E-04
 -1      6583 6.86671E-03-1.67930E-03-2.92976E-03 5.03899E-03-2.22018E-04 1.07562E-03
 -1      6584-1.91695E-08 2.39326E-08-1.34153E-09 3.37465E-09-4.74350E-09 3.32779E-09
 -1      6585 1.39711E-04 3.57871E-04-2.81317E-04-8.58918E-04-5.19774E-06-5.95828E-06
 -1      6586-7.72862E-07-6.48147E-07 9.52877E-07 1.24343E-06 5.15706E-07-7.56321E-08
 -1      6587-7.85392E-06-8.01378E-07 5.60984E-06-8.87956E-06 8.69864E-07-1.58063E-07
 -1      6588 1.73396E-08-2.39974E-08 5.82452E-09 7.90285E-11-6.13176E-09-3.52996E-10
 -1      6589 1.14955E-02-2.79982E-03-4.58566E-03-7.30161E-03 5.92734E-05 3.01282E-04
 -1      6590 4.38802E-02-1.01731E-02-1.89504E-02 2.75508E-03 4.03663E-04 1.17745E-04
 -1      6591-1.29057E-08 2.16390E-08-2.48312E-09 5.67473E-09-3.32156E-09-1.63218E-09
 -1      6592-7.40427E-09 8.60065E-09 2.04965E-09 2.45105E-08 6.20423E-10-3.37590E-09
 -1      6593-9.01731E-04 1.67693E-03-4.33608E-04 1.38360E-03 2.13300E-05-1.85470E-05
 -1      6594-6.68362E-03 6.86091E-03-6.19252E-05-2.03659E-03-9.73548E-06-1.64378E-04
 -1      6595 3.45788E-02-1.10661E-02-1.36584E-02 4.69502E-03 7.17004E-04-4.27728E-04
 -1      6596 7.25537E-02-2.47762E-02-2.63151E-02 5.76610E-03-1.75333E-04-1.79210E-03
 -1      6597-2.06738E-08-6.06158E-07 4.43572E-07-2.61779E-07-1.66862E-07-5.69467E-08
 -1      6598-9.87205E-07-6.15129E-07 9.52480E-07 1.28492E-06-5.77607E-07 2.02057E-07
 -1      6599 5.25868E-03-1.94429E-03-1.82900E-03-4.29875E-03 7.56323E-05-6.54481E-05
 -1      6600 1.86991E-09-6.79956E-09 1.61012E-09-1.76439E-08 2.13324E-09 3.78560E-09
 -1      6601-2.40714E-07 2.90659E-08 1.00241E-07 1.33422E-07 2.14813E-08-5.08519E-08
 -1      6602 4.39522E-02-1.34360E-02-1.72413E-02-1.45387E-03-2.43129E-04 5.20837E-04
 -1      6603 1.30974E-03-3.58339E-04-5.20971E-04-1.05098E-03 2.46650E-06 1.13975E-05
 -1      6604 1.30987E-03-3.58967E-04-5.20197E-04-1.05119E-03-2.03778E-06-9.56837E-06
 -1      6605 1.90678E-07-8.31569E-08-6.12064E-08 5.14661E-08 1.90855E-09 2.37402E-09
 -1      6606 4.38799E-05 4.22737E-04-2.54509E-04 6.23965E-04-3.96730E-06-5.80329E-06
 -1      6607 4.41488E-05 4.23153E-04-2.54992E-04 6.22922E-04 4.45303E-06 7.16792E-06
 -1      6608 3.54423E-08-2.54875E-08-1.76488E-08-4.30788E-08 6.92943E-10 2.88528E-09
 -1      6609-7.12832E-08-6.30586E-08 5.63566E-08 1.18533E-07-6.29719E-08 1.08289E-07
 -1      6610 4.01934E-02-1.06567E-02-1.62614E-02 8.13103E-03 8.81005E-04 1.75234E-03
 -1      6611 1.42383E-08-1.49339E-08 4.03146E-09-3.68685E-08 5.18637E-09-7.53603E-10
 -1      6612 3.33442E-08-3.44272E-08-1.34979E-09-1.18048E-08 3.47349E-09 2.73909E-09
 -1      6613 1.40923E-02-3.97859E-03-6.24770E-03 9.48117E-03 1.26319E-04-2.99846E-04
 -1      6614-1.35673E-07 4.41561E-08 4.63712E-08-8.07708E-09-9.30239E-10-2.10320E-08
 -1      6615 7.84632E-08 1.79640E-08-8.77113E-08-7.31370E-09-8.08141E-08-1.08666E-07
 -1      6616 4.70431E-02-1.73533E-02-1.65643E-02 6.61875E-03-2.30985E-04 8.31757E-05
 -1      6617 4.78944E-02-1.48267E-02-1.86500E-02-1.53871E-03 6.15769E-05 8.56310E-04
 -1      6618 5.04898E-03-3.71517E-03-8.07422E-04-3.18670E-05 1.10640E-04-1.45409E-06
 -1      6619-8.86986E-05 1.08842E-04-3.07010E-05-1.49137E-04-2.61784E-05 1.68973E-05
 -1      6620-3.78365E-03 5.07203E-03-2.21924E-03-1.38102E-02 5.85588E-04-4.84852E-04
 -1      6621-9.85563E-08 1.28030E-08 4.44993E-08 2.91078E-08 3.81963E-09 1.32109E-08
 -1      6622 1.01955E-07 2.31951E-09-1.11894E-07-1.55563E-08-4.15207E-08 6.38467E-08
 -1      6623-1.95016E-07 1.75689E-08 3.77307E-08-1.49245E-07 4.57134E-08 9.12987E-08
 -1      6624 1.15260E-07 1.93200E-08-1.27317E-07-4.74522E-08-2.94329E-08 2.24169E-08
 -1      6625-1.37966E-08-1.69210E-08 1.70718E-08 2.47945E-08-3.46398E-09 1.29573E-09
 -1      6626-1.82413E-08 2.57759E-08-2.97390E-09 2.67008E-09-1.75212E-09 4.19688E-10
 -1      6627-6.61337E-06-1.12009E-06 4.99369E-06 9.36344E-06-7.10005E-07-8.09105E-07
 -1      6628-6.21163E-06-1.20778E-06 5.00785E-06 8.97985E-06 7.58690E-07 1.29739E-06
 -1      6629 4.55762E-02-8.80070E-03-1.98050E-02-9.30764E-03-1.18296E-03-7.62078E-04
 -1      6630-1.06884E-05-5.87221E-06 8.85135E-06-3.02882E-05-1.19666E-06-2.94727E-06
 -1      6631 9.37478E-03-4.53841E-03-2.63126E-03 5.75381E-03-7.54122E-05 3.65683E-04
 -1      6632 4.88686E-02-1.54087E-02-1.87647E-02 1.20635E-03-1.69356E-04 1.18685E-03
 -1      6633 5.28110E-02-1.90554E-02-1.89751E-02-4.95198E-04 1.00285E-05-1.14959E-05
 -1      6634 5.30465E-02-1.93614E-02-1.89346E-02-1.27331E-03-7.48648E-06-2.17674E-06
 -1      6635 4.20701E-03-8.60786E-04-1.74708E-03-3.95579E-03 1.59851E-05-6.93204E-06
 -1      6636 2.82765E-02-6.41662E-03-1.19728E-02 1.17536E-02 1.45306E-03 4.61891E-05
 -1      6637 5.57442E-02-2.19928E-02-1.90273E-02-4.86185E-03 9.30503E-05 1.21149E-04
 -1      6638 4.29981E-02-1.12043E-02-1.78174E-02 5.91664E-04-1.92745E-04-2.63002E-04
 -1      6639-1.01908E-06-9.85251E-06 6.70118E-06 2.43192E-05-3.02765E-06-1.10942E-06
 -1      6640-3.01643E-07 8.01706E-08 2.84556E-08 5.98711E-07 9.31527E-09-2.23574E-07
 -1      6641 5.52327E-02-2.13124E-02-1.90925E-02-6.19196E-04-8.53428E-06 5.93890E-05
 -1      6642 3.39931E-02-1.04707E-02-1.34585E-02 7.25018E-03-6.12229E-04 1.89088E-04
 -1      6643 2.30546E-02 2.26593E-03-1.54414E-02-2.11777E-02 2.41940E-03-2.22387E-03
 -1      6644 5.17571E-02-1.17776E-02-2.08928E-02-1.42923E-02 1.55036E-04 9.32531E-04
 -1      6645 2.05788E-02-4.34512E-03-9.32602E-03-1.00377E-02-7.48379E-04-1.37985E-04
 -1      6646 5.09237E-02-1.69763E-02-1.91480E-02-2.72801E-03 9.20904E-06 3.84048E-05
 -1      6647 5.21643E-02-1.85256E-02-1.90667E-02-2.61363E-03 5.38418E-05-2.02531E-05
 -1      6648 3.58129E-03-6.81728E-04-1.61448E-03 2.72824E-03 1.01330E-04 5.58827E-05
 -1      6649 4.79056E-02-1.40724E-02-1.91605E-02-1.45257E-03-1.32872E-04 3.49881E-04
 -1      6650 5.30835E-02-1.93448E-02-1.89643E-02 9.35462E-04 6.13048E-06-1.34697E-05
 -1      6651 5.11069E-02-1.56021E-02-2.02499E-02-6.89119E-03 9.17989E-05-2.58488E-04
 -1      6652 2.56593E-02-1.24941E-02-7.51164E-03 5.09744E-03 8.65765E-04-5.46776E-04
 -1      6653 3.84048E-03-4.40655E-04-1.87995E-03-4.36722E-03 1.10778E-05 7.55584E-05
 -1      6654 5.22626E-02-1.86064E-02-1.89602E-02-1.62043E-03-1.40435E-05-1.48506E-05
 -1      6655-1.40417E-07 3.65575E-08 2.02330E-08-3.75217E-07 9.14626E-08 1.69069E-07
 -1      6656-1.41838E-04 4.56822E-04-1.73466E-04 2.67677E-04 1.90700E-06 2.20469E-06
 -1      6657 4.33785E-02-1.51179E-02-1.64302E-02 7.18777E-03-3.89929E-04-7.72966E-04
 -1      6658 5.18947E-02-1.83385E-02-1.89186E-02-2.04226E-03-7.21916E-06 6.47315E-06
 -1      6659 4.96922E-02-1.55045E-02-1.86136E-02-1.12104E-03 2.58961E-05-4.58814E-04
 -1      6660 1.81942E-04 4.69317E-04-3.58270E-04 1.09997E-03-6.77581E-05-2.66200E-05
 -1      6661 3.77936E-03-9.81036E-04-1.72312E-03 2.31715E-03-9.66472E-05 1.08985E-04
 -1      6662 4.83751E-08-4.19621E-08 1.13987E-09 9.98380E-09 3.83987E-09 9.97781E-09
 -1      6663 3.10100E-03 4.27351E-03-4.47458E-03 7.79045E-03-6.30454E-04 2.56904E-04
 -1      6664 5.61454E-03-9.09655E-04-2.51797E-03 6.00120E-03 1.09710E-04-9.10202E-05
 -1      6665 5.11039E-02-1.36371E-02-1.99932E-02-1.17591E-02 2.81751E-04-1.64127E-04
 -1      6666 3.94436E-02-1.36171E-02-1.45698E-02 6.36334E-03-1.96929E-04-7.28358E-05
 -3
 9999
